TITLE = "B00003"
VARIABLES = "X", "Y", "Z", "Reynold stress YZ"
ZONE T="Frame 1" I=52, J=45, K=4, F=POINT
-343.257996 393.257996 -49.298302 0.000000
-329.774689 393.257996 -49.298302 0.000000
-316.291382 393.257996 -49.298302 0.000000
-302.808105 393.257996 -49.298302 0.000000
-289.324799 393.257996 -49.298302 0.000000
-275.841492 393.257996 -49.298302 0.000000
-262.358185 393.257996 -49.298302 0.000000
-248.874893 393.257996 -49.298302 0.000000
-235.391602 393.257996 -49.298302 0.000000
-221.908295 393.257996 -49.298302 0.000000
-208.424988 393.257996 -49.298302 0.000000
-194.941696 393.257996 -49.298302 0.000000
-181.458389 393.257996 -49.298302 0.000000
-167.975098 393.257996 -49.298302 0.000000
-154.491791 393.257996 -49.298302 0.000000
-141.008499 393.257996 -49.298302 0.000000
-127.525192 393.257996 -49.298302 0.000000
-114.041885 393.257996 -49.298302 0.000000
-100.558594 393.257996 -49.298302 0.000000
-87.075287 393.257996 -49.298302 0.000000
-73.591980 393.257996 -49.298302 0.000000
-60.108704 393.257996 -49.298302 0.000000
-46.625397 393.257996 -49.298302 0.000000
-33.142090 393.257996 -49.298302 0.000000
-19.658783 393.257996 -49.298302 0.000000
-6.175476 393.257996 -49.298302 0.000000
7.307800 393.257996 -49.298302 0.000000
20.791107 393.257996 -49.298302 0.000000
34.274414 393.257996 -49.298302 0.000000
47.757721 393.257996 -49.298302 0.000000
61.240997 393.257996 -49.298302 0.000000
74.724304 393.257996 -49.298302 0.000000
88.207611 393.257996 -49.298302 0.000000
101.690918 393.257996 -49.298302 0.000000
115.174225 393.257996 -49.298302 0.000000
128.657501 393.257996 -49.298302 0.000000
142.140808 393.257996 -49.298302 0.000000
155.624115 393.257996 -49.298302 0.000000
169.107422 393.257996 -49.298302 0.000000
182.590698 393.257996 -49.298302 0.000000
196.074036 393.257996 -49.298302 0.000000
209.557312 393.257996 -49.298302 0.000000
223.040588 393.257996 -49.298302 0.000000
236.523926 393.257996 -49.298302 0.000000
250.007202 393.257996 -49.298302 0.000000
263.490540 393.257996 -49.298302 0.000000
276.973816 393.257996 -49.298302 0.000000
290.457092 393.257996 -49.298302 0.000000
303.940430 393.257996 -49.298302 0.000000
317.423706 393.257996 -49.298302 0.000000
330.907043 393.257996 -49.298302 0.000000
344.390320 393.257996 -49.298302 0.000000
-343.257996 379.774689 -49.298302 0.000000
-329.774689 379.774689 -49.298302 0.000000
-316.291382 379.774689 -49.298302 0.000000
-302.808105 379.774689 -49.298302 0.000000
-289.324799 379.774689 -49.298302 0.000000
-275.841492 379.774689 -49.298302 0.000000
-262.358185 379.774689 -49.298302 0.000000
-248.874893 379.774689 -49.298302 0.000000
-235.391602 379.774689 -49.298302 0.000000
-221.908295 379.774689 -49.298302 0.000000
-208.424988 379.774689 -49.298302 0.000000
-194.941696 379.774689 -49.298302 0.000000
-181.458389 379.774689 -49.298302 0.000000
-167.975098 379.774689 -49.298302 0.000000
-154.491791 379.774689 -49.298302 0.000000
-141.008499 379.774689 -49.298302 0.000000
-127.525192 379.774689 -49.298302 0.000000
-114.041885 379.774689 -49.298302 0.000000
-100.558594 379.774689 -49.298302 0.000000
-87.075287 379.774689 -49.298302 0.000000
-73.591980 379.774689 -49.298302 0.000000
-60.108704 379.774689 -49.298302 0.000000
-46.625397 379.774689 -49.298302 0.000000
-33.142090 379.774689 -49.298302 0.000000
-19.658783 379.774689 -49.298302 0.000000
-6.175476 379.774689 -49.298302 0.000000
7.307800 379.774689 -49.298302 0.000000
20.791107 379.774689 -49.298302 0.000000
34.274414 379.774689 -49.298302 0.000000
47.757721 379.774689 -49.298302 0.000000
61.240997 379.774689 -49.298302 0.000000
74.724304 379.774689 -49.298302 0.000000
88.207611 379.774689 -49.298302 0.000000
101.690918 379.774689 -49.298302 0.000000
115.174225 379.774689 -49.298302 0.000000
128.657501 379.774689 -49.298302 0.000000
142.140808 379.774689 -49.298302 0.000000
155.624115 379.774689 -49.298302 0.000000
169.107422 379.774689 -49.298302 0.000000
182.590698 379.774689 -49.298302 0.000000
196.074036 379.774689 -49.298302 0.000000
209.557312 379.774689 -49.298302 0.000000
223.040588 379.774689 -49.298302 0.000000
236.523926 379.774689 -49.298302 0.000000
250.007202 379.774689 -49.298302 0.000000
263.490540 379.774689 -49.298302 0.000000
276.973816 379.774689 -49.298302 0.000000
290.457092 379.774689 -49.298302 0.000000
303.940430 379.774689 -49.298302 0.000000
317.423706 379.774689 -49.298302 0.000000
330.907043 379.774689 -49.298302 0.000000
344.390320 379.774689 -49.298302 0.000000
-343.257996 366.291382 -49.298302 0.000000
-329.774689 366.291382 -49.298302 0.000000
-316.291382 366.291382 -49.298302 0.000000
-302.808105 366.291382 -49.298302 0.000000
-289.324799 366.291382 -49.298302 0.000000
-275.841492 366.291382 -49.298302 0.000000
-262.358185 366.291382 -49.298302 0.000000
-248.874893 366.291382 -49.298302 0.000000
-235.391602 366.291382 -49.298302 0.000000
-221.908295 366.291382 -49.298302 0.000000
-208.424988 366.291382 -49.298302 0.000000
-194.941696 366.291382 -49.298302 0.000000
-181.458389 366.291382 -49.298302 0.000000
-167.975098 366.291382 -49.298302 0.000000
-154.491791 366.291382 -49.298302 0.000000
-141.008499 366.291382 -49.298302 0.000000
-127.525192 366.291382 -49.298302 0.000000
-114.041885 366.291382 -49.298302 0.000000
-100.558594 366.291382 -49.298302 0.000000
-87.075287 366.291382 -49.298302 0.000000
-73.591980 366.291382 -49.298302 0.000000
-60.108704 366.291382 -49.298302 0.000000
-46.625397 366.291382 -49.298302 0.000000
-33.142090 366.291382 -49.298302 0.000000
-19.658783 366.291382 -49.298302 0.000000
-6.175476 366.291382 -49.298302 0.000000
7.307800 366.291382 -49.298302 0.000000
20.791107 366.291382 -49.298302 0.000000
34.274414 366.291382 -49.298302 0.000000
47.757721 366.291382 -49.298302 0.000000
61.240997 366.291382 -49.298302 0.000000
74.724304 366.291382 -49.298302 0.000000
88.207611 366.291382 -49.298302 0.000000
101.690918 366.291382 -49.298302 0.000000
115.174225 366.291382 -49.298302 0.000000
128.657501 366.291382 -49.298302 0.000000
142.140808 366.291382 -49.298302 0.000000
155.624115 366.291382 -49.298302 0.000000
169.107422 366.291382 -49.298302 0.000000
182.590698 366.291382 -49.298302 0.000000
196.074036 366.291382 -49.298302 0.000000
209.557312 366.291382 -49.298302 0.000000
223.040588 366.291382 -49.298302 0.000000
236.523926 366.291382 -49.298302 0.000000
250.007202 366.291382 -49.298302 0.000000
263.490540 366.291382 -49.298302 0.000000
276.973816 366.291382 -49.298302 0.000000
290.457092 366.291382 -49.298302 0.000000
303.940430 366.291382 -49.298302 0.000000
317.423706 366.291382 -49.298302 0.000000
330.907043 366.291382 -49.298302 0.000000
344.390320 366.291382 -49.298302 0.000000
-343.257996 352.808105 -49.298302 0.000000
-329.774689 352.808105 -49.298302 0.000000
-316.291382 352.808105 -49.298302 0.000000
-302.808105 352.808105 -49.298302 0.000000
-289.324799 352.808105 -49.298302 0.000000
-275.841492 352.808105 -49.298302 0.000000
-262.358185 352.808105 -49.298302 0.000000
-248.874893 352.808105 -49.298302 0.000000
-235.391602 352.808105 -49.298302 0.000000
-221.908295 352.808105 -49.298302 0.000000
-208.424988 352.808105 -49.298302 0.000000
-194.941696 352.808105 -49.298302 0.000000
-181.458389 352.808105 -49.298302 -1.920405
-167.975098 352.808105 -49.298302 -2.527448
-154.491791 352.808105 -49.298302 -2.506142
-141.008499 352.808105 -49.298302 -2.939862
-127.525192 352.808105 -49.298302 -3.497940
-114.041885 352.808105 -49.298302 -3.940165
-100.558594 352.808105 -49.298302 -3.992656
-87.075287 352.808105 -49.298302 -4.387408
-73.591980 352.808105 -49.298302 -4.072018
-60.108704 352.808105 -49.298302 -3.481606
-46.625397 352.808105 -49.298302 -2.461680
-33.142090 352.808105 -49.298302 -1.344986
-19.658783 352.808105 -49.298302 -0.780486
-6.175476 352.808105 -49.298302 -0.615875
7.307800 352.808105 -49.298302 -0.479984
20.791107 352.808105 -49.298302 -0.415709
34.274414 352.808105 -49.298302 -0.365199
47.757721 352.808105 -49.298302 -0.212100
61.240997 352.808105 -49.298302 -0.143831
74.724304 352.808105 -49.298302 -0.093844
88.207611 352.808105 -49.298302 -0.249331
101.690918 352.808105 -49.298302 -0.551234
115.174225 352.808105 -49.298302 -0.777321
128.657501 352.808105 -49.298302 -1.109005
142.140808 352.808105 -49.298302 0.000000
155.624115 352.808105 -49.298302 0.000000
169.107422 352.808105 -49.298302 0.000000
182.590698 352.808105 -49.298302 0.000000
196.074036 352.808105 -49.298302 0.000000
209.557312 352.808105 -49.298302 0.000000
223.040588 352.808105 -49.298302 0.000000
236.523926 352.808105 -49.298302 0.000000
250.007202 352.808105 -49.298302 0.000000
263.490540 352.808105 -49.298302 0.000000
276.973816 352.808105 -49.298302 0.000000
290.457092 352.808105 -49.298302 0.000000
303.940430 352.808105 -49.298302 0.000000
317.423706 352.808105 -49.298302 0.000000
330.907043 352.808105 -49.298302 0.000000
344.390320 352.808105 -49.298302 0.000000
-343.257996 339.324799 -49.298302 0.000000
-329.774689 339.324799 -49.298302 0.000000
-316.291382 339.324799 -49.298302 0.000000
-302.808105 339.324799 -49.298302 0.000000
-289.324799 339.324799 -49.298302 0.000000
-275.841492 339.324799 -49.298302 0.000000
-262.358185 339.324799 -49.298302 -0.347644
-248.874893 339.324799 -49.298302 -0.113711
-235.391602 339.324799 -49.298302 -0.764871
-221.908295 339.324799 -49.298302 -0.992383
-208.424988 339.324799 -49.298302 -1.240572
-194.941696 339.324799 -49.298302 -1.732929
-181.458389 339.324799 -49.298302 -1.928969
-167.975098 339.324799 -49.298302 -2.262534
-154.491791 339.324799 -49.298302 -2.219222
-141.008499 339.324799 -49.298302 -2.734025
-127.525192 339.324799 -49.298302 -3.303296
-114.041885 339.324799 -49.298302 -3.951500
-100.558594 339.324799 -49.298302 -4.273696
-87.075287 339.324799 -49.298302 -3.995554
-73.591980 339.324799 -49.298302 -4.151018
-60.108704 339.324799 -49.298302 -3.341147
-46.625397 339.324799 -49.298302 -2.947939
-33.142090 339.324799 -49.298302 -1.942813
-19.658783 339.324799 -49.298302 -1.056691
-6.175476 339.324799 -49.298302 -0.677573
7.307800 339.324799 -49.298302 -0.674602
20.791107 339.324799 -49.298302 -0.430555
34.274414 339.324799 -49.298302 -0.446141
47.757721 339.324799 -49.298302 -0.335172
61.240997 339.324799 -49.298302 -0.283357
74.724304 339.324799 -49.298302 -0.288167
88.207611 339.324799 -49.298302 -0.587214
101.690918 339.324799 -49.298302 -1.140225
115.174225 339.324799 -49.298302 -1.346356
128.657501 339.324799 -49.298302 -1.696823
142.140808 339.324799 -49.298302 -1.514526
155.624115 339.324799 -49.298302 -1.403005
169.107422 339.324799 -49.298302 -1.239894
182.590698 339.324799 -49.298302 -1.385593
196.074036 339.324799 -49.298302 -1.117315
209.557312 339.324799 -49.298302 -1.008970
223.040588 339.324799 -49.298302 -1.058197
236.523926 339.324799 -49.298302 -1.261279
250.007202 339.324799 -49.298302 -1.314169
263.490540 339.324799 -49.298302 -1.653429
276.973816 339.324799 -49.298302 0.000000
290.457092 339.324799 -49.298302 0.000000
303.940430 339.324799 -49.298302 0.000000
317.423706 339.324799 -49.298302 0.000000
330.907043 339.324799 -49.298302 0.000000
344.390320 339.324799 -49.298302 0.000000
-343.257996 325.841492 -49.298302 0.000000
-329.774689 325.841492 -49.298302 0.000000
-316.291382 325.841492 -49.298302 0.000000
-302.808105 325.841492 -49.298302 0.000000
-289.324799 325.841492 -49.298302 0.079935
-275.841492 325.841492 -49.298302 0.021403
-262.358185 325.841492 -49.298302 -0.036979
-248.874893 325.841492 -49.298302 -0.176909
-235.391602 325.841492 -49.298302 -0.557040
-221.908295 325.841492 -49.298302 -0.778576
-208.424988 325.841492 -49.298302 -0.925280
-194.941696 325.841492 -49.298302 -1.400468
-181.458389 325.841492 -49.298302 -1.754628
-167.975098 325.841492 -49.298302 -1.972812
-154.491791 325.841492 -49.298302 -2.281215
-141.008499 325.841492 -49.298302 -2.605204
-127.525192 325.841492 -49.298302 -3.198869
-114.041885 325.841492 -49.298302 -3.094942
-100.558594 325.841492 -49.298302 -3.479207
-87.075287 325.841492 -49.298302 -3.514019
-73.591980 325.841492 -49.298302 -3.660542
-60.108704 325.841492 -49.298302 -3.131741
-46.625397 325.841492 -49.298302 -2.892596
-33.142090 325.841492 -49.298302 -2.275043
-19.658783 325.841492 -49.298302 -1.300406
-6.175476 325.841492 -49.298302 -1.072293
7.307800 325.841492 -49.298302 -0.888170
20.791107 325.841492 -49.298302 -0.592472
34.274414 325.841492 -49.298302 -0.571979
47.757721 325.841492 -49.298302 -0.470625
61.240997 325.841492 -49.298302 -0.406436
74.724304 325.841492 -49.298302 -0.644759
88.207611 325.841492 -49.298302 -1.129217
101.690918 325.841492 -49.298302 -1.901286
115.174225 325.841492 -49.298302 -2.186348
128.657501 325.841492 -49.298302 -2.407648
142.140808 325.841492 -49.298302 -2.290244
155.624115 325.841492 -49.298302 -1.899844
169.107422 325.841492 -49.298302 -1.768876
182.590698 325.841492 -49.298302 -1.630816
196.074036 325.841492 -49.298302 -1.151974
209.557312 325.841492 -49.298302 -1.014110
223.040588 325.841492 -49.298302 -1.024580
236.523926 325.841492 -49.298302 -0.967416
250.007202 325.841492 -49.298302 -0.885160
263.490540 325.841492 -49.298302 -0.700250
276.973816 325.841492 -49.298302 -0.760291
290.457092 325.841492 -49.298302 0.000000
303.940430 325.841492 -49.298302 0.000000
317.423706 325.841492 -49.298302 0.000000
330.907043 325.841492 -49.298302 0.000000
344.390320 325.841492 -49.298302 0.000000
-343.257996 312.358185 -49.298302 0.000000
-329.774689 312.358185 -49.298302 0.000000
-316.291382 312.358185 -49.298302 0.000000
-302.808105 312.358185 -49.298302 0.000000
-289.324799 312.358185 -49.298302 -0.074071
-275.841492 312.358185 -49.298302 -0.143590
-262.358185 312.358185 -49.298302 -0.218785
-248.874893 312.358185 -49.298302 -0.457511
-235.391602 312.358185 -49.298302 -0.531602
-221.908295 312.358185 -49.298302 -0.513931
-208.424988 312.358185 -49.298302 -0.804776
-194.941696 312.358185 -49.298302 -1.250568
-181.458389 312.358185 -49.298302 -1.791513
-167.975098 312.358185 -49.298302 -1.812289
-154.491791 312.358185 -49.298302 -2.159162
-141.008499 312.358185 -49.298302 -2.624325
-127.525192 312.358185 -49.298302 -2.743615
-114.041885 312.358185 -49.298302 -2.717459
-100.558594 312.358185 -49.298302 -2.506173
-87.075287 312.358185 -49.298302 -2.964864
-73.591980 312.358185 -49.298302 -2.853163
-60.108704 312.358185 -49.298302 -2.793594
-46.625397 312.358185 -49.298302 -2.709834
-33.142090 312.358185 -49.298302 -2.180360
-19.658783 312.358185 -49.298302 -1.555303
-6.175476 312.358185 -49.298302 -1.407763
7.307800 312.358185 -49.298302 -0.934310
20.791107 312.358185 -49.298302 -0.811193
34.274414 312.358185 -49.298302 -0.762559
47.757721 312.358185 -49.298302 -0.715821
61.240997 312.358185 -49.298302 -0.559265
74.724304 312.358185 -49.298302 -0.941813
88.207611 312.358185 -49.298302 -1.841586
101.690918 312.358185 -49.298302 -2.386865
115.174225 312.358185 -49.298302 -3.137563
128.657501 312.358185 -49.298302 -2.653284
142.140808 312.358185 -49.298302 -2.477307
155.624115 312.358185 -49.298302 -2.266885
169.107422 312.358185 -49.298302 -1.763796
182.590698 312.358185 -49.298302 -1.545205
196.074036 312.358185 -49.298302 -1.405209
209.557312 312.358185 -49.298302 -1.019212
223.040588 312.358185 -49.298302 -0.808566
236.523926 312.358185 -49.298302 -0.710234
250.007202 312.358185 -49.298302 -0.445727
263.490540 312.358185 -49.298302 -0.420684
276.973816 312.358185 -49.298302 -0.527763
290.457092 312.358185 -49.298302 -0.323538
303.940430 312.358185 -49.298302 0.000000
317.423706 312.358185 -49.298302 0.000000
330.907043 312.358185 -49.298302 0.000000
344.390320 312.358185 -49.298302 0.000000
-343.257996 298.874878 -49.298302 0.000000
-329.774689 298.874878 -49.298302 0.000000
-316.291382 298.874878 -49.298302 0.000000
-302.808105 298.874878 -49.298302 0.000000
-289.324799 298.874878 -49.298302 -0.059587
-275.841492 298.874878 -49.298302 -0.091063
-262.358185 298.874878 -49.298302 -0.062217
-248.874893 298.874878 -49.298302 -0.178250
-235.391602 298.874878 -49.298302 -0.310830
-221.908295 298.874878 -49.298302 -0.707150
-208.424988 298.874878 -49.298302 -0.960866
-194.941696 298.874878 -49.298302 -1.023395
-181.458389 298.874878 -49.298302 -1.499385
-167.975098 298.874878 -49.298302 -1.665147
-154.491791 298.874878 -49.298302 -1.778488
-141.008499 298.874878 -49.298302 -2.119211
-127.525192 298.874878 -49.298302 -2.137553
-114.041885 298.874878 -49.298302 -1.925394
-100.558594 298.874878 -49.298302 -1.545896
-87.075287 298.874878 -49.298302 -2.205160
-73.591980 298.874878 -49.298302 -2.134469
-60.108704 298.874878 -49.298302 -2.413476
-46.625397 298.874878 -49.298302 -2.458669
-33.142090 298.874878 -49.298302 -2.100217
-19.658783 298.874878 -49.298302 -1.968865
-6.175476 298.874878 -49.298302 -1.590963
7.307800 298.874878 -49.298302 -1.116852
20.791107 298.874878 -49.298302 -0.980320
34.274414 298.874878 -49.298302 -0.907098
47.757721 298.874878 -49.298302 -0.783734
61.240997 298.874878 -49.298302 -0.551115
74.724304 298.874878 -49.298302 -1.664129
88.207611 298.874878 -49.298302 -2.625381
101.690918 298.874878 -49.298302 -3.219463
115.174225 298.874878 -49.298302 -3.403079
128.657501 298.874878 -49.298302 -3.483750
142.140808 298.874878 -49.298302 -2.760229
155.624115 298.874878 -49.298302 -2.114657
169.107422 298.874878 -49.298302 -1.840764
182.590698 298.874878 -49.298302 -1.774213
196.074036 298.874878 -49.298302 -1.363332
209.557312 298.874878 -49.298302 -1.151132
223.040588 298.874878 -49.298302 -1.090342
236.523926 298.874878 -49.298302 -0.547286
250.007202 298.874878 -49.298302 -0.169573
263.490540 298.874878 -49.298302 0.018135
276.973816 298.874878 -49.298302 -0.132255
290.457092 298.874878 -49.298302 -0.043005
303.940430 298.874878 -49.298302 0.000000
317.423706 298.874878 -49.298302 0.000000
330.907043 298.874878 -49.298302 0.000000
344.390320 298.874878 -49.298302 0.000000
-343.257996 285.391602 -49.298302 0.000000
-329.774689 285.391602 -49.298302 0.000000
-316.291382 285.391602 -49.298302 0.000000
-302.808105 285.391602 -49.298302 0.005143
-289.324799 285.391602 -49.298302 -0.040998
-275.841492 285.391602 -49.298302 -0.047058
-262.358185 285.391602 -49.298302 -0.043529
-248.874893 285.391602 -49.298302 -0.157111
-235.391602 285.391602 -49.298302 -0.421587
-221.908295 285.391602 -49.298302 -0.756715
-208.424988 285.391602 -49.298302 -1.089380
-194.941696 285.391602 -49.298302 -1.223297
-181.458389 285.391602 -49.298302 -1.634876
-167.975098 285.391602 -49.298302 -1.512544
-154.491791 285.391602 -49.298302 -1.645347
-141.008499 285.391602 -49.298302 -2.108846
-127.525192 285.391602 -49.298302 -1.851697
-114.041885 285.391602 -49.298302 -1.742158
-100.558594 285.391602 -49.298302 -1.519646
-87.075287 285.391602 -49.298302 -1.586049
-73.591980 285.391602 -49.298302 -1.430288
-60.108704 285.391602 -49.298302 -1.575546
-46.625397 285.391602 -49.298302 -1.746197
-33.142090 285.391602 -49.298302 -2.099172
-19.658783 285.391602 -49.298302 -1.870496
-6.175476 285.391602 -49.298302 -1.501696
7.307800 285.391602 -49.298302 -1.450941
20.791107 285.391602 -49.298302 -1.381331
34.274414 285.391602 -49.298302 -1.202518
47.757721 285.391602 -49.298302 -1.086743
61.240997 285.391602 -49.298302 -1.175157
74.724304 285.391602 -49.298302 -2.353088
88.207611 285.391602 -49.298302 -3.208443
101.690918 285.391602 -49.298302 -3.350835
115.174225 285.391602 -49.298302 -2.892887
128.657501 285.391602 -49.298302 -2.778841
142.140808 285.391602 -49.298302 -2.311167
155.624115 285.391602 -49.298302 -1.919021
169.107422 285.391602 -49.298302 -2.290684
182.590698 285.391602 -49.298302 -1.932070
196.074036 285.391602 -49.298302 -1.451452
209.557312 285.391602 -49.298302 -1.100010
223.040588 285.391602 -49.298302 -0.950218
236.523926 285.391602 -49.298302 -0.412980
250.007202 285.391602 -49.298302 -0.029689
263.490540 285.391602 -49.298302 0.138945
276.973816 285.391602 -49.298302 0.067553
290.457092 285.391602 -49.298302 -0.077385
303.940430 285.391602 -49.298302 0.000000
317.423706 285.391602 -49.298302 0.000000
330.907043 285.391602 -49.298302 0.000000
344.390320 285.391602 -49.298302 0.000000
-343.257996 271.908295 -49.298302 0.000000
-329.774689 271.908295 -49.298302 0.000000
-316.291382 271.908295 -49.298302 0.000000
-302.808105 271.908295 -49.298302 -0.001975
-289.324799 271.908295 -49.298302 -0.076819
-275.841492 271.908295 -49.298302 -0.034600
-262.358185 271.908295 -49.298302 -0.112047
-248.874893 271.908295 -49.298302 -0.153129
-235.391602 271.908295 -49.298302 -0.395879
-221.908295 271.908295 -49.298302 -0.562563
-208.424988 271.908295 -49.298302 -0.807183
-194.941696 271.908295 -49.298302 -1.205075
-181.458389 271.908295 -49.298302 -1.487293
-167.975098 271.908295 -49.298302 -1.598865
-154.491791 271.908295 -49.298302 -1.558348
-141.008499 271.908295 -49.298302 -1.800261
-127.525192 271.908295 -49.298302 -1.792793
-114.041885 271.908295 -49.298302 -1.591005
-100.558594 271.908295 -49.298302 -1.330127
-87.075287 271.908295 -49.298302 -0.967822
-73.591980 271.908295 -49.298302 -1.281203
-60.108704 271.908295 -49.298302 -1.347252
-46.625397 271.908295 -49.298302 -1.429940
-33.142090 271.908295 -49.298302 -1.903140
-19.658783 271.908295 -49.298302 -1.789549
-6.175476 271.908295 -49.298302 -1.598073
7.307800 271.908295 -49.298302 -1.613584
20.791107 271.908295 -49.298302 -1.620081
34.274414 271.908295 -49.298302 -1.509634
47.757721 271.908295 -49.298302 -1.521011
61.240997 271.908295 -49.298302 -2.031958
74.724304 271.908295 -49.298302 -2.622482
88.207611 271.908295 -49.298302 -2.983766
101.690918 271.908295 -49.298302 -2.767010
115.174225 271.908295 -49.298302 -2.322675
128.657501 271.908295 -49.298302 -1.951723
142.140808 271.908295 -49.298302 -1.592310
155.624115 271.908295 -49.298302 -1.530305
169.107422 271.908295 -49.298302 -1.864225
182.590698 271.908295 -49.298302 -1.736064
196.074036 271.908295 -49.298302 -1.523612
209.557312 271.908295 -49.298302 -1.019901
223.040588 271.908295 -49.298302 -0.576635
236.523926 271.908295 -49.298302 -0.162353
250.007202 271.908295 -49.298302 -0.130272
263.490540 271.908295 -49.298302 0.110860
276.973816 271.908295 -49.298302 0.047980
290.457092 271.908295 -49.298302 0.071989
303.940430 271.908295 -49.298302 0.000000
317.423706 271.908295 -49.298302 0.000000
330.907043 271.908295 -49.298302 0.000000
344.390320 271.908295 -49.298302 0.000000
-343.257996 258.424988 -49.298302 0.000000
-329.774689 258.424988 -49.298302 0.000000
-316.291382 258.424988 -49.298302 0.000000
-302.808105 258.424988 -49.298302 -0.021413
-289.324799 258.424988 -49.298302 -0.066486
-275.841492 258.424988 -49.298302 -0.062894
-262.358185 258.424988 -49.298302 -0.100954
-248.874893 258.424988 -49.298302 -0.155399
-235.391602 258.424988 -49.298302 -0.322057
-221.908295 258.424988 -49.298302 -0.546594
-208.424988 258.424988 -49.298302 -0.668081
-194.941696 258.424988 -49.298302 -1.096455
-181.458389 258.424988 -49.298302 -1.230175
-167.975098 258.424988 -49.298302 -1.134062
-154.491791 258.424988 -49.298302 -1.167108
-141.008499 258.424988 -49.298302 -1.442903
-127.525192 258.424988 -49.298302 -1.361843
-114.041885 258.424988 -49.298302 -1.254247
-100.558594 258.424988 -49.298302 -1.253348
-87.075287 258.424988 -49.298302 -0.758871
-73.591980 258.424988 -49.298302 -0.877484
-60.108704 258.424988 -49.298302 -1.007174
-46.625397 258.424988 -49.298302 -1.288211
-33.142090 258.424988 -49.298302 -1.575764
-19.658783 258.424988 -49.298302 -1.822802
-6.175476 258.424988 -49.298302 -1.589329
7.307800 258.424988 -49.298302 -1.557125
20.791107 258.424988 -49.298302 -1.620903
34.274414 258.424988 -49.298302 -1.781317
47.757721 258.424988 -49.298302 -1.764398
61.240997 258.424988 -49.298302 -1.960606
74.724304 258.424988 -49.298302 -2.717601
88.207611 258.424988 -49.298302 -2.301828
101.690918 258.424988 -49.298302 -2.151250
115.174225 258.424988 -49.298302 -1.662502
128.657501 258.424988 -49.298302 -1.308932
142.140808 258.424988 -49.298302 -1.321367
155.624115 258.424988 -49.298302 -1.203688
169.107422 258.424988 -49.298302 -1.381966
182.590698 258.424988 -49.298302 -1.284721
196.074036 258.424988 -49.298302 -1.214826
209.557312 258.424988 -49.298302 -0.912776
223.040588 258.424988 -49.298302 -0.689090
236.523926 258.424988 -49.298302 -0.315605
250.007202 258.424988 -49.298302 -0.158794
263.490540 258.424988 -49.298302 0.048012
276.973816 258.424988 -49.298302 0.033658
290.457092 258.424988 -49.298302 0.002577
303.940430 258.424988 -49.298302 0.000000
317.423706 258.424988 -49.298302 0.000000
330.907043 258.424988 -49.298302 0.000000
344.390320 258.424988 -49.298302 0.000000
-343.257996 244.941696 -49.298302 0.000000
-329.774689 244.941696 -49.298302 0.000000
-316.291382 244.941696 -49.298302 0.000000
-302.808105 244.941696 -49.298302 -0.021175
-289.324799 244.941696 -49.298302 -0.063949
-275.841492 244.941696 -49.298302 -0.054330
-262.358185 244.941696 -49.298302 -0.075132
-248.874893 244.941696 -49.298302 -0.152582
-235.391602 244.941696 -49.298302 -0.348399
-221.908295 244.941696 -49.298302 -0.559780
-208.424988 244.941696 -49.298302 -0.826956
-194.941696 244.941696 -49.298302 -0.915960
-181.458389 244.941696 -49.298302 -0.887001
-167.975098 244.941696 -49.298302 -0.897205
-154.491791 244.941696 -49.298302 -1.221450
-141.008499 244.941696 -49.298302 -1.228487
-127.525192 244.941696 -49.298302 -1.127296
-114.041885 244.941696 -49.298302 -1.048171
-100.558594 244.941696 -49.298302 -1.189661
-87.075287 244.941696 -49.298302 -0.766309
-73.591980 244.941696 -49.298302 -0.761139
-60.108704 244.941696 -49.298302 -0.695473
-46.625397 244.941696 -49.298302 -0.741171
-33.142090 244.941696 -49.298302 -1.022308
-19.658783 244.941696 -49.298302 -1.590651
-6.175476 244.941696 -49.298302 -1.921414
7.307800 244.941696 -49.298302 -1.665907
20.791107 244.941696 -49.298302 -1.619338
34.274414 244.941696 -49.298302 -1.630519
47.757721 244.941696 -49.298302 -2.063165
61.240997 244.941696 -49.298302 -1.977497
74.724304 244.941696 -49.298302 -1.717979
88.207611 244.941696 -49.298302 -1.529751
101.690918 244.941696 -49.298302 -1.365503
115.174225 244.941696 -49.298302 -1.087705
128.657501 244.941696 -49.298302 -0.735069
142.140808 244.941696 -49.298302 -0.500573
155.624115 244.941696 -49.298302 -0.784177
169.107422 244.941696 -49.298302 -0.770896
182.590698 244.941696 -49.298302 -0.857424
196.074036 244.941696 -49.298302 -1.076385
209.557312 244.941696 -49.298302 -1.053670
223.040588 244.941696 -49.298302 -0.621347
236.523926 244.941696 -49.298302 -0.458887
250.007202 244.941696 -49.298302 -0.187840
263.490540 244.941696 -49.298302 0.022263
276.973816 244.941696 -49.298302 0.089242
290.457092 244.941696 -49.298302 0.041967
303.940430 244.941696 -49.298302 0.000000
317.423706 244.941696 -49.298302 0.000000
330.907043 244.941696 -49.298302 0.000000
344.390320 244.941696 -49.298302 0.000000
-343.257996 231.458389 -49.298302 0.000000
-329.774689 231.458389 -49.298302 0.000000
-316.291382 231.458389 -49.298302 0.000000
-302.808105 231.458389 -49.298302 -0.011730
-289.324799 231.458389 -49.298302 -0.059800
-275.841492 231.458389 -49.298302 -0.080526
-262.358185 231.458389 -49.298302 -0.129088
-248.874893 231.458389 -49.298302 -0.211836
-235.391602 231.458389 -49.298302 -0.316301
-221.908295 231.458389 -49.298302 -0.453922
-208.424988 231.458389 -49.298302 -0.636891
-194.941696 231.458389 -49.298302 -0.854666
-181.458389 231.458389 -49.298302 -0.980144
-167.975098 231.458389 -49.298302 -1.101246
-154.491791 231.458389 -49.298302 -1.208792
-141.008499 231.458389 -49.298302 -1.188292
-127.525192 231.458389 -49.298302 -1.108884
-114.041885 231.458389 -49.298302 -0.969121
-100.558594 231.458389 -49.298302 -0.723128
-87.075287 231.458389 -49.298302 -0.548409
-73.591980 231.458389 -49.298302 -0.510367
-60.108704 231.458389 -49.298302 -0.502523
-46.625397 231.458389 -49.298302 -0.497030
-33.142090 231.458389 -49.298302 -0.670069
-19.658783 231.458389 -49.298302 -1.262213
-6.175476 231.458389 -49.298302 -1.536596
7.307800 231.458389 -49.298302 -1.394639
20.791107 231.458389 -49.298302 -1.359246
34.274414 231.458389 -49.298302 -1.618914
47.757721 231.458389 -49.298302 -1.706862
61.240997 231.458389 -49.298302 -1.393068
74.724304 231.458389 -49.298302 -0.907206
88.207611 231.458389 -49.298302 -0.509538
101.690918 231.458389 -49.298302 -0.562024
115.174225 231.458389 -49.298302 -0.418322
128.657501 231.458389 -49.298302 -0.125739
142.140808 231.458389 -49.298302 -0.094844
155.624115 231.458389 -49.298302 -0.435359
169.107422 231.458389 -49.298302 -0.637671
182.590698 231.458389 -49.298302 -0.989084
196.074036 231.458389 -49.298302 -1.062544
209.557312 231.458389 -49.298302 -0.998408
223.040588 231.458389 -49.298302 -0.663679
236.523926 231.458389 -49.298302 -0.409840
250.007202 231.458389 -49.298302 -0.145342
263.490540 231.458389 -49.298302 0.028756
276.973816 231.458389 -49.298302 0.082383
290.457092 231.458389 -49.298302 0.043250
303.940430 231.458389 -49.298302 0.000000
317.423706 231.458389 -49.298302 0.000000
330.907043 231.458389 -49.298302 0.000000
344.390320 231.458389 -49.298302 0.000000
-343.257996 217.975098 -49.298302 0.000000
-329.774689 217.975098 -49.298302 0.000000
-316.291382 217.975098 -49.298302 0.000000
-302.808105 217.975098 -49.298302 -0.060515
-289.324799 217.975098 -49.298302 -0.066637
-275.841492 217.975098 -49.298302 -0.085974
-262.358185 217.975098 -49.298302 -0.121429
-248.874893 217.975098 -49.298302 -0.268963
-235.391602 217.975098 -49.298302 -0.387046
-221.908295 217.975098 -49.298302 -0.468529
-208.424988 217.975098 -49.298302 -0.575564
-194.941696 217.975098 -49.298302 -1.004210
-181.458389 217.975098 -49.298302 -0.858983
-167.975098 217.975098 -49.298302 -1.104660
-154.491791 217.975098 -49.298302 -0.971465
-141.008499 217.975098 -49.298302 -0.902939
-127.525192 217.975098 -49.298302 -1.040970
-114.041885 217.975098 -49.298302 -0.697689
-100.558594 217.975098 -49.298302 -0.414770
-87.075287 217.975098 -49.298302 -0.311286
-73.591980 217.975098 -49.298302 -0.101087
-60.108704 217.975098 -49.298302 -0.190417
-46.625397 217.975098 -49.298302 -0.330324
-33.142090 217.975098 -49.298302 -0.620949
-19.658783 217.975098 -49.298302 -0.795171
-6.175476 217.975098 -49.298302 -1.256915
7.307800 217.975098 -49.298302 -1.344203
20.791107 217.975098 -49.298302 -1.413718
34.274414 217.975098 -49.298302 -1.524035
47.757721 217.975098 -49.298302 -1.168629
61.240997 217.975098 -49.298302 -0.513702
74.724304 217.975098 -49.298302 -0.021900
88.207611 217.975098 -49.298302 0.279382
101.690918 217.975098 -49.298302 0.560762
115.174225 217.975098 -49.298302 0.577738
128.657501 217.975098 -49.298302 0.568995
142.140808 217.975098 -49.298302 0.274191
155.624115 217.975098 -49.298302 -0.145400
169.107422 217.975098 -49.298302 -0.444267
182.590698 217.975098 -49.298302 -0.744197
196.074036 217.975098 -49.298302 -0.919374
209.557312 217.975098 -49.298302 -0.802006
223.040588 217.975098 -49.298302 -0.543743
236.523926 217.975098 -49.298302 -0.290636
250.007202 217.975098 -49.298302 -0.101843
263.490540 217.975098 -49.298302 0.005384
276.973816 217.975098 -49.298302 0.037562
290.457092 217.975098 -49.298302 0.003122
303.940430 217.975098 -49.298302 0.000000
317.423706 217.975098 -49.298302 0.000000
330.907043 217.975098 -49.298302 0.000000
344.390320 217.975098 -49.298302 0.000000
-343.257996 204.491791 -49.298302 0.000000
-329.774689 204.491791 -49.298302 0.000000
-316.291382 204.491791 -49.298302 0.000000
-302.808105 204.491791 -49.298302 -0.034959
-289.324799 204.491791 -49.298302 -0.073877
-275.841492 204.491791 -49.298302 -0.073264
-262.358185 204.491791 -49.298302 -0.117353
-248.874893 204.491791 -49.298302 -0.231397
-235.391602 204.491791 -49.298302 -0.325489
-221.908295 204.491791 -49.298302 -0.354227
-208.424988 204.491791 -49.298302 -0.527400
-194.941696 204.491791 -49.298302 -0.781772
-181.458389 204.491791 -49.298302 -0.684390
-167.975098 204.491791 -49.298302 -0.809987
-154.491791 204.491791 -49.298302 -0.848725
-141.008499 204.491791 -49.298302 -0.858910
-127.525192 204.491791 -49.298302 -0.943816
-114.041885 204.491791 -49.298302 -0.610340
-100.558594 204.491791 -49.298302 -0.481370
-87.075287 204.491791 -49.298302 -0.206425
-73.591980 204.491791 -49.298302 0.124937
-60.108704 204.491791 -49.298302 -0.094951
-46.625397 204.491791 -49.298302 -0.316391
-33.142090 204.491791 -49.298302 -0.535132
-19.658783 204.491791 -49.298302 -0.844372
-6.175476 204.491791 -49.298302 -0.604409
7.307800 204.491791 -49.298302 -0.849031
20.791107 204.491791 -49.298302 -0.864333
34.274414 204.491791 -49.298302 -0.998936
47.757721 204.491791 -49.298302 -0.646569
61.240997 204.491791 -49.298302 0.097250
74.724304 204.491791 -49.298302 0.697199
88.207611 204.491791 -49.298302 0.864576
101.690918 204.491791 -49.298302 1.097194
115.174225 204.491791 -49.298302 1.123264
128.657501 204.491791 -49.298302 0.932616
142.140808 204.491791 -49.298302 0.414187
155.624115 204.491791 -49.298302 0.221763
169.107422 204.491791 -49.298302 -0.292522
182.590698 204.491791 -49.298302 -0.547005
196.074036 204.491791 -49.298302 -0.637959
209.557312 204.491791 -49.298302 -0.680951
223.040588 204.491791 -49.298302 -0.445549
236.523926 204.491791 -49.298302 -0.213807
250.007202 204.491791 -49.298302 -0.150359
263.490540 204.491791 -49.298302 -0.033934
276.973816 204.491791 -49.298302 -0.000790
290.457092 204.491791 -49.298302 0.010101
303.940430 204.491791 -49.298302 0.000000
317.423706 204.491791 -49.298302 0.000000
330.907043 204.491791 -49.298302 0.000000
344.390320 204.491791 -49.298302 0.000000
-343.257996 191.008499 -49.298302 0.000000
-329.774689 191.008499 -49.298302 0.000000
-316.291382 191.008499 -49.298302 0.000000
-302.808105 191.008499 -49.298302 -0.001392
-289.324799 191.008499 -49.298302 -0.014817
-275.841492 191.008499 -49.298302 -0.132523
-262.358185 191.008499 -49.298302 -0.157766
-248.874893 191.008499 -49.298302 -0.313523
-235.391602 191.008499 -49.298302 -0.505537
-221.908295 191.008499 -49.298302 -0.616770
-208.424988 191.008499 -49.298302 -0.614617
-194.941696 191.008499 -49.298302 -0.644938
-181.458389 191.008499 -49.298302 -0.643101
-167.975098 191.008499 -49.298302 -0.571070
-154.491791 191.008499 -49.298302 -0.536534
-141.008499 191.008499 -49.298302 -0.723733
-127.525192 191.008499 -49.298302 -0.771416
-114.041885 191.008499 -49.298302 -0.616070
-100.558594 191.008499 -49.298302 -0.565417
-87.075287 191.008499 -49.298302 -0.280726
-73.591980 191.008499 -49.298302 0.051848
-60.108704 191.008499 -49.298302 0.178531
-46.625397 191.008499 -49.298302 0.011986
-33.142090 191.008499 -49.298302 -0.298883
-19.658783 191.008499 -49.298302 -0.692324
-6.175476 191.008499 -49.298302 -0.507252
7.307800 191.008499 -49.298302 -0.440411
20.791107 191.008499 -49.298302 -0.327619
34.274414 191.008499 -49.298302 -0.341001
47.757721 191.008499 -49.298302 -0.029668
61.240997 191.008499 -49.298302 0.465533
74.724304 191.008499 -49.298302 0.980894
88.207611 191.008499 -49.298302 0.980206
101.690918 191.008499 -49.298302 1.004456
115.174225 191.008499 -49.298302 1.206115
128.657501 191.008499 -49.298302 0.932466
142.140808 191.008499 -49.298302 0.498325
155.624115 191.008499 -49.298302 0.223711
169.107422 191.008499 -49.298302 0.021946
182.590698 191.008499 -49.298302 -0.277450
196.074036 191.008499 -49.298302 -0.514303
209.557312 191.008499 -49.298302 -0.579382
223.040588 191.008499 -49.298302 -0.419403
236.523926 191.008499 -49.298302 -0.190676
250.007202 191.008499 -49.298302 -0.103258
263.490540 191.008499 -49.298302 -0.021351
276.973816 191.008499 -49.298302 0.002081
290.457092 191.008499 -49.298302 0.000599
303.940430 191.008499 -49.298302 0.000000
317.423706 191.008499 -49.298302 0.000000
330.907043 191.008499 -49.298302 0.000000
344.390320 191.008499 -49.298302 0.000000
-343.257996 177.525192 -49.298302 0.000000
-329.774689 177.525192 -49.298302 0.000000
-316.291382 177.525192 -49.298302 0.000000
-302.808105 177.525192 -49.298302 -0.003161
-289.324799 177.525192 -49.298302 -0.061402
-275.841492 177.525192 -49.298302 -0.123909
-262.358185 177.525192 -49.298302 -0.274317
-248.874893 177.525192 -49.298302 -0.347340
-235.391602 177.525192 -49.298302 -0.663008
-221.908295 177.525192 -49.298302 -0.690845
-208.424988 177.525192 -49.298302 -0.780618
-194.941696 177.525192 -49.298302 -0.818582
-181.458389 177.525192 -49.298302 -0.651496
-167.975098 177.525192 -49.298302 -0.470503
-154.491791 177.525192 -49.298302 -0.670022
-141.008499 177.525192 -49.298302 -0.720375
-127.525192 177.525192 -49.298302 -0.406003
-114.041885 177.525192 -49.298302 -0.282592
-100.558594 177.525192 -49.298302 -0.389138
-87.075287 177.525192 -49.298302 -0.257173
-73.591980 177.525192 -49.298302 0.031084
-60.108704 177.525192 -49.298302 0.077150
-46.625397 177.525192 -49.298302 0.223901
-33.142090 177.525192 -49.298302 0.012357
-19.658783 177.525192 -49.298302 -0.327448
-6.175476 177.525192 -49.298302 -0.336715
7.307800 177.525192 -49.298302 -0.658317
20.791107 177.525192 -49.298302 -0.361009
34.274414 177.525192 -49.298302 0.274063
47.757721 177.525192 -49.298302 0.344733
61.240997 177.525192 -49.298302 1.012265
74.724304 177.525192 -49.298302 1.214154
88.207611 177.525192 -49.298302 1.247877
101.690918 177.525192 -49.298302 1.187126
115.174225 177.525192 -49.298302 0.870631
128.657501 177.525192 -49.298302 0.776864
142.140808 177.525192 -49.298302 0.546599
155.624115 177.525192 -49.298302 0.418215
169.107422 177.525192 -49.298302 0.177369
182.590698 177.525192 -49.298302 -0.046636
196.074036 177.525192 -49.298302 -0.279917
209.557312 177.525192 -49.298302 -0.343309
223.040588 177.525192 -49.298302 -0.281459
236.523926 177.525192 -49.298302 -0.111891
250.007202 177.525192 -49.298302 -0.056210
263.490540 177.525192 -49.298302 -0.009886
276.973816 177.525192 -49.298302 -0.001313
290.457092 177.525192 -49.298302 -0.006142
303.940430 177.525192 -49.298302 0.000000
317.423706 177.525192 -49.298302 0.000000
330.907043 177.525192 -49.298302 0.000000
344.390320 177.525192 -49.298302 0.000000
-343.257996 164.041885 -49.298302 0.000000
-329.774689 164.041885 -49.298302 0.000000
-316.291382 164.041885 -49.298302 0.000000
-302.808105 164.041885 -49.298302 0.048176
-289.324799 164.041885 -49.298302 -0.013836
-275.841492 164.041885 -49.298302 -0.122094
-262.358185 164.041885 -49.298302 -0.237955
-248.874893 164.041885 -49.298302 -0.355292
-235.391602 164.041885 -49.298302 -0.490536
-221.908295 164.041885 -49.298302 -0.585560
-208.424988 164.041885 -49.298302 -0.729518
-194.941696 164.041885 -49.298302 -0.889355
-181.458389 164.041885 -49.298302 -0.800203
-167.975098 164.041885 -49.298302 -0.875356
-154.491791 164.041885 -49.298302 -0.938789
-141.008499 164.041885 -49.298302 -0.642045
-127.525192 164.041885 -49.298302 -0.379475
-114.041885 164.041885 -49.298302 -0.259937
-100.558594 164.041885 -49.298302 0.044979
-87.075287 164.041885 -49.298302 -0.080421
-73.591980 164.041885 -49.298302 0.115308
-60.108704 164.041885 -49.298302 0.475357
-46.625397 164.041885 -49.298302 0.370370
-33.142090 164.041885 -49.298302 0.221678
-19.658783 164.041885 -49.298302 -0.076199
-6.175476 164.041885 -49.298302 -0.325939
7.307800 164.041885 -49.298302 -0.398897
20.791107 164.041885 -49.298302 -0.006667
34.274414 164.041885 -49.298302 0.359444
47.757721 164.041885 -49.298302 0.704070
61.240997 164.041885 -49.298302 1.186135
74.724304 164.041885 -49.298302 1.173356
88.207611 164.041885 -49.298302 1.252398
101.690918 164.041885 -49.298302 1.149130
115.174225 164.041885 -49.298302 0.837249
128.657501 164.041885 -49.298302 0.816628
142.140808 164.041885 -49.298302 0.636184
155.624115 164.041885 -49.298302 0.500158
169.107422 164.041885 -49.298302 0.279917
182.590698 164.041885 -49.298302 0.210458
196.074036 164.041885 -49.298302 -0.023212
209.557312 164.041885 -49.298302 -0.102889
223.040588 164.041885 -49.298302 -0.124903
236.523926 164.041885 -49.298302 -0.098437
250.007202 164.041885 -49.298302 -0.008864
263.490540 164.041885 -49.298302 -0.023310
276.973816 164.041885 -49.298302 -0.011342
290.457092 164.041885 -49.298302 -0.009739
303.940430 164.041885 -49.298302 0.000000
317.423706 164.041885 -49.298302 0.000000
330.907043 164.041885 -49.298302 0.000000
344.390320 164.041885 -49.298302 0.000000
-343.257996 150.558594 -49.298302 0.000000
-329.774689 150.558594 -49.298302 0.000000
-316.291382 150.558594 -49.298302 0.000000
-302.808105 150.558594 -49.298302 -0.029181
-289.324799 150.558594 -49.298302 0.018964
-275.841492 150.558594 -49.298302 -0.051813
-262.358185 150.558594 -49.298302 -0.161982
-248.874893 150.558594 -49.298302 -0.375800
-235.391602 150.558594 -49.298302 -0.366104
-221.908295 150.558594 -49.298302 -0.383397
-208.424988 150.558594 -49.298302 -0.647225
-194.941696 150.558594 -49.298302 -0.785078
-181.458389 150.558594 -49.298302 -0.694797
-167.975098 150.558594 -49.298302 -0.838813
-154.491791 150.558594 -49.298302 -1.081747
-141.008499 150.558594 -49.298302 -1.108399
-127.525192 150.558594 -49.298302 -0.705840
-114.041885 150.558594 -49.298302 -0.107815
-100.558594 150.558594 -49.298302 0.317536
-87.075287 150.558594 -49.298302 0.350794
-73.591980 150.558594 -49.298302 0.525414
-60.108704 150.558594 -49.298302 0.571065
-46.625397 150.558594 -49.298302 0.514114
-33.142090 150.558594 -49.298302 0.059817
-19.658783 150.558594 -49.298302 0.038852
-6.175476 150.558594 -49.298302 -0.242672
7.307800 150.558594 -49.298302 -0.380755
20.791107 150.558594 -49.298302 0.249704
34.274414 150.558594 -49.298302 0.661432
47.757721 150.558594 -49.298302 0.928635
61.240997 150.558594 -49.298302 1.515229
74.724304 150.558594 -49.298302 1.433240
88.207611 150.558594 -49.298302 1.293481
101.690918 150.558594 -49.298302 0.931697
115.174225 150.558594 -49.298302 0.868660
128.657501 150.558594 -49.298302 0.852797
142.140808 150.558594 -49.298302 0.865651
155.624115 150.558594 -49.298302 0.565582
169.107422 150.558594 -49.298302 0.458467
182.590698 150.558594 -49.298302 0.265232
196.074036 150.558594 -49.298302 0.067007
209.557312 150.558594 -49.298302 -0.020564
223.040588 150.558594 -49.298302 -0.038487
236.523926 150.558594 -49.298302 -0.072118
250.007202 150.558594 -49.298302 -0.008816
263.490540 150.558594 -49.298302 0.002030
276.973816 150.558594 -49.298302 -0.014865
290.457092 150.558594 -49.298302 -0.016079
303.940430 150.558594 -49.298302 0.000000
317.423706 150.558594 -49.298302 0.000000
330.907043 150.558594 -49.298302 0.000000
344.390320 150.558594 -49.298302 0.000000
-343.257996 137.075287 -49.298302 0.000000
-329.774689 137.075287 -49.298302 0.000000
-316.291382 137.075287 -49.298302 0.000000
-302.808105 137.075287 -49.298302 0.047938
-289.324799 137.075287 -49.298302 -0.007221
-275.841492 137.075287 -49.298302 0.004113
-262.358185 137.075287 -49.298302 -0.061563
-248.874893 137.075287 -49.298302 -0.136370
-235.391602 137.075287 -49.298302 -0.199020
-221.908295 137.075287 -49.298302 -0.319016
-208.424988 137.075287 -49.298302 -0.349797
-194.941696 137.075287 -49.298302 -0.480613
-181.458389 137.075287 -49.298302 -0.616890
-167.975098 137.075287 -49.298302 -0.773521
-154.491791 137.075287 -49.298302 -1.066934
-141.008499 137.075287 -49.298302 -1.091770
-127.525192 137.075287 -49.298302 -0.833771
-114.041885 137.075287 -49.298302 0.012416
-100.558594 137.075287 -49.298302 0.195627
-87.075287 137.075287 -49.298302 0.686794
-73.591980 137.075287 -49.298302 0.899670
-60.108704 137.075287 -49.298302 0.546802
-46.625397 137.075287 -49.298302 0.359449
-33.142090 137.075287 -49.298302 0.192554
-19.658783 137.075287 -49.298302 0.020650
-6.175476 137.075287 -49.298302 -0.036420
7.307800 137.075287 -49.298302 -0.235297
20.791107 137.075287 -49.298302 0.181377
34.274414 137.075287 -49.298302 0.717773
47.757721 137.075287 -49.298302 1.180127
61.240997 137.075287 -49.298302 1.546626
74.724304 137.075287 -49.298302 1.704900
88.207611 137.075287 -49.298302 1.399709
101.690918 137.075287 -49.298302 0.873373
115.174225 137.075287 -49.298302 0.741523
128.657501 137.075287 -49.298302 0.835051
142.140808 137.075287 -49.298302 0.757344
155.624115 137.075287 -49.298302 0.600523
169.107422 137.075287 -49.298302 0.476084
182.590698 137.075287 -49.298302 0.353204
196.074036 137.075287 -49.298302 0.102700
209.557312 137.075287 -49.298302 0.083754
223.040588 137.075287 -49.298302 -0.006943
236.523926 137.075287 -49.298302 -0.003994
250.007202 137.075287 -49.298302 0.001141
263.490540 137.075287 -49.298302 0.006077
276.973816 137.075287 -49.298302 -0.017292
290.457092 137.075287 -49.298302 -0.019949
303.940430 137.075287 -49.298302 0.000000
317.423706 137.075287 -49.298302 0.000000
330.907043 137.075287 -49.298302 0.000000
344.390320 137.075287 -49.298302 0.000000
-343.257996 123.591980 -49.298302 0.000000
-329.774689 123.591980 -49.298302 0.000000
-316.291382 123.591980 -49.298302 0.000000
-302.808105 123.591980 -49.298302 0.000000
-289.324799 123.591980 -49.298302 0.108515
-275.841492 123.591980 -49.298302 0.023900
-262.358185 123.591980 -49.298302 0.005758
-248.874893 123.591980 -49.298302 -0.021494
-235.391602 123.591980 -49.298302 -0.185567
-221.908295 123.591980 -49.298302 -0.219112
-208.424988 123.591980 -49.298302 -0.070663
-194.941696 123.591980 -49.298302 -0.431832
-181.458389 123.591980 -49.298302 -0.613000
-167.975098 123.591980 -49.298302 -0.900191
-154.491791 123.591980 -49.298302 -1.099802
-141.008499 123.591980 -49.298302 -0.905410
-127.525192 123.591980 -49.298302 -0.699907
-114.041885 123.591980 -49.298302 0.011393
-100.558594 123.591980 -49.298302 0.564347
-87.075287 123.591980 -49.298302 0.986240
-73.591980 123.591980 -49.298302 1.026346
-60.108704 123.591980 -49.298302 0.919567
-46.625397 123.591980 -49.298302 0.395918
-33.142090 123.591980 -49.298302 0.050160
-19.658783 123.591980 -49.298302 -0.072634
-6.175476 123.591980 -49.298302 -0.061317
7.307800 123.591980 -49.298302 -0.005341
20.791107 123.591980 -49.298302 0.378402
34.274414 123.591980 -49.298302 0.787664
47.757721 123.591980 -49.298302 1.172300
61.240997 123.591980 -49.298302 1.537595
74.724304 123.591980 -49.298302 1.677338
88.207611 123.591980 -49.298302 0.924788
101.690918 123.591980 -49.298302 0.833922
115.174225 123.591980 -49.298302 0.652828
128.657501 123.591980 -49.298302 0.912822
142.140808 123.591980 -49.298302 0.714103
155.624115 123.591980 -49.298302 0.540097
169.107422 123.591980 -49.298302 0.500491
182.590698 123.591980 -49.298302 0.313610
196.074036 123.591980 -49.298302 0.160806
209.557312 123.591980 -49.298302 0.034180
223.040588 123.591980 -49.298302 -0.003070
236.523926 123.591980 -49.298302 -0.000686
250.007202 123.591980 -49.298302 0.015733
263.490540 123.591980 -49.298302 0.015520
276.973816 123.591980 -49.298302 -0.000237
290.457092 123.591980 -49.298302 -0.007620
303.940430 123.591980 -49.298302 0.000000
317.423706 123.591980 -49.298302 0.000000
330.907043 123.591980 -49.298302 0.000000
344.390320 123.591980 -49.298302 0.000000
-343.257996 110.108704 -49.298302 0.000000
-329.774689 110.108704 -49.298302 0.000000
-316.291382 110.108704 -49.298302 0.000000
-302.808105 110.108704 -49.298302 0.000000
-289.324799 110.108704 -49.298302 0.228291
-275.841492 110.108704 -49.298302 0.174590
-262.358185 110.108704 -49.298302 0.104695
-248.874893 110.108704 -49.298302 0.148823
-235.391602 110.108704 -49.298302 0.094431
-221.908295 110.108704 -49.298302 -0.150335
-208.424988 110.108704 -49.298302 -0.220778
-194.941696 110.108704 -49.298302 -0.440459
-181.458389 110.108704 -49.298302 -0.684245
-167.975098 110.108704 -49.298302 -0.961726
-154.491791 110.108704 -49.298302 -0.950671
-141.008499 110.108704 -49.298302 -0.755409
-127.525192 110.108704 -49.298302 -0.556488
-114.041885 110.108704 -49.298302 0.167565
-100.558594 110.108704 -49.298302 0.796320
-87.075287 110.108704 -49.298302 1.161805
-73.591980 110.108704 -49.298302 1.049857
-60.108704 110.108704 -49.298302 0.786059
-46.625397 110.108704 -49.298302 0.521966
-33.142090 110.108704 -49.298302 0.133226
-19.658783 110.108704 -49.298302 0.257770
-6.175476 110.108704 -49.298302 -0.034957
7.307800 110.108704 -49.298302 0.078515
20.791107 110.108704 -49.298302 0.351604
34.274414 110.108704 -49.298302 0.774493
47.757721 110.108704 -49.298302 1.133486
61.240997 110.108704 -49.298302 1.296816
74.724304 110.108704 -49.298302 1.207235
88.207611 110.108704 -49.298302 0.931035
101.690918 110.108704 -49.298302 0.519493
115.174225 110.108704 -49.298302 0.571060
128.657501 110.108704 -49.298302 0.799955
142.140808 110.108704 -49.298302 0.567967
155.624115 110.108704 -49.298302 0.463884
169.107422 110.108704 -49.298302 0.428702
182.590698 110.108704 -49.298302 0.285274
196.074036 110.108704 -49.298302 0.138827
209.557312 110.108704 -49.298302 0.028216
223.040588 110.108704 -49.298302 0.004806
236.523926 110.108704 -49.298302 0.014152
250.007202 110.108704 -49.298302 0.047860
263.490540 110.108704 -49.298302 0.020211
276.973816 110.108704 -49.298302 -0.001530
290.457092 110.108704 -49.298302 -0.000702
303.940430 110.108704 -49.298302 0.000000
317.423706 110.108704 -49.298302 0.000000
330.907043 110.108704 -49.298302 0.000000
344.390320 110.108704 -49.298302 0.000000
-343.257996 96.625397 -49.298302 0.000000
-329.774689 96.625397 -49.298302 0.000000
-316.291382 96.625397 -49.298302 0.000000
-302.808105 96.625397 -49.298302 0.000000
-289.324799 96.625397 -49.298302 0.361628
-275.841492 96.625397 -49.298302 0.385913
-262.358185 96.625397 -49.298302 0.226526
-248.874893 96.625397 -49.298302 0.097354
-235.391602 96.625397 -49.298302 0.026419
-221.908295 96.625397 -49.298302 -0.286898
-208.424988 96.625397 -49.298302 -0.571941
-194.941696 96.625397 -49.298302 -0.328990
-181.458389 96.625397 -49.298302 -0.368654
-167.975098 96.625397 -49.298302 -0.940732
-154.491791 96.625397 -49.298302 -0.946960
-141.008499 96.625397 -49.298302 -0.486225
-127.525192 96.625397 -49.298302 -0.600199
-114.041885 96.625397 -49.298302 0.474150
-100.558594 96.625397 -49.298302 0.837854
-87.075287 96.625397 -49.298302 0.970997
-73.591980 96.625397 -49.298302 0.985822
-60.108704 96.625397 -49.298302 0.889975
-46.625397 96.625397 -49.298302 0.867965
-33.142090 96.625397 -49.298302 0.566253
-19.658783 96.625397 -49.298302 0.236050
-6.175476 96.625397 -49.298302 -0.011966
7.307800 96.625397 -49.298302 0.127894
20.791107 96.625397 -49.298302 0.168092
34.274414 96.625397 -49.298302 0.337389
47.757721 96.625397 -49.298302 0.633874
61.240997 96.625397 -49.298302 0.765809
74.724304 96.625397 -49.298302 0.530868
88.207611 96.625397 -49.298302 0.423272
101.690918 96.625397 -49.298302 0.241369
115.174225 96.625397 -49.298302 0.240631
128.657501 96.625397 -49.298302 0.157762
142.140808 96.625397 -49.298302 0.366081
155.624115 96.625397 -49.298302 0.330380
169.107422 96.625397 -49.298302 0.296897
182.590698 96.625397 -49.298302 0.213941
196.074036 96.625397 -49.298302 0.087167
209.557312 96.625397 -49.298302 0.044657
223.040588 96.625397 -49.298302 0.018042
236.523926 96.625397 -49.298302 0.041094
250.007202 96.625397 -49.298302 0.047241
263.490540 96.625397 -49.298302 0.017676
276.973816 96.625397 -49.298302 0.013446
290.457092 96.625397 -49.298302 -0.002780
303.940430 96.625397 -49.298302 0.000000
317.423706 96.625397 -49.298302 0.000000
330.907043 96.625397 -49.298302 0.000000
344.390320 96.625397 -49.298302 0.000000
-343.257996 83.142090 -49.298302 0.000000
-329.774689 83.142090 -49.298302 0.000000
-316.291382 83.142090 -49.298302 0.000000
-302.808105 83.142090 -49.298302 0.000000
-289.324799 83.142090 -49.298302 0.456403
-275.841492 83.142090 -49.298302 0.325715
-262.358185 83.142090 -49.298302 0.372260
-248.874893 83.142090 -49.298302 0.070414
-235.391602 83.142090 -49.298302 -0.003569
-221.908295 83.142090 -49.298302 -0.115587
-208.424988 83.142090 -49.298302 -0.129274
-194.941696 83.142090 -49.298302 0.010539
-181.458389 83.142090 -49.298302 -0.201974
-167.975098 83.142090 -49.298302 -0.636974
-154.491791 83.142090 -49.298302 -0.618368
-141.008499 83.142090 -49.298302 -0.490528
-127.525192 83.142090 -49.298302 -0.277080
-114.041885 83.142090 -49.298302 0.956443
-100.558594 83.142090 -49.298302 1.333216
-87.075287 83.142090 -49.298302 1.266879
-73.591980 83.142090 -49.298302 1.358844
-60.108704 83.142090 -49.298302 0.960890
-46.625397 83.142090 -49.298302 0.923718
-33.142090 83.142090 -49.298302 0.656868
-19.658783 83.142090 -49.298302 0.062956
-6.175476 83.142090 -49.298302 -0.099008
7.307800 83.142090 -49.298302 -0.381070
20.791107 83.142090 -49.298302 -0.185089
34.274414 83.142090 -49.298302 0.122025
47.757721 83.142090 -49.298302 0.179173
61.240997 83.142090 -49.298302 0.195328
74.724304 83.142090 -49.298302 0.015503
88.207611 83.142090 -49.298302 -0.086351
101.690918 83.142090 -49.298302 -0.008770
115.174225 83.142090 -49.298302 -0.018109
128.657501 83.142090 -49.298302 -0.223307
142.140808 83.142090 -49.298302 -0.040623
155.624115 83.142090 -49.298302 0.058137
169.107422 83.142090 -49.298302 0.103355
182.590698 83.142090 -49.298302 0.093750
196.074036 83.142090 -49.298302 0.040750
209.557312 83.142090 -49.298302 0.028080
223.040588 83.142090 -49.298302 0.027328
236.523926 83.142090 -49.298302 0.047577
250.007202 83.142090 -49.298302 0.043118
263.490540 83.142090 -49.298302 0.021452
276.973816 83.142090 -49.298302 0.021934
290.457092 83.142090 -49.298302 0.019764
303.940430 83.142090 -49.298302 0.000000
317.423706 83.142090 -49.298302 0.000000
330.907043 83.142090 -49.298302 0.000000
344.390320 83.142090 -49.298302 0.000000
-343.257996 69.658783 -49.298302 0.000000
-329.774689 69.658783 -49.298302 0.000000
-316.291382 69.658783 -49.298302 0.000000
-302.808105 69.658783 -49.298302 0.000000
-289.324799 69.658783 -49.298302 0.361417
-275.841492 69.658783 -49.298302 0.357038
-262.358185 69.658783 -49.298302 0.310234
-248.874893 69.658783 -49.298302 0.230564
-235.391602 69.658783 -49.298302 0.108783
-221.908295 69.658783 -49.298302 -0.040837
-208.424988 69.658783 -49.298302 -0.056475
-194.941696 69.658783 -49.298302 -0.054844
-181.458389 69.658783 -49.298302 -0.187834
-167.975098 69.658783 -49.298302 -0.327492
-154.491791 69.658783 -49.298302 -0.490553
-141.008499 69.658783 -49.298302 -0.067976
-127.525192 69.658783 -49.298302 0.520212
-114.041885 69.658783 -49.298302 1.235422
-100.558594 69.658783 -49.298302 1.789014
-87.075287 69.658783 -49.298302 1.898104
-73.591980 69.658783 -49.298302 1.638305
-60.108704 69.658783 -49.298302 1.086028
-46.625397 69.658783 -49.298302 1.020457
-33.142090 69.658783 -49.298302 0.542296
-19.658783 69.658783 -49.298302 0.153931
-6.175476 69.658783 -49.298302 -0.124743
7.307800 69.658783 -49.298302 -0.591833
20.791107 69.658783 -49.298302 -0.364520
34.274414 69.658783 -49.298302 -0.052203
47.757721 69.658783 -49.298302 -0.119038
61.240997 69.658783 -49.298302 0.152461
74.724304 69.658783 -49.298302 0.112344
88.207611 69.658783 -49.298302 0.237046
101.690918 69.658783 -49.298302 -0.112183
115.174225 69.658783 -49.298302 -0.186952
128.657501 69.658783 -49.298302 -0.198791
142.140808 69.658783 -49.298302 -0.273392
155.624115 69.658783 -49.298302 -0.141898
169.107422 69.658783 -49.298302 -0.217633
182.590698 69.658783 -49.298302 -0.176299
196.074036 69.658783 -49.298302 -0.004788
209.557312 69.658783 -49.298302 0.005673
223.040588 69.658783 -49.298302 0.019596
236.523926 69.658783 -49.298302 0.077431
250.007202 69.658783 -49.298302 0.062528
263.490540 69.658783 -49.298302 0.043203
276.973816 69.658783 -49.298302 0.033562
290.457092 69.658783 -49.298302 0.010677
303.940430 69.658783 -49.298302 0.000000
317.423706 69.658783 -49.298302 0.000000
330.907043 69.658783 -49.298302 0.000000
344.390320 69.658783 -49.298302 0.000000
-343.257996 56.175476 -49.298302 0.000000
-329.774689 56.175476 -49.298302 0.000000
-316.291382 56.175476 -49.298302 0.000000
-302.808105 56.175476 -49.298302 0.000000
-289.324799 56.175476 -49.298302 0.348709
-275.841492 56.175476 -49.298302 0.449022
-262.358185 56.175476 -49.298302 0.198512
-248.874893 56.175476 -49.298302 0.203143
-235.391602 56.175476 -49.298302 -0.019722
-221.908295 56.175476 -49.298302 0.127346
-208.424988 56.175476 -49.298302 0.082263
-194.941696 56.175476 -49.298302 0.143126
-181.458389 56.175476 -49.298302 -0.006895
-167.975098 56.175476 -49.298302 0.160359
-154.491791 56.175476 -49.298302 0.352876
-141.008499 56.175476 -49.298302 0.494752
-127.525192 56.175476 -49.298302 1.072980
-114.041885 56.175476 -49.298302 1.241723
-100.558594 56.175476 -49.298302 1.868951
-87.075287 56.175476 -49.298302 2.108469
-73.591980 56.175476 -49.298302 1.735173
-60.108704 56.175476 -49.298302 1.307503
-46.625397 56.175476 -49.298302 1.122605
-33.142090 56.175476 -49.298302 0.544906
-19.658783 56.175476 -49.298302 0.156112
-6.175476 56.175476 -49.298302 0.062536
7.307800 56.175476 -49.298302 -0.289507
20.791107 56.175476 -49.298302 -0.290702
34.274414 56.175476 -49.298302 -0.141919
47.757721 56.175476 -49.298302 0.204963
61.240997 56.175476 -49.298302 0.277734
74.724304 56.175476 -49.298302 0.378634
88.207611 56.175476 -49.298302 0.300920
101.690918 56.175476 -49.298302 0.051293
115.174225 56.175476 -49.298302 -0.175725
128.657501 56.175476 -49.298302 -0.154138
142.140808 56.175476 -49.298302 -0.351119
155.624115 56.175476 -49.298302 -0.337686
169.107422 56.175476 -49.298302 -0.372635
182.590698 56.175476 -49.298302 -0.337208
196.074036 56.175476 -49.298302 -0.173135
209.557312 56.175476 -49.298302 -0.043694
223.040588 56.175476 -49.298302 0.025491
236.523926 56.175476 -49.298302 0.065363
250.007202 56.175476 -49.298302 0.038578
263.490540 56.175476 -49.298302 0.055183
276.973816 56.175476 -49.298302 0.033364
290.457092 56.175476 -49.298302 0.050937
303.940430 56.175476 -49.298302 0.000000
317.423706 56.175476 -49.298302 0.000000
330.907043 56.175476 -49.298302 0.000000
344.390320 56.175476 -49.298302 0.000000
-343.257996 42.692200 -49.298302 0.000000
-329.774689 42.692200 -49.298302 0.000000
-316.291382 42.692200 -49.298302 0.000000
-302.808105 42.692200 -49.298302 0.000000
-289.324799 42.692200 -49.298302 0.505054
-275.841492 42.692200 -49.298302 0.359943
-262.358185 42.692200 -49.298302 0.260251
-248.874893 42.692200 -49.298302 0.175020
-235.391602 42.692200 -49.298302 0.176246
-221.908295 42.692200 -49.298302 0.136438
-208.424988 42.692200 -49.298302 0.031940
-194.941696 42.692200 -49.298302 0.205534
-181.458389 42.692200 -49.298302 0.525877
-167.975098 42.692200 -49.298302 0.251357
-154.491791 42.692200 -49.298302 0.474957
-141.008499 42.692200 -49.298302 0.983393
-127.525192 42.692200 -49.298302 1.773405
-114.041885 42.692200 -49.298302 2.271764
-100.558594 42.692200 -49.298302 2.494960
-87.075287 42.692200 -49.298302 2.347976
-73.591980 42.692200 -49.298302 2.112395
-60.108704 42.692200 -49.298302 1.734085
-46.625397 42.692200 -49.298302 1.113588
-33.142090 42.692200 -49.298302 0.824686
-19.658783 42.692200 -49.298302 0.448237
-6.175476 42.692200 -49.298302 0.103763
7.307800 42.692200 -49.298302 -0.607166
20.791107 42.692200 -49.298302 -0.433757
34.274414 42.692200 -49.298302 -0.150928
47.757721 42.692200 -49.298302 0.305325
61.240997 42.692200 -49.298302 0.481166
74.724304 42.692200 -49.298302 0.429732
88.207611 42.692200 -49.298302 0.463030
101.690918 42.692200 -49.298302 0.349498
115.174225 42.692200 -49.298302 0.235159
128.657501 42.692200 -49.298302 -0.065645
142.140808 42.692200 -49.298302 -0.278440
155.624115 42.692200 -49.298302 -0.293609
169.107422 42.692200 -49.298302 -0.501812
182.590698 42.692200 -49.298302 -0.448945
196.074036 42.692200 -49.298302 -0.173327
209.557312 42.692200 -49.298302 -0.134751
223.040588 42.692200 -49.298302 -0.081703
236.523926 42.692200 -49.298302 -0.006759
250.007202 42.692200 -49.298302 0.029036
263.490540 42.692200 -49.298302 0.065096
276.973816 42.692200 -49.298302 0.085564
290.457092 42.692200 -49.298302 0.121952
303.940430 42.692200 -49.298302 0.000000
317.423706 42.692200 -49.298302 0.000000
330.907043 42.692200 -49.298302 0.000000
344.390320 42.692200 -49.298302 0.000000
-343.257996 29.208893 -49.298302 0.000000
-329.774689 29.208893 -49.298302 0.000000
-316.291382 29.208893 -49.298302 0.000000
-302.808105 29.208893 -49.298302 0.000000
-289.324799 29.208893 -49.298302 0.459001
-275.841492 29.208893 -49.298302 0.347525
-262.358185 29.208893 -49.298302 0.280603
-248.874893 29.208893 -49.298302 0.153700
-235.391602 29.208893 -49.298302 0.267417
-221.908295 29.208893 -49.298302 0.361337
-208.424988 29.208893 -49.298302 0.539978
-194.941696 29.208893 -49.298302 0.484639
-181.458389 29.208893 -49.298302 0.582798
-167.975098 29.208893 -49.298302 0.549206
-154.491791 29.208893 -49.298302 0.561951
-141.008499 29.208893 -49.298302 1.675603
-127.525192 29.208893 -49.298302 2.061116
-114.041885 29.208893 -49.298302 2.343742
-100.558594 29.208893 -49.298302 2.102867
-87.075287 29.208893 -49.298302 2.509509
-73.591980 29.208893 -49.298302 2.403458
-60.108704 29.208893 -49.298302 2.179565
-46.625397 29.208893 -49.298302 1.867545
-33.142090 29.208893 -49.298302 1.382540
-19.658783 29.208893 -49.298302 0.431340
-6.175476 29.208893 -49.298302 0.165026
7.307800 29.208893 -49.298302 -0.392573
20.791107 29.208893 -49.298302 -0.228251
34.274414 29.208893 -49.298302 -0.010985
47.757721 29.208893 -49.298302 0.320304
61.240997 29.208893 -49.298302 0.545425
74.724304 29.208893 -49.298302 0.486758
88.207611 29.208893 -49.298302 0.526689
101.690918 29.208893 -49.298302 0.500107
115.174225 29.208893 -49.298302 0.142257
128.657501 29.208893 -49.298302 0.095442
142.140808 29.208893 -49.298302 -0.000645
155.624115 29.208893 -49.298302 -0.005619
169.107422 29.208893 -49.298302 -0.286907
182.590698 29.208893 -49.298302 -0.276230
196.074036 29.208893 -49.298302 -0.194487
209.557312 29.208893 -49.298302 -0.126036
223.040588 29.208893 -49.298302 -0.057452
236.523926 29.208893 -49.298302 -0.047139
250.007202 29.208893 -49.298302 0.037059
263.490540 29.208893 -49.298302 0.074091
276.973816 29.208893 -49.298302 0.071197
290.457092 29.208893 -49.298302 0.093992
303.940430 29.208893 -49.298302 0.000000
317.423706 29.208893 -49.298302 0.000000
330.907043 29.208893 -49.298302 0.000000
344.390320 29.208893 -49.298302 0.000000
-343.257996 15.725586 -49.298302 0.000000
-329.774689 15.725586 -49.298302 0.000000
-316.291382 15.725586 -49.298302 0.000000
-302.808105 15.725586 -49.298302 0.000000
-289.324799 15.725586 -49.298302 0.301354
-275.841492 15.725586 -49.298302 0.415544
-262.358185 15.725586 -49.298302 0.208846
-248.874893 15.725586 -49.298302 0.206877
-235.391602 15.725586 -49.298302 0.273313
-221.908295 15.725586 -49.298302 0.281958
-208.424988 15.725586 -49.298302 0.351398
-194.941696 15.725586 -49.298302 0.632635
-181.458389 15.725586 -49.298302 0.484056
-167.975098 15.725586 -49.298302 0.521990
-154.491791 15.725586 -49.298302 1.002200
-141.008499 15.725586 -49.298302 1.650118
-127.525192 15.725586 -49.298302 2.388180
-114.041885 15.725586 -49.298302 2.844948
-100.558594 15.725586 -49.298302 2.244117
-87.075287 15.725586 -49.298302 2.920006
-73.591980 15.725586 -49.298302 3.082456
-60.108704 15.725586 -49.298302 2.612584
-46.625397 15.725586 -49.298302 2.012622
-33.142090 15.725586 -49.298302 1.528692
-19.658783 15.725586 -49.298302 0.882778
-6.175476 15.725586 -49.298302 0.592313
7.307800 15.725586 -49.298302 0.295231
20.791107 15.725586 -49.298302 0.236175
34.274414 15.725586 -49.298302 0.482090
47.757721 15.725586 -49.298302 0.679750
61.240997 15.725586 -49.298302 1.104576
74.724304 15.725586 -49.298302 1.231627
88.207611 15.725586 -49.298302 1.121794
101.690918 15.725586 -49.298302 1.024510
115.174225 15.725586 -49.298302 0.492858
128.657501 15.725586 -49.298302 0.439932
142.140808 15.725586 -49.298302 0.400043
155.624115 15.725586 -49.298302 0.207926
169.107422 15.725586 -49.298302 -0.063919
182.590698 15.725586 -49.298302 -0.188341
196.074036 15.725586 -49.298302 -0.175067
209.557312 15.725586 -49.298302 -0.097857
223.040588 15.725586 -49.298302 -0.084322
236.523926 15.725586 -49.298302 0.016188
250.007202 15.725586 -49.298302 0.059048
263.490540 15.725586 -49.298302 0.090029
276.973816 15.725586 -49.298302 0.090666
290.457092 15.725586 -49.298302 0.085221
303.940430 15.725586 -49.298302 0.000000
317.423706 15.725586 -49.298302 0.000000
330.907043 15.725586 -49.298302 0.000000
344.390320 15.725586 -49.298302 0.000000
-343.257996 2.242279 -49.298302 0.000000
-329.774689 2.242279 -49.298302 0.000000
-316.291382 2.242279 -49.298302 0.000000
-302.808105 2.242279 -49.298302 0.000000
-289.324799 2.242279 -49.298302 0.325056
-275.841492 2.242279 -49.298302 0.180265
-262.358185 2.242279 -49.298302 0.121520
-248.874893 2.242279 -49.298302 0.253597
-235.391602 2.242279 -49.298302 0.151031
-221.908295 2.242279 -49.298302 0.201469
-208.424988 2.242279 -49.298302 -0.176162
-194.941696 2.242279 -49.298302 0.509960
-181.458389 2.242279 -49.298302 0.580517
-167.975098 2.242279 -49.298302 1.282871
-154.491791 2.242279 -49.298302 1.563630
-141.008499 2.242279 -49.298302 2.146007
-127.525192 2.242279 -49.298302 2.887140
-114.041885 2.242279 -49.298302 3.492906
-100.558594 2.242279 -49.298302 3.337198
-87.075287 2.242279 -49.298302 2.920398
-73.591980 2.242279 -49.298302 3.007757
-60.108704 2.242279 -49.298302 2.770928
-46.625397 2.242279 -49.298302 2.350910
-33.142090 2.242279 -49.298302 1.579837
-19.658783 2.242279 -49.298302 0.987760
-6.175476 2.242279 -49.298302 0.873861
7.307800 2.242279 -49.298302 0.582473
20.791107 2.242279 -49.298302 0.883637
34.274414 2.242279 -49.298302 1.120806
47.757721 2.242279 -49.298302 1.388630
61.240997 2.242279 -49.298302 1.535739
74.724304 2.242279 -49.298302 2.038218
88.207611 2.242279 -49.298302 1.465060
101.690918 2.242279 -49.298302 1.408219
115.174225 2.242279 -49.298302 1.260083
128.657501 2.242279 -49.298302 0.655253
142.140808 2.242279 -49.298302 0.544522
155.624115 2.242279 -49.298302 0.424583
169.107422 2.242279 -49.298302 0.154607
182.590698 2.242279 -49.298302 -0.016782
196.074036 2.242279 -49.298302 -0.038179
209.557312 2.242279 -49.298302 -0.001610
223.040588 2.242279 -49.298302 0.043901
236.523926 2.242279 -49.298302 0.114479
250.007202 2.242279 -49.298302 0.086739
263.490540 2.242279 -49.298302 0.105744
276.973816 2.242279 -49.298302 0.128438
290.457092 2.242279 -49.298302 -0.012340
303.940430 2.242279 -49.298302 0.000000
317.423706 2.242279 -49.298302 0.000000
330.907043 2.242279 -49.298302 0.000000
344.390320 2.242279 -49.298302 0.000000
-343.257996 -11.240997 -49.298302 0.000000
-329.774689 -11.240997 -49.298302 0.000000
-316.291382 -11.240997 -49.298302 0.000000
-302.808105 -11.240997 -49.298302 0.000000
-289.324799 -11.240997 -49.298302 0.177650
-275.841492 -11.240997 -49.298302 0.269736
-262.358185 -11.240997 -49.298302 0.086273
-248.874893 -11.240997 -49.298302 0.224992
-235.391602 -11.240997 -49.298302 0.102286
-221.908295 -11.240997 -49.298302 0.191181
-208.424988 -11.240997 -49.298302 0.199342
-194.941696 -11.240997 -49.298302 0.370261
-181.458389 -11.240997 -49.298302 1.191385
-167.975098 -11.240997 -49.298302 1.914887
-154.491791 -11.240997 -49.298302 1.986530
-141.008499 -11.240997 -49.298302 2.503398
-127.525192 -11.240997 -49.298302 3.467892
-114.041885 -11.240997 -49.298302 3.923370
-100.558594 -11.240997 -49.298302 4.450233
-87.075287 -11.240997 -49.298302 4.207239
-73.591980 -11.240997 -49.298302 3.558227
-60.108704 -11.240997 -49.298302 3.149804
-46.625397 -11.240997 -49.298302 2.509101
-33.142090 -11.240997 -49.298302 1.590247
-19.658783 -11.240997 -49.298302 1.038688
-6.175476 -11.240997 -49.298302 1.032634
7.307800 -11.240997 -49.298302 1.483549
20.791107 -11.240997 -49.298302 1.345596
34.274414 -11.240997 -49.298302 1.787150
47.757721 -11.240997 -49.298302 2.150054
61.240997 -11.240997 -49.298302 2.703532
74.724304 -11.240997 -49.298302 3.001757
88.207611 -11.240997 -49.298302 2.149174
101.690918 -11.240997 -49.298302 1.795843
115.174225 -11.240997 -49.298302 1.368966
128.657501 -11.240997 -49.298302 1.119924
142.140808 -11.240997 -49.298302 0.822709
155.624115 -11.240997 -49.298302 0.592280
169.107422 -11.240997 -49.298302 0.310968
182.590698 -11.240997 -49.298302 0.139537
196.074036 -11.240997 -49.298302 -0.053837
209.557312 -11.240997 -49.298302 -0.031583
223.040588 -11.240997 -49.298302 0.032216
236.523926 -11.240997 -49.298302 0.193221
250.007202 -11.240997 -49.298302 0.132821
263.490540 -11.240997 -49.298302 0.092524
276.973816 -11.240997 -49.298302 0.133636
290.457092 -11.240997 -49.298302 0.031190
303.940430 -11.240997 -49.298302 0.000000
317.423706 -11.240997 -49.298302 0.000000
330.907043 -11.240997 -49.298302 0.000000
344.390320 -11.240997 -49.298302 0.000000
-343.257996 -24.724304 -49.298302 0.000000
-329.774689 -24.724304 -49.298302 0.000000
-316.291382 -24.724304 -49.298302 0.000000
-302.808105 -24.724304 -49.298302 0.000000
-289.324799 -24.724304 -49.298302 0.138010
-275.841492 -24.724304 -49.298302 0.205467
-262.358185 -24.724304 -49.298302 0.084315
-248.874893 -24.724304 -49.298302 0.313745
-235.391602 -24.724304 -49.298302 0.269242
-221.908295 -24.724304 -49.298302 0.477244
-208.424988 -24.724304 -49.298302 0.394728
-194.941696 -24.724304 -49.298302 0.980473
-181.458389 -24.724304 -49.298302 1.702581
-167.975098 -24.724304 -49.298302 2.114275
-154.491791 -24.724304 -49.298302 2.438384
-141.008499 -24.724304 -49.298302 2.997957
-127.525192 -24.724304 -49.298302 3.966599
-114.041885 -24.724304 -49.298302 4.624601
-100.558594 -24.724304 -49.298302 5.301482
-87.075287 -24.724304 -49.298302 4.991759
-73.591980 -24.724304 -49.298302 4.544088
-60.108704 -24.724304 -49.298302 3.809663
-46.625397 -24.724304 -49.298302 2.791593
-33.142090 -24.724304 -49.298302 2.450890
-19.658783 -24.724304 -49.298302 2.093773
-6.175476 -24.724304 -49.298302 2.127284
7.307800 -24.724304 -49.298302 1.970151
20.791107 -24.724304 -49.298302 1.951582
34.274414 -24.724304 -49.298302 2.761504
47.757721 -24.724304 -49.298302 3.038761
61.240997 -24.724304 -49.298302 3.486161
74.724304 -24.724304 -49.298302 3.538261
88.207611 -24.724304 -49.298302 2.693205
101.690918 -24.724304 -49.298302 2.147188
115.174225 -24.724304 -49.298302 1.563770
128.657501 -24.724304 -49.298302 1.044466
142.140808 -24.724304 -49.298302 0.751567
155.624115 -24.724304 -49.298302 0.627672
169.107422 -24.724304 -49.298302 0.343874
182.590698 -24.724304 -49.298302 0.118656
196.074036 -24.724304 -49.298302 -0.007637
209.557312 -24.724304 -49.298302 0.014275
223.040588 -24.724304 -49.298302 0.068948
236.523926 -24.724304 -49.298302 0.130531
250.007202 -24.724304 -49.298302 0.123979
263.490540 -24.724304 -49.298302 0.088307
276.973816 -24.724304 -49.298302 0.183718
290.457092 -24.724304 -49.298302 0.133541
303.940430 -24.724304 -49.298302 0.000000
317.423706 -24.724304 -49.298302 0.000000
330.907043 -24.724304 -49.298302 0.000000
344.390320 -24.724304 -49.298302 0.000000
-343.257996 -38.207611 -49.298302 0.000000
-329.774689 -38.207611 -49.298302 0.000000
-316.291382 -38.207611 -49.298302 0.000000
-302.808105 -38.207611 -49.298302 0.000000
-289.324799 -38.207611 -49.298302 0.278021
-275.841492 -38.207611 -49.298302 0.291346
-262.358185 -38.207611 -49.298302 0.266430
-248.874893 -38.207611 -49.298302 0.562938
-235.391602 -38.207611 -49.298302 0.525647
-221.908295 -38.207611 -49.298302 0.380381
-208.424988 -38.207611 -49.298302 0.803461
-194.941696 -38.207611 -49.298302 1.070901
-181.458389 -38.207611 -49.298302 1.803895
-167.975098 -38.207611 -49.298302 1.895851
-154.491791 -38.207611 -49.298302 2.505259
-141.008499 -38.207611 -49.298302 3.052359
-127.525192 -38.207611 -49.298302 4.020267
-114.041885 -38.207611 -49.298302 4.634322
-100.558594 -38.207611 -49.298302 4.799097
-87.075287 -38.207611 -49.298302 4.948108
-73.591980 -38.207611 -49.298302 4.664706
-60.108704 -38.207611 -49.298302 3.967368
-46.625397 -38.207611 -49.298302 3.587611
-33.142090 -38.207611 -49.298302 2.968074
-19.658783 -38.207611 -49.298302 2.622405
-6.175476 -38.207611 -49.298302 3.025455
7.307800 -38.207611 -49.298302 3.108928
20.791107 -38.207611 -49.298302 2.766113
34.274414 -38.207611 -49.298302 3.500966
47.757721 -38.207611 -49.298302 3.657817
61.240997 -38.207611 -49.298302 3.841507
74.724304 -38.207611 -49.298302 3.246662
88.207611 -38.207611 -49.298302 2.992447
101.690918 -38.207611 -49.298302 2.306865
115.174225 -38.207611 -49.298302 1.619501
128.657501 -38.207611 -49.298302 1.042941
142.140808 -38.207611 -49.298302 0.837121
155.624115 -38.207611 -49.298302 0.651418
169.107422 -38.207611 -49.298302 0.516863
182.590698 -38.207611 -49.298302 0.247755
196.074036 -38.207611 -49.298302 0.083176
209.557312 -38.207611 -49.298302 0.035079
223.040588 -38.207611 -49.298302 0.071372
236.523926 -38.207611 -49.298302 0.108476
250.007202 -38.207611 -49.298302 0.067003
263.490540 -38.207611 -49.298302 0.148597
276.973816 -38.207611 -49.298302 0.112774
290.457092 -38.207611 -49.298302 0.342009
303.940430 -38.207611 -49.298302 0.000000
317.423706 -38.207611 -49.298302 0.000000
330.907043 -38.207611 -49.298302 0.000000
344.390320 -38.207611 -49.298302 0.000000
-343.257996 -51.690918 -49.298302 0.000000
-329.774689 -51.690918 -49.298302 0.000000
-316.291382 -51.690918 -49.298302 0.000000
-302.808105 -51.690918 -49.298302 0.000000
-289.324799 -51.690918 -49.298302 0.321180
-275.841492 -51.690918 -49.298302 0.325369
-262.358185 -51.690918 -49.298302 0.607671
-248.874893 -51.690918 -49.298302 0.494992
-235.391602 -51.690918 -49.298302 0.489735
-221.908295 -51.690918 -49.298302 0.545977
-208.424988 -51.690918 -49.298302 1.278889
-194.941696 -51.690918 -49.298302 1.778644
-181.458389 -51.690918 -49.298302 2.041534
-167.975098 -51.690918 -49.298302 2.803119
-154.491791 -51.690918 -49.298302 3.464963
-141.008499 -51.690918 -49.298302 4.164259
-127.525192 -51.690918 -49.298302 4.656484
-114.041885 -51.690918 -49.298302 4.494061
-100.558594 -51.690918 -49.298302 4.558697
-87.075287 -51.690918 -49.298302 4.869757
-73.591980 -51.690918 -49.298302 4.268897
-60.108704 -51.690918 -49.298302 3.652735
-46.625397 -51.690918 -49.298302 3.043232
-33.142090 -51.690918 -49.298302 3.377831
-19.658783 -51.690918 -49.298302 3.159162
-6.175476 -51.690918 -49.298302 3.556549
7.307800 -51.690918 -49.298302 3.705658
20.791107 -51.690918 -49.298302 3.673445
34.274414 -51.690918 -49.298302 4.093233
47.757721 -51.690918 -49.298302 3.959321
61.240997 -51.690918 -49.298302 3.675547
74.724304 -51.690918 -49.298302 2.732367
88.207611 -51.690918 -49.298302 2.439861
101.690918 -51.690918 -49.298302 1.932391
115.174225 -51.690918 -49.298302 1.255785
128.657501 -51.690918 -49.298302 0.981561
142.140808 -51.690918 -49.298302 0.741347
155.624115 -51.690918 -49.298302 0.716094
169.107422 -51.690918 -49.298302 0.497801
182.590698 -51.690918 -49.298302 0.345289
196.074036 -51.690918 -49.298302 0.114848
209.557312 -51.690918 -49.298302 0.083355
223.040588 -51.690918 -49.298302 0.124957
236.523926 -51.690918 -49.298302 0.172061
250.007202 -51.690918 -49.298302 0.200574
263.490540 -51.690918 -49.298302 0.220473
276.973816 -51.690918 -49.298302 0.193245
290.457092 -51.690918 -49.298302 0.220357
303.940430 -51.690918 -49.298302 0.000000
317.423706 -51.690918 -49.298302 0.000000
330.907043 -51.690918 -49.298302 0.000000
344.390320 -51.690918 -49.298302 0.000000
-343.257996 -65.174225 -49.298302 0.000000
-329.774689 -65.174225 -49.298302 0.000000
-316.291382 -65.174225 -49.298302 0.000000
-302.808105 -65.174225 -49.298302 0.000000
-289.324799 -65.174225 -49.298302 0.193781
-275.841492 -65.174225 -49.298302 0.146597
-262.358185 -65.174225 -49.298302 -0.012291
-248.874893 -65.174225 -49.298302 0.276820
-235.391602 -65.174225 -49.298302 1.091599
-221.908295 -65.174225 -49.298302 1.301576
-208.424988 -65.174225 -49.298302 1.439031
-194.941696 -65.174225 -49.298302 2.369776
-181.458389 -65.174225 -49.298302 0.000000
-167.975098 -65.174225 -49.298302 0.000000
-154.491791 -65.174225 -49.298302 0.000000
-141.008499 -65.174225 -49.298302 3.796362
-127.525192 -65.174225 -49.298302 5.066420
-114.041885 -65.174225 -49.298302 4.799099
-100.558594 -65.174225 -49.298302 4.318508
-87.075287 -65.174225 -49.298302 4.263409
-73.591980 -65.174225 -49.298302 3.773658
-60.108704 -65.174225 -49.298302 3.206101
-46.625397 -65.174225 -49.298302 3.263798
-33.142090 -65.174225 -49.298302 3.421633
-19.658783 -65.174225 -49.298302 3.274309
-6.175476 -65.174225 -49.298302 3.857253
7.307800 -65.174225 -49.298302 4.087964
20.791107 -65.174225 -49.298302 3.959534
34.274414 -65.174225 -49.298302 3.976341
47.757721 -65.174225 -49.298302 3.764651
61.240997 -65.174225 -49.298302 3.401210
74.724304 -65.174225 -49.298302 2.540257
88.207611 -65.174225 -49.298302 1.944949
101.690918 -65.174225 -49.298302 1.364767
115.174225 -65.174225 -49.298302 1.034464
128.657501 -65.174225 -49.298302 0.772804
142.140808 -65.174225 -49.298302 0.658075
155.624115 -65.174225 -49.298302 0.537909
169.107422 -65.174225 -49.298302 0.482391
182.590698 -65.174225 -49.298302 0.273539
196.074036 -65.174225 -49.298302 0.251718
209.557312 -65.174225 -49.298302 0.254054
223.040588 -65.174225 -49.298302 0.168192
236.523926 -65.174225 -49.298302 0.205529
250.007202 -65.174225 -49.298302 0.267611
263.490540 -65.174225 -49.298302 0.336346
276.973816 -65.174225 -49.298302 0.628142
290.457092 -65.174225 -49.298302 0.426856
303.940430 -65.174225 -49.298302 0.000000
317.423706 -65.174225 -49.298302 0.000000
330.907043 -65.174225 -49.298302 0.000000
344.390320 -65.174225 -49.298302 0.000000
-343.257996 -78.657501 -49.298302 0.000000
-329.774689 -78.657501 -49.298302 0.000000
-316.291382 -78.657501 -49.298302 0.000000
-302.808105 -78.657501 -49.298302 0.000000
-289.324799 -78.657501 -49.298302 0.554454
-275.841492 -78.657501 -49.298302 0.170812
-262.358185 -78.657501 -49.298302 0.331574
-248.874893 -78.657501 -49.298302 -0.339149
-235.391602 -78.657501 -49.298302 0.000000
-221.908295 -78.657501 -49.298302 0.000000
-208.424988 -78.657501 -49.298302 0.000000
-194.941696 -78.657501 -49.298302 0.000000
-181.458389 -78.657501 -49.298302 0.000000
-167.975098 -78.657501 -49.298302 0.000000
-154.491791 -78.657501 -49.298302 0.000000
-141.008499 -78.657501 -49.298302 3.335878
-127.525192 -78.657501 -49.298302 4.680324
-114.041885 -78.657501 -49.298302 5.031401
-100.558594 -78.657501 -49.298302 4.894670
-87.075287 -78.657501 -49.298302 3.824428
-73.591980 -78.657501 -49.298302 3.701777
-60.108704 -78.657501 -49.298302 3.760606
-46.625397 -78.657501 -49.298302 3.675126
-33.142090 -78.657501 -49.298302 3.458233
-19.658783 -78.657501 -49.298302 3.302983
-6.175476 -78.657501 -49.298302 3.396995
7.307800 -78.657501 -49.298302 3.968072
20.791107 -78.657501 -49.298302 3.883009
34.274414 -78.657501 -49.298302 3.909353
47.757721 -78.657501 -49.298302 3.023275
61.240997 -78.657501 -49.298302 2.678086
74.724304 -78.657501 -49.298302 1.849732
88.207611 -78.657501 -49.298302 1.348242
101.690918 -78.657501 -49.298302 1.127982
115.174225 -78.657501 -49.298302 0.875925
128.657501 -78.657501 -49.298302 0.709488
142.140808 -78.657501 -49.298302 0.678316
155.624115 -78.657501 -49.298302 0.480138
169.107422 -78.657501 -49.298302 0.359597
182.590698 -78.657501 -49.298302 0.243913
196.074036 -78.657501 -49.298302 0.170858
209.557312 -78.657501 -49.298302 0.237670
223.040588 -78.657501 -49.298302 0.318653
236.523926 -78.657501 -49.298302 0.367081
250.007202 -78.657501 -49.298302 0.309387
263.490540 -78.657501 -49.298302 0.403173
276.973816 -78.657501 -49.298302 0.446359
290.457092 -78.657501 -49.298302 0.175630
303.940430 -78.657501 -49.298302 0.000000
317.423706 -78.657501 -49.298302 0.000000
330.907043 -78.657501 -49.298302 0.000000
344.390320 -78.657501 -49.298302 0.000000
-343.257996 -92.140808 -49.298302 0.000000
-329.774689 -92.140808 -49.298302 0.000000
-316.291382 -92.140808 -49.298302 0.000000
-302.808105 -92.140808 -49.298302 0.000000
-289.324799 -92.140808 -49.298302 -0.234736
-275.841492 -92.140808 -49.298302 0.666876
-262.358185 -92.140808 -49.298302 0.374337
-248.874893 -92.140808 -49.298302 0.000000
-235.391602 -92.140808 -49.298302 0.000000
-221.908295 -92.140808 -49.298302 0.000000
-208.424988 -92.140808 -49.298302 0.000000
-194.941696 -92.140808 -49.298302 0.000000
-181.458389 -92.140808 -49.298302 0.000000
-167.975098 -92.140808 -49.298302 0.000000
-154.491791 -92.140808 -49.298302 0.000000
-141.008499 -92.140808 -49.298302 0.000000
-127.525192 -92.140808 -49.298302 3.940963
-114.041885 -92.140808 -49.298302 3.862764
-100.558594 -92.140808 -49.298302 4.116721
-87.075287 -92.140808 -49.298302 3.659639
-73.591980 -92.140808 -49.298302 3.179324
-60.108704 -92.140808 -49.298302 3.632705
-46.625397 -92.140808 -49.298302 3.681350
-33.142090 -92.140808 -49.298302 3.472166
-19.658783 -92.140808 -49.298302 3.317774
-6.175476 -92.140808 -49.298302 3.180123
7.307800 -92.140808 -49.298302 3.766877
20.791107 -92.140808 -49.298302 3.926022
34.274414 -92.140808 -49.298302 3.638585
47.757721 -92.140808 -49.298302 2.214638
61.240997 -92.140808 -49.298302 1.784771
74.724304 -92.140808 -49.298302 1.511672
88.207611 -92.140808 -49.298302 1.024792
101.690918 -92.140808 -49.298302 0.836336
115.174225 -92.140808 -49.298302 0.676595
128.657501 -92.140808 -49.298302 0.701427
142.140808 -92.140808 -49.298302 0.665208
155.624115 -92.140808 -49.298302 0.399777
169.107422 -92.140808 -49.298302 0.300812
182.590698 -92.140808 -49.298302 0.224284
196.074036 -92.140808 -49.298302 0.144144
209.557312 -92.140808 -49.298302 0.167618
223.040588 -92.140808 -49.298302 0.179618
236.523926 -92.140808 -49.298302 0.223334
250.007202 -92.140808 -49.298302 0.152578
263.490540 -92.140808 -49.298302 0.421807
276.973816 -92.140808 -49.298302 0.231567
290.457092 -92.140808 -49.298302 0.526564
303.940430 -92.140808 -49.298302 0.000000
317.423706 -92.140808 -49.298302 0.000000
330.907043 -92.140808 -49.298302 0.000000
344.390320 -92.140808 -49.298302 0.000000
-343.257996 -105.624115 -49.298302 0.000000
-329.774689 -105.624115 -49.298302 0.000000
-316.291382 -105.624115 -49.298302 0.000000
-302.808105 -105.624115 -49.298302 0.000000
-289.324799 -105.624115 -49.298302 1.989115
-275.841492 -105.624115 -49.298302 0.117437
-262.358185 -105.624115 -49.298302 0.000000
-248.874893 -105.624115 -49.298302 0.000000
-235.391602 -105.624115 -49.298302 0.000000
-221.908295 -105.624115 -49.298302 0.000000
-208.424988 -105.624115 -49.298302 0.000000
-194.941696 -105.624115 -49.298302 0.000000
-181.458389 -105.624115 -49.298302 0.000000
-167.975098 -105.624115 -49.298302 0.000000
-154.491791 -105.624115 -49.298302 0.000000
-141.008499 -105.624115 -49.298302 0.000000
-127.525192 -105.624115 -49.298302 3.495223
-114.041885 -105.624115 -49.298302 2.770280
-100.558594 -105.624115 -49.298302 3.216838
-87.075287 -105.624115 -49.298302 3.385448
-73.591980 -105.624115 -49.298302 3.198930
-60.108704 -105.624115 -49.298302 3.514857
-46.625397 -105.624115 -49.298302 3.955243
-33.142090 -105.624115 -49.298302 3.583112
-19.658783 -105.624115 -49.298302 3.312721
-6.175476 -105.624115 -49.298302 3.057969
7.307800 -105.624115 -49.298302 3.109753
20.791107 -105.624115 -49.298302 3.150547
34.274414 -105.624115 -49.298302 2.479430
47.757721 -105.624115 -49.298302 1.890637
61.240997 -105.624115 -49.298302 1.667211
74.724304 -105.624115 -49.298302 1.114109
88.207611 -105.624115 -49.298302 0.711515
101.690918 -105.624115 -49.298302 0.734838
115.174225 -105.624115 -49.298302 0.650269
128.657501 -105.624115 -49.298302 0.476573
142.140808 -105.624115 -49.298302 0.635518
155.624115 -105.624115 -49.298302 0.412132
169.107422 -105.624115 -49.298302 0.315424
182.590698 -105.624115 -49.298302 0.274601
196.074036 -105.624115 -49.298302 0.186664
209.557312 -105.624115 -49.298302 0.118031
223.040588 -105.624115 -49.298302 0.250827
236.523926 -105.624115 -49.298302 0.374414
250.007202 -105.624115 -49.298302 0.480574
263.490540 -105.624115 -49.298302 0.512814
276.973816 -105.624115 -49.298302 0.282308
290.457092 -105.624115 -49.298302 0.855515
303.940430 -105.624115 -49.298302 0.000000
317.423706 -105.624115 -49.298302 0.000000
330.907043 -105.624115 -49.298302 0.000000
344.390320 -105.624115 -49.298302 0.000000
-343.257996 -119.107422 -49.298302 0.000000
-329.774689 -119.107422 -49.298302 0.000000
-316.291382 -119.107422 -49.298302 0.000000
-302.808105 -119.107422 -49.298302 0.000000
-289.324799 -119.107422 -49.298302 0.000000
-275.841492 -119.107422 -49.298302 0.000000
-262.358185 -119.107422 -49.298302 0.000000
-248.874893 -119.107422 -49.298302 0.000000
-235.391602 -119.107422 -49.298302 0.000000
-221.908295 -119.107422 -49.298302 0.000000
-208.424988 -119.107422 -49.298302 0.000000
-194.941696 -119.107422 -49.298302 0.000000
-181.458389 -119.107422 -49.298302 0.000000
-167.975098 -119.107422 -49.298302 0.000000
-154.491791 -119.107422 -49.298302 0.000000
-141.008499 -119.107422 -49.298302 0.000000
-127.525192 -119.107422 -49.298302 0.000000
-114.041885 -119.107422 -49.298302 0.000000
-100.558594 -119.107422 -49.298302 1.960541
-87.075287 -119.107422 -49.298302 3.125542
-73.591980 -119.107422 -49.298302 2.922436
-60.108704 -119.107422 -49.298302 3.336156
-46.625397 -119.107422 -49.298302 3.009931
-33.142090 -119.107422 -49.298302 3.059521
-19.658783 -119.107422 -49.298302 2.288272
-6.175476 -119.107422 -49.298302 2.516197
7.307800 -119.107422 -49.298302 2.619012
20.791107 -119.107422 -49.298302 2.400144
34.274414 -119.107422 -49.298302 2.210589
47.757721 -119.107422 -49.298302 1.780192
61.240997 -119.107422 -49.298302 1.148394
74.724304 -119.107422 -49.298302 0.850932
88.207611 -119.107422 -49.298302 0.823825
101.690918 -119.107422 -49.298302 0.614937
115.174225 -119.107422 -49.298302 0.604647
128.657501 -119.107422 -49.298302 0.643921
142.140808 -119.107422 -49.298302 0.549298
155.624115 -119.107422 -49.298302 0.411490
169.107422 -119.107422 -49.298302 0.397591
182.590698 -119.107422 -49.298302 0.170717
196.074036 -119.107422 -49.298302 0.445045
209.557312 -119.107422 -49.298302 0.355358
223.040588 -119.107422 -49.298302 0.370621
236.523926 -119.107422 -49.298302 0.516770
250.007202 -119.107422 -49.298302 0.069113
263.490540 -119.107422 -49.298302 0.699299
276.973816 -119.107422 -49.298302 0.605876
290.457092 -119.107422 -49.298302 0.661951
303.940430 -119.107422 -49.298302 0.000000
317.423706 -119.107422 -49.298302 0.000000
330.907043 -119.107422 -49.298302 0.000000
344.390320 -119.107422 -49.298302 0.000000
-343.257996 -132.590698 -49.298302 0.000000
-329.774689 -132.590698 -49.298302 0.000000
-316.291382 -132.590698 -49.298302 0.000000
-302.808105 -132.590698 -49.298302 0.000000
-289.324799 -132.590698 -49.298302 0.000000
-275.841492 -132.590698 -49.298302 0.000000
-262.358185 -132.590698 -49.298302 0.000000
-248.874893 -132.590698 -49.298302 0.000000
-235.391602 -132.590698 -49.298302 0.000000
-221.908295 -132.590698 -49.298302 0.000000
-208.424988 -132.590698 -49.298302 0.000000
-194.941696 -132.590698 -49.298302 0.000000
-181.458389 -132.590698 -49.298302 0.000000
-167.975098 -132.590698 -49.298302 0.000000
-154.491791 -132.590698 -49.298302 0.000000
-141.008499 -132.590698 -49.298302 0.000000
-127.525192 -132.590698 -49.298302 0.000000
-114.041885 -132.590698 -49.298302 0.000000
-100.558594 -132.590698 -49.298302 0.000000
-87.075287 -132.590698 -49.298302 0.000000
-73.591980 -132.590698 -49.298302 0.000000
-60.108704 -132.590698 -49.298302 2.718313
-46.625397 -132.590698 -49.298302 2.464268
-33.142090 -132.590698 -49.298302 2.549056
-19.658783 -132.590698 -49.298302 2.069509
-6.175476 -132.590698 -49.298302 1.745488
7.307800 -132.590698 -49.298302 2.563430
20.791107 -132.590698 -49.298302 2.462678
34.274414 -132.590698 -49.298302 2.014140
47.757721 -132.590698 -49.298302 1.440789
61.240997 -132.590698 -49.298302 1.088711
74.724304 -132.590698 -49.298302 0.584056
88.207611 -132.590698 -49.298302 0.898441
101.690918 -132.590698 -49.298302 0.717045
115.174225 -132.590698 -49.298302 0.343446
128.657501 -132.590698 -49.298302 0.752100
142.140808 -132.590698 -49.298302 0.713087
155.624115 -132.590698 -49.298302 0.613515
169.107422 -132.590698 -49.298302 0.647998
182.590698 -132.590698 -49.298302 0.353181
196.074036 -132.590698 -49.298302 0.575760
209.557312 -132.590698 -49.298302 0.000000
223.040588 -132.590698 -49.298302 0.651149
236.523926 -132.590698 -49.298302 0.862872
250.007202 -132.590698 -49.298302 -0.380066
263.490540 -132.590698 -49.298302 1.982095
276.973816 -132.590698 -49.298302 0.000000
290.457092 -132.590698 -49.298302 0.000000
303.940430 -132.590698 -49.298302 0.000000
317.423706 -132.590698 -49.298302 0.000000
330.907043 -132.590698 -49.298302 0.000000
344.390320 -132.590698 -49.298302 0.000000
-343.257996 -146.074036 -49.298302 0.000000
-329.774689 -146.074036 -49.298302 0.000000
-316.291382 -146.074036 -49.298302 0.000000
-302.808105 -146.074036 -49.298302 0.000000
-289.324799 -146.074036 -49.298302 0.000000
-275.841492 -146.074036 -49.298302 0.000000
-262.358185 -146.074036 -49.298302 0.000000
-248.874893 -146.074036 -49.298302 0.000000
-235.391602 -146.074036 -49.298302 0.000000
-221.908295 -146.074036 -49.298302 0.000000
-208.424988 -146.074036 -49.298302 0.000000
-194.941696 -146.074036 -49.298302 0.000000
-181.458389 -146.074036 -49.298302 0.000000
-167.975098 -146.074036 -49.298302 0.000000
-154.491791 -146.074036 -49.298302 0.000000
-141.008499 -146.074036 -49.298302 0.000000
-127.525192 -146.074036 -49.298302 0.000000
-114.041885 -146.074036 -49.298302 0.000000
-100.558594 -146.074036 -49.298302 0.000000
-87.075287 -146.074036 -49.298302 0.000000
-73.591980 -146.074036 -49.298302 0.000000
-60.108704 -146.074036 -49.298302 0.000000
-46.625397 -146.074036 -49.298302 0.000000
-33.142090 -146.074036 -49.298302 2.964757
-19.658783 -146.074036 -49.298302 2.229067
-6.175476 -146.074036 -49.298302 2.359746
7.307800 -146.074036 -49.298302 2.054143
20.791107 -146.074036 -49.298302 0.000000
34.274414 -146.074036 -49.298302 0.000000
47.757721 -146.074036 -49.298302 0.000000
61.240997 -146.074036 -49.298302 0.000000
74.724304 -146.074036 -49.298302 0.000000
88.207611 -146.074036 -49.298302 0.000000
101.690918 -146.074036 -49.298302 0.000000
115.174225 -146.074036 -49.298302 0.000000
128.657501 -146.074036 -49.298302 0.000000
142.140808 -146.074036 -49.298302 0.000000
155.624115 -146.074036 -49.298302 0.000000
169.107422 -146.074036 -49.298302 0.000000
182.590698 -146.074036 -49.298302 0.000000
196.074036 -146.074036 -49.298302 0.000000
209.557312 -146.074036 -49.298302 0.000000
223.040588 -146.074036 -49.298302 0.000000
236.523926 -146.074036 -49.298302 0.000000
250.007202 -146.074036 -49.298302 0.000000
263.490540 -146.074036 -49.298302 0.000000
276.973816 -146.074036 -49.298302 0.000000
290.457092 -146.074036 -49.298302 0.000000
303.940430 -146.074036 -49.298302 0.000000
317.423706 -146.074036 -49.298302 0.000000
330.907043 -146.074036 -49.298302 0.000000
344.390320 -146.074036 -49.298302 0.000000
-343.257996 -159.557312 -49.298302 0.000000
-329.774689 -159.557312 -49.298302 0.000000
-316.291382 -159.557312 -49.298302 0.000000
-302.808105 -159.557312 -49.298302 0.000000
-289.324799 -159.557312 -49.298302 0.000000
-275.841492 -159.557312 -49.298302 0.000000
-262.358185 -159.557312 -49.298302 0.000000
-248.874893 -159.557312 -49.298302 0.000000
-235.391602 -159.557312 -49.298302 0.000000
-221.908295 -159.557312 -49.298302 0.000000
-208.424988 -159.557312 -49.298302 0.000000
-194.941696 -159.557312 -49.298302 0.000000
-181.458389 -159.557312 -49.298302 0.000000
-167.975098 -159.557312 -49.298302 0.000000
-154.491791 -159.557312 -49.298302 0.000000
-141.008499 -159.557312 -49.298302 0.000000
-127.525192 -159.557312 -49.298302 0.000000
-114.041885 -159.557312 -49.298302 0.000000
-100.558594 -159.557312 -49.298302 0.000000
-87.075287 -159.557312 -49.298302 0.000000
-73.591980 -159.557312 -49.298302 0.000000
-60.108704 -159.557312 -49.298302 0.000000
-46.625397 -159.557312 -49.298302 0.000000
-33.142090 -159.557312 -49.298302 0.000000
-19.658783 -159.557312 -49.298302 0.000000
-6.175476 -159.557312 -49.298302 0.000000
7.307800 -159.557312 -49.298302 0.000000
20.791107 -159.557312 -49.298302 0.000000
34.274414 -159.557312 -49.298302 0.000000
47.757721 -159.557312 -49.298302 0.000000
61.240997 -159.557312 -49.298302 0.000000
74.724304 -159.557312 -49.298302 0.000000
88.207611 -159.557312 -49.298302 0.000000
101.690918 -159.557312 -49.298302 0.000000
115.174225 -159.557312 -49.298302 0.000000
128.657501 -159.557312 -49.298302 0.000000
142.140808 -159.557312 -49.298302 0.000000
155.624115 -159.557312 -49.298302 0.000000
169.107422 -159.557312 -49.298302 0.000000
182.590698 -159.557312 -49.298302 0.000000
196.074036 -159.557312 -49.298302 0.000000
209.557312 -159.557312 -49.298302 0.000000
223.040588 -159.557312 -49.298302 0.000000
236.523926 -159.557312 -49.298302 0.000000
250.007202 -159.557312 -49.298302 0.000000
263.490540 -159.557312 -49.298302 0.000000
276.973816 -159.557312 -49.298302 0.000000
290.457092 -159.557312 -49.298302 0.000000
303.940430 -159.557312 -49.298302 0.000000
317.423706 -159.557312 -49.298302 0.000000
330.907043 -159.557312 -49.298302 0.000000
344.390320 -159.557312 -49.298302 0.000000
-343.257996 -173.040588 -49.298302 0.000000
-329.774689 -173.040588 -49.298302 0.000000
-316.291382 -173.040588 -49.298302 0.000000
-302.808105 -173.040588 -49.298302 0.000000
-289.324799 -173.040588 -49.298302 0.000000
-275.841492 -173.040588 -49.298302 0.000000
-262.358185 -173.040588 -49.298302 0.000000
-248.874893 -173.040588 -49.298302 0.000000
-235.391602 -173.040588 -49.298302 0.000000
-221.908295 -173.040588 -49.298302 0.000000
-208.424988 -173.040588 -49.298302 0.000000
-194.941696 -173.040588 -49.298302 0.000000
-181.458389 -173.040588 -49.298302 0.000000
-167.975098 -173.040588 -49.298302 0.000000
-154.491791 -173.040588 -49.298302 0.000000
-141.008499 -173.040588 -49.298302 0.000000
-127.525192 -173.040588 -49.298302 0.000000
-114.041885 -173.040588 -49.298302 0.000000
-100.558594 -173.040588 -49.298302 0.000000
-87.075287 -173.040588 -49.298302 0.000000
-73.591980 -173.040588 -49.298302 0.000000
-60.108704 -173.040588 -49.298302 0.000000
-46.625397 -173.040588 -49.298302 0.000000
-33.142090 -173.040588 -49.298302 0.000000
-19.658783 -173.040588 -49.298302 0.000000
-6.175476 -173.040588 -49.298302 0.000000
7.307800 -173.040588 -49.298302 0.000000
20.791107 -173.040588 -49.298302 0.000000
34.274414 -173.040588 -49.298302 0.000000
47.757721 -173.040588 -49.298302 0.000000
61.240997 -173.040588 -49.298302 0.000000
74.724304 -173.040588 -49.298302 0.000000
88.207611 -173.040588 -49.298302 0.000000
101.690918 -173.040588 -49.298302 0.000000
115.174225 -173.040588 -49.298302 0.000000
128.657501 -173.040588 -49.298302 0.000000
142.140808 -173.040588 -49.298302 0.000000
155.624115 -173.040588 -49.298302 0.000000
169.107422 -173.040588 -49.298302 0.000000
182.590698 -173.040588 -49.298302 0.000000
196.074036 -173.040588 -49.298302 0.000000
209.557312 -173.040588 -49.298302 0.000000
223.040588 -173.040588 -49.298302 0.000000
236.523926 -173.040588 -49.298302 0.000000
250.007202 -173.040588 -49.298302 0.000000
263.490540 -173.040588 -49.298302 0.000000
276.973816 -173.040588 -49.298302 0.000000
290.457092 -173.040588 -49.298302 0.000000
303.940430 -173.040588 -49.298302 0.000000
317.423706 -173.040588 -49.298302 0.000000
330.907043 -173.040588 -49.298302 0.000000
344.390320 -173.040588 -49.298302 0.000000
-343.257996 -186.523926 -49.298302 0.000000
-329.774689 -186.523926 -49.298302 0.000000
-316.291382 -186.523926 -49.298302 0.000000
-302.808105 -186.523926 -49.298302 0.000000
-289.324799 -186.523926 -49.298302 0.000000
-275.841492 -186.523926 -49.298302 0.000000
-262.358185 -186.523926 -49.298302 0.000000
-248.874893 -186.523926 -49.298302 0.000000
-235.391602 -186.523926 -49.298302 0.000000
-221.908295 -186.523926 -49.298302 0.000000
-208.424988 -186.523926 -49.298302 0.000000
-194.941696 -186.523926 -49.298302 0.000000
-181.458389 -186.523926 -49.298302 0.000000
-167.975098 -186.523926 -49.298302 0.000000
-154.491791 -186.523926 -49.298302 0.000000
-141.008499 -186.523926 -49.298302 0.000000
-127.525192 -186.523926 -49.298302 0.000000
-114.041885 -186.523926 -49.298302 0.000000
-100.558594 -186.523926 -49.298302 0.000000
-87.075287 -186.523926 -49.298302 0.000000
-73.591980 -186.523926 -49.298302 0.000000
-60.108704 -186.523926 -49.298302 0.000000
-46.625397 -186.523926 -49.298302 0.000000
-33.142090 -186.523926 -49.298302 0.000000
-19.658783 -186.523926 -49.298302 0.000000
-6.175476 -186.523926 -49.298302 0.000000
7.307800 -186.523926 -49.298302 0.000000
20.791107 -186.523926 -49.298302 0.000000
34.274414 -186.523926 -49.298302 0.000000
47.757721 -186.523926 -49.298302 0.000000
61.240997 -186.523926 -49.298302 0.000000
74.724304 -186.523926 -49.298302 0.000000
88.207611 -186.523926 -49.298302 0.000000
101.690918 -186.523926 -49.298302 0.000000
115.174225 -186.523926 -49.298302 0.000000
128.657501 -186.523926 -49.298302 0.000000
142.140808 -186.523926 -49.298302 0.000000
155.624115 -186.523926 -49.298302 0.000000
169.107422 -186.523926 -49.298302 0.000000
182.590698 -186.523926 -49.298302 0.000000
196.074036 -186.523926 -49.298302 0.000000
209.557312 -186.523926 -49.298302 0.000000
223.040588 -186.523926 -49.298302 0.000000
236.523926 -186.523926 -49.298302 0.000000
250.007202 -186.523926 -49.298302 0.000000
263.490540 -186.523926 -49.298302 0.000000
276.973816 -186.523926 -49.298302 0.000000
290.457092 -186.523926 -49.298302 0.000000
303.940430 -186.523926 -49.298302 0.000000
317.423706 -186.523926 -49.298302 0.000000
330.907043 -186.523926 -49.298302 0.000000
344.390320 -186.523926 -49.298302 0.000000
-343.257996 -200.007202 -49.298302 0.000000
-329.774689 -200.007202 -49.298302 0.000000
-316.291382 -200.007202 -49.298302 0.000000
-302.808105 -200.007202 -49.298302 0.000000
-289.324799 -200.007202 -49.298302 0.000000
-275.841492 -200.007202 -49.298302 0.000000
-262.358185 -200.007202 -49.298302 0.000000
-248.874893 -200.007202 -49.298302 0.000000
-235.391602 -200.007202 -49.298302 0.000000
-221.908295 -200.007202 -49.298302 0.000000
-208.424988 -200.007202 -49.298302 0.000000
-194.941696 -200.007202 -49.298302 0.000000
-181.458389 -200.007202 -49.298302 0.000000
-167.975098 -200.007202 -49.298302 0.000000
-154.491791 -200.007202 -49.298302 0.000000
-141.008499 -200.007202 -49.298302 0.000000
-127.525192 -200.007202 -49.298302 0.000000
-114.041885 -200.007202 -49.298302 0.000000
-100.558594 -200.007202 -49.298302 0.000000
-87.075287 -200.007202 -49.298302 0.000000
-73.591980 -200.007202 -49.298302 0.000000
-60.108704 -200.007202 -49.298302 0.000000
-46.625397 -200.007202 -49.298302 0.000000
-33.142090 -200.007202 -49.298302 0.000000
-19.658783 -200.007202 -49.298302 0.000000
-6.175476 -200.007202 -49.298302 0.000000
7.307800 -200.007202 -49.298302 0.000000
20.791107 -200.007202 -49.298302 0.000000
34.274414 -200.007202 -49.298302 0.000000
47.757721 -200.007202 -49.298302 0.000000
61.240997 -200.007202 -49.298302 0.000000
74.724304 -200.007202 -49.298302 0.000000
88.207611 -200.007202 -49.298302 0.000000
101.690918 -200.007202 -49.298302 0.000000
115.174225 -200.007202 -49.298302 0.000000
128.657501 -200.007202 -49.298302 0.000000
142.140808 -200.007202 -49.298302 0.000000
155.624115 -200.007202 -49.298302 0.000000
169.107422 -200.007202 -49.298302 0.000000
182.590698 -200.007202 -49.298302 0.000000
196.074036 -200.007202 -49.298302 0.000000
209.557312 -200.007202 -49.298302 0.000000
223.040588 -200.007202 -49.298302 0.000000
236.523926 -200.007202 -49.298302 0.000000
250.007202 -200.007202 -49.298302 0.000000
263.490540 -200.007202 -49.298302 0.000000
276.973816 -200.007202 -49.298302 0.000000
290.457092 -200.007202 -49.298302 0.000000
303.940430 -200.007202 -49.298302 0.000000
317.423706 -200.007202 -49.298302 0.000000
330.907043 -200.007202 -49.298302 0.000000
344.390320 -200.007202 -49.298302 0.000000
-343.257996 393.257996 -35.815002 0.000000
-329.774689 393.257996 -35.815002 0.000000
-316.291382 393.257996 -35.815002 0.000000
-302.808105 393.257996 -35.815002 0.000000
-289.324799 393.257996 -35.815002 0.000000
-275.841492 393.257996 -35.815002 0.000000
-262.358185 393.257996 -35.815002 0.000000
-248.874893 393.257996 -35.815002 0.000000
-235.391602 393.257996 -35.815002 0.000000
-221.908295 393.257996 -35.815002 0.000000
-208.424988 393.257996 -35.815002 0.000000
-194.941696 393.257996 -35.815002 0.000000
-181.458389 393.257996 -35.815002 0.000000
-167.975098 393.257996 -35.815002 0.000000
-154.491791 393.257996 -35.815002 0.000000
-141.008499 393.257996 -35.815002 0.000000
-127.525192 393.257996 -35.815002 0.000000
-114.041885 393.257996 -35.815002 0.000000
-100.558594 393.257996 -35.815002 0.000000
-87.075287 393.257996 -35.815002 0.000000
-73.591980 393.257996 -35.815002 0.000000
-60.108704 393.257996 -35.815002 0.000000
-46.625397 393.257996 -35.815002 0.000000
-33.142090 393.257996 -35.815002 0.000000
-19.658783 393.257996 -35.815002 0.000000
-6.175476 393.257996 -35.815002 0.000000
7.307800 393.257996 -35.815002 0.000000
20.791107 393.257996 -35.815002 0.000000
34.274414 393.257996 -35.815002 0.000000
47.757721 393.257996 -35.815002 0.000000
61.240997 393.257996 -35.815002 0.000000
74.724304 393.257996 -35.815002 0.000000
88.207611 393.257996 -35.815002 0.000000
101.690918 393.257996 -35.815002 0.000000
115.174225 393.257996 -35.815002 0.000000
128.657501 393.257996 -35.815002 0.000000
142.140808 393.257996 -35.815002 0.000000
155.624115 393.257996 -35.815002 0.000000
169.107422 393.257996 -35.815002 0.000000
182.590698 393.257996 -35.815002 0.000000
196.074036 393.257996 -35.815002 0.000000
209.557312 393.257996 -35.815002 0.000000
223.040588 393.257996 -35.815002 0.000000
236.523926 393.257996 -35.815002 0.000000
250.007202 393.257996 -35.815002 0.000000
263.490540 393.257996 -35.815002 0.000000
276.973816 393.257996 -35.815002 0.000000
290.457092 393.257996 -35.815002 0.000000
303.940430 393.257996 -35.815002 0.000000
317.423706 393.257996 -35.815002 0.000000
330.907043 393.257996 -35.815002 0.000000
344.390320 393.257996 -35.815002 0.000000
-343.257996 379.774689 -35.815002 0.000000
-329.774689 379.774689 -35.815002 0.000000
-316.291382 379.774689 -35.815002 0.000000
-302.808105 379.774689 -35.815002 0.000000
-289.324799 379.774689 -35.815002 0.000000
-275.841492 379.774689 -35.815002 0.000000
-262.358185 379.774689 -35.815002 0.000000
-248.874893 379.774689 -35.815002 0.000000
-235.391602 379.774689 -35.815002 0.000000
-221.908295 379.774689 -35.815002 0.000000
-208.424988 379.774689 -35.815002 0.000000
-194.941696 379.774689 -35.815002 0.000000
-181.458389 379.774689 -35.815002 0.000000
-167.975098 379.774689 -35.815002 0.000000
-154.491791 379.774689 -35.815002 0.000000
-141.008499 379.774689 -35.815002 0.000000
-127.525192 379.774689 -35.815002 0.000000
-114.041885 379.774689 -35.815002 0.000000
-100.558594 379.774689 -35.815002 0.000000
-87.075287 379.774689 -35.815002 0.000000
-73.591980 379.774689 -35.815002 0.000000
-60.108704 379.774689 -35.815002 0.000000
-46.625397 379.774689 -35.815002 0.000000
-33.142090 379.774689 -35.815002 0.000000
-19.658783 379.774689 -35.815002 0.000000
-6.175476 379.774689 -35.815002 0.000000
7.307800 379.774689 -35.815002 0.000000
20.791107 379.774689 -35.815002 0.000000
34.274414 379.774689 -35.815002 0.000000
47.757721 379.774689 -35.815002 0.000000
61.240997 379.774689 -35.815002 0.000000
74.724304 379.774689 -35.815002 0.000000
88.207611 379.774689 -35.815002 0.000000
101.690918 379.774689 -35.815002 0.000000
115.174225 379.774689 -35.815002 0.000000
128.657501 379.774689 -35.815002 0.000000
142.140808 379.774689 -35.815002 0.000000
155.624115 379.774689 -35.815002 0.000000
169.107422 379.774689 -35.815002 0.000000
182.590698 379.774689 -35.815002 0.000000
196.074036 379.774689 -35.815002 0.000000
209.557312 379.774689 -35.815002 0.000000
223.040588 379.774689 -35.815002 0.000000
236.523926 379.774689 -35.815002 0.000000
250.007202 379.774689 -35.815002 0.000000
263.490540 379.774689 -35.815002 0.000000
276.973816 379.774689 -35.815002 0.000000
290.457092 379.774689 -35.815002 0.000000
303.940430 379.774689 -35.815002 0.000000
317.423706 379.774689 -35.815002 0.000000
330.907043 379.774689 -35.815002 0.000000
344.390320 379.774689 -35.815002 0.000000
-343.257996 366.291382 -35.815002 0.000000
-329.774689 366.291382 -35.815002 0.000000
-316.291382 366.291382 -35.815002 0.000000
-302.808105 366.291382 -35.815002 0.000000
-289.324799 366.291382 -35.815002 0.000000
-275.841492 366.291382 -35.815002 0.000000
-262.358185 366.291382 -35.815002 0.000000
-248.874893 366.291382 -35.815002 0.000000
-235.391602 366.291382 -35.815002 0.000000
-221.908295 366.291382 -35.815002 0.000000
-208.424988 366.291382 -35.815002 0.000000
-194.941696 366.291382 -35.815002 0.000000
-181.458389 366.291382 -35.815002 0.000000
-167.975098 366.291382 -35.815002 0.000000
-154.491791 366.291382 -35.815002 0.000000
-141.008499 366.291382 -35.815002 0.000000
-127.525192 366.291382 -35.815002 0.000000
-114.041885 366.291382 -35.815002 0.000000
-100.558594 366.291382 -35.815002 0.000000
-87.075287 366.291382 -35.815002 0.000000
-73.591980 366.291382 -35.815002 0.000000
-60.108704 366.291382 -35.815002 0.000000
-46.625397 366.291382 -35.815002 0.000000
-33.142090 366.291382 -35.815002 0.000000
-19.658783 366.291382 -35.815002 0.000000
-6.175476 366.291382 -35.815002 -0.683412
7.307800 366.291382 -35.815002 -0.507084
20.791107 366.291382 -35.815002 -0.512143
34.274414 366.291382 -35.815002 -0.410955
47.757721 366.291382 -35.815002 -0.385432
61.240997 366.291382 -35.815002 -0.225687
74.724304 366.291382 -35.815002 -0.257295
88.207611 366.291382 -35.815002 -0.369498
101.690918 366.291382 -35.815002 -0.229732
115.174225 366.291382 -35.815002 -0.610316
128.657501 366.291382 -35.815002 0.000000
142.140808 366.291382 -35.815002 0.000000
155.624115 366.291382 -35.815002 0.000000
169.107422 366.291382 -35.815002 0.000000
182.590698 366.291382 -35.815002 0.000000
196.074036 366.291382 -35.815002 0.000000
209.557312 366.291382 -35.815002 0.000000
223.040588 366.291382 -35.815002 0.000000
236.523926 366.291382 -35.815002 0.000000
250.007202 366.291382 -35.815002 0.000000
263.490540 366.291382 -35.815002 0.000000
276.973816 366.291382 -35.815002 0.000000
290.457092 366.291382 -35.815002 0.000000
303.940430 366.291382 -35.815002 0.000000
317.423706 366.291382 -35.815002 0.000000
330.907043 366.291382 -35.815002 0.000000
344.390320 366.291382 -35.815002 0.000000
-343.257996 352.808105 -35.815002 0.000000
-329.774689 352.808105 -35.815002 0.000000
-316.291382 352.808105 -35.815002 0.000000
-302.808105 352.808105 -35.815002 0.000000
-289.324799 352.808105 -35.815002 0.000000
-275.841492 352.808105 -35.815002 0.000000
-262.358185 352.808105 -35.815002 0.000000
-248.874893 352.808105 -35.815002 0.000000
-235.391602 352.808105 -35.815002 0.000000
-221.908295 352.808105 -35.815002 -0.820150
-208.424988 352.808105 -35.815002 -1.165240
-194.941696 352.808105 -35.815002 -1.391497
-181.458389 352.808105 -35.815002 -2.173660
-167.975098 352.808105 -35.815002 -2.386759
-154.491791 352.808105 -35.815002 -2.734207
-141.008499 352.808105 -35.815002 -2.964739
-127.525192 352.808105 -35.815002 -3.810308
-114.041885 352.808105 -35.815002 -3.974147
-100.558594 352.808105 -35.815002 -4.144392
-87.075287 352.808105 -35.815002 -4.481219
-73.591980 352.808105 -35.815002 -3.996391
-60.108704 352.808105 -35.815002 -3.760317
-46.625397 352.808105 -35.815002 -2.431319
-33.142090 352.808105 -35.815002 -1.334090
-19.658783 352.808105 -35.815002 -0.760200
-6.175476 352.808105 -35.815002 -0.605853
7.307800 352.808105 -35.815002 -0.527725
20.791107 352.808105 -35.815002 -0.491678
34.274414 352.808105 -35.815002 -0.439937
47.757721 352.808105 -35.815002 -0.236880
61.240997 352.808105 -35.815002 -0.141217
74.724304 352.808105 -35.815002 -0.161847
88.207611 352.808105 -35.815002 -0.330619
101.690918 352.808105 -35.815002 -0.455341
115.174225 352.808105 -35.815002 -0.597793
128.657501 352.808105 -35.815002 -1.119795
142.140808 352.808105 -35.815002 -1.441674
155.624115 352.808105 -35.815002 -1.486982
169.107422 352.808105 -35.815002 -1.388735
182.590698 352.808105 -35.815002 -1.647092
196.074036 352.808105 -35.815002 -1.106439
209.557312 352.808105 -35.815002 0.000000
223.040588 352.808105 -35.815002 0.000000
236.523926 352.808105 -35.815002 0.000000
250.007202 352.808105 -35.815002 0.000000
263.490540 352.808105 -35.815002 0.000000
276.973816 352.808105 -35.815002 0.000000
290.457092 352.808105 -35.815002 0.000000
303.940430 352.808105 -35.815002 0.000000
317.423706 352.808105 -35.815002 0.000000
330.907043 352.808105 -35.815002 0.000000
344.390320 352.808105 -35.815002 0.000000
-343.257996 339.324799 -35.815002 0.000000
-329.774689 339.324799 -35.815002 0.000000
-316.291382 339.324799 -35.815002 0.000000
-302.808105 339.324799 -35.815002 0.000000
-289.324799 339.324799 -35.815002 0.000000
-275.841492 339.324799 -35.815002 -0.091467
-262.358185 339.324799 -35.815002 -0.283475
-248.874893 339.324799 -35.815002 -0.207261
-235.391602 339.324799 -35.815002 -0.842382
-221.908295 339.324799 -35.815002 -0.939927
-208.424988 339.324799 -35.815002 -1.148082
-194.941696 339.324799 -35.815002 -1.503385
-181.458389 339.324799 -35.815002 -1.955030
-167.975098 339.324799 -35.815002 -2.061493
-154.491791 339.324799 -35.815002 -2.265901
-141.008499 339.324799 -35.815002 -2.706853
-127.525192 339.324799 -35.815002 -3.125486
-114.041885 339.324799 -35.815002 -3.533947
-100.558594 339.324799 -35.815002 -4.069499
-87.075287 339.324799 -35.815002 -3.874597
-73.591980 339.324799 -35.815002 -3.919968
-60.108704 339.324799 -35.815002 -3.762748
-46.625397 339.324799 -35.815002 -2.890348
-33.142090 339.324799 -35.815002 -1.996949
-19.658783 339.324799 -35.815002 -1.056006
-6.175476 339.324799 -35.815002 -0.636923
7.307800 339.324799 -35.815002 -0.692117
20.791107 339.324799 -35.815002 -0.460580
34.274414 339.324799 -35.815002 -0.447185
47.757721 339.324799 -35.815002 -0.348641
61.240997 339.324799 -35.815002 -0.211961
74.724304 339.324799 -35.815002 -0.285518
88.207611 339.324799 -35.815002 -0.671572
101.690918 339.324799 -35.815002 -1.175680
115.174225 339.324799 -35.815002 -1.340361
128.657501 339.324799 -35.815002 -1.645765
142.140808 339.324799 -35.815002 -1.658178
155.624115 339.324799 -35.815002 -1.496269
169.107422 339.324799 -35.815002 -1.162258
182.590698 339.324799 -35.815002 -1.565670
196.074036 339.324799 -35.815002 -1.073152
209.557312 339.324799 -35.815002 -1.052478
223.040588 339.324799 -35.815002 -1.078172
236.523926 339.324799 -35.815002 -1.519190
250.007202 339.324799 -35.815002 -1.198140
263.490540 339.324799 -35.815002 -1.347057
276.973816 339.324799 -35.815002 0.000000
290.457092 339.324799 -35.815002 0.000000
303.940430 339.324799 -35.815002 0.000000
317.423706 339.324799 -35.815002 0.000000
330.907043 339.324799 -35.815002 0.000000
344.390320 339.324799 -35.815002 0.000000
-343.257996 325.841492 -35.815002 0.000000
-329.774689 325.841492 -35.815002 0.000000
-316.291382 325.841492 -35.815002 0.000000
-302.808105 325.841492 -35.815002 0.000000
-289.324799 325.841492 -35.815002 0.234995
-275.841492 325.841492 -35.815002 0.145099
-262.358185 325.841492 -35.815002 0.044145
-248.874893 325.841492 -35.815002 -0.211261
-235.391602 325.841492 -35.815002 -0.488278
-221.908295 325.841492 -35.815002 -0.730594
-208.424988 325.841492 -35.815002 -1.067840
-194.941696 325.841492 -35.815002 -1.349141
-181.458389 325.841492 -35.815002 -1.916065
-167.975098 325.841492 -35.815002 -1.881445
-154.491791 325.841492 -35.815002 -2.133756
-141.008499 325.841492 -35.815002 -2.432297
-127.525192 325.841492 -35.815002 -2.939926
-114.041885 325.841492 -35.815002 -3.194504
-100.558594 325.841492 -35.815002 -3.502184
-87.075287 325.841492 -35.815002 -3.534279
-73.591980 325.841492 -35.815002 -3.635416
-60.108704 325.841492 -35.815002 -3.137832
-46.625397 325.841492 -35.815002 -2.812149
-33.142090 325.841492 -35.815002 -2.149261
-19.658783 325.841492 -35.815002 -1.236426
-6.175476 325.841492 -35.815002 -1.057784
7.307800 325.841492 -35.815002 -0.933865
20.791107 325.841492 -35.815002 -0.686371
34.274414 325.841492 -35.815002 -0.520598
47.757721 325.841492 -35.815002 -0.461221
61.240997 325.841492 -35.815002 -0.349409
74.724304 325.841492 -35.815002 -0.600586
88.207611 325.841492 -35.815002 -1.026776
101.690918 325.841492 -35.815002 -2.045978
115.174225 325.841492 -35.815002 -2.301958
128.657501 325.841492 -35.815002 -2.519568
142.140808 325.841492 -35.815002 -2.409554
155.624115 325.841492 -35.815002 -1.936067
169.107422 325.841492 -35.815002 -1.675960
182.590698 325.841492 -35.815002 -1.644870
196.074036 325.841492 -35.815002 -1.223892
209.557312 325.841492 -35.815002 -1.119121
223.040588 325.841492 -35.815002 -0.946038
236.523926 325.841492 -35.815002 -0.930293
250.007202 325.841492 -35.815002 -0.717500
263.490540 325.841492 -35.815002 -0.704838
276.973816 325.841492 -35.815002 -0.867852
290.457092 325.841492 -35.815002 -1.563345
303.940430 325.841492 -35.815002 0.000000
317.423706 325.841492 -35.815002 0.000000
330.907043 325.841492 -35.815002 0.000000
344.390320 325.841492 -35.815002 0.000000
-343.257996 312.358185 -35.815002 0.000000
-329.774689 312.358185 -35.815002 0.000000
-316.291382 312.358185 -35.815002 0.000000
-302.808105 312.358185 -35.815002 -0.098951
-289.324799 312.358185 -35.815002 -0.092537
-275.841492 312.358185 -35.815002 -0.074302
-262.358185 312.358185 -35.815002 -0.146516
-248.874893 312.358185 -35.815002 -0.339966
-235.391602 312.358185 -35.815002 -0.544840
-221.908295 312.358185 -35.815002 -0.542715
-208.424988 312.358185 -35.815002 -0.842040
-194.941696 312.358185 -35.815002 -1.215602
-181.458389 312.358185 -35.815002 -1.763216
-167.975098 312.358185 -35.815002 -1.760782
-154.491791 312.358185 -35.815002 -2.046299
-141.008499 312.358185 -35.815002 -2.510409
-127.525192 312.358185 -35.815002 -2.669746
-114.041885 312.358185 -35.815002 -2.757450
-100.558594 312.358185 -35.815002 -2.683727
-87.075287 312.358185 -35.815002 -3.006998
-73.591980 312.358185 -35.815002 -3.120790
-60.108704 312.358185 -35.815002 -2.932562
-46.625397 312.358185 -35.815002 -2.713601
-33.142090 312.358185 -35.815002 -2.107254
-19.658783 312.358185 -35.815002 -1.553150
-6.175476 312.358185 -35.815002 -1.412519
7.307800 312.358185 -35.815002 -1.028317
20.791107 312.358185 -35.815002 -0.760798
34.274414 312.358185 -35.815002 -0.704326
47.757721 312.358185 -35.815002 -0.655395
61.240997 312.358185 -35.815002 -0.632062
74.724304 312.358185 -35.815002 -0.992787
88.207611 312.358185 -35.815002 -1.798031
101.690918 312.358185 -35.815002 -2.432165
115.174225 312.358185 -35.815002 -3.048169
128.657501 312.358185 -35.815002 -2.745053
142.140808 312.358185 -35.815002 -2.604775
155.624115 312.358185 -35.815002 -2.259269
169.107422 312.358185 -35.815002 -1.743114
182.590698 312.358185 -35.815002 -1.679529
196.074036 312.358185 -35.815002 -1.435203
209.557312 312.358185 -35.815002 -1.051174
223.040588 312.358185 -35.815002 -0.788617
236.523926 312.358185 -35.815002 -0.694087
250.007202 312.358185 -35.815002 -0.451839
263.490540 312.358185 -35.815002 -0.232616
276.973816 312.358185 -35.815002 -0.603518
290.457092 312.358185 -35.815002 -0.660447
303.940430 312.358185 -35.815002 0.000000
317.423706 312.358185 -35.815002 0.000000
330.907043 312.358185 -35.815002 0.000000
344.390320 312.358185 -35.815002 0.000000
-343.257996 298.874878 -35.815002 0.000000
-329.774689 298.874878 -35.815002 0.000000
-316.291382 298.874878 -35.815002 -0.127354
-302.808105 298.874878 -35.815002 -0.088351
-289.324799 298.874878 -35.815002 -0.064928
-275.841492 298.874878 -35.815002 -0.090948
-262.358185 298.874878 -35.815002 -0.046536
-248.874893 298.874878 -35.815002 -0.184160
-235.391602 298.874878 -35.815002 -0.248680
-221.908295 298.874878 -35.815002 -0.703306
-208.424988 298.874878 -35.815002 -0.920058
-194.941696 298.874878 -35.815002 -0.958629
-181.458389 298.874878 -35.815002 -1.376779
-167.975098 298.874878 -35.815002 -1.550743
-154.491791 298.874878 -35.815002 -1.851160
-141.008499 298.874878 -35.815002 -2.236057
-127.525192 298.874878 -35.815002 -2.162424
-114.041885 298.874878 -35.815002 -1.891773
-100.558594 298.874878 -35.815002 -1.879236
-87.075287 298.874878 -35.815002 -2.135398
-73.591980 298.874878 -35.815002 -1.991552
-60.108704 298.874878 -35.815002 -2.371353
-46.625397 298.874878 -35.815002 -2.583480
-33.142090 298.874878 -35.815002 -2.123730
-19.658783 298.874878 -35.815002 -2.053003
-6.175476 298.874878 -35.815002 -1.714106
7.307800 298.874878 -35.815002 -1.126619
20.791107 298.874878 -35.815002 -1.079632
34.274414 298.874878 -35.815002 -0.932419
47.757721 298.874878 -35.815002 -0.677745
61.240997 298.874878 -35.815002 -0.741401
74.724304 298.874878 -35.815002 -1.590302
88.207611 298.874878 -35.815002 -2.675681
101.690918 298.874878 -35.815002 -3.287509
115.174225 298.874878 -35.815002 -3.475204
128.657501 298.874878 -35.815002 -3.301416
142.140808 298.874878 -35.815002 -2.836764
155.624115 298.874878 -35.815002 -2.181977
169.107422 298.874878 -35.815002 -1.877082
182.590698 298.874878 -35.815002 -1.795297
196.074036 298.874878 -35.815002 -1.312542
209.557312 298.874878 -35.815002 -1.077968
223.040588 298.874878 -35.815002 -0.931416
236.523926 298.874878 -35.815002 -0.499652
250.007202 298.874878 -35.815002 -0.176188
263.490540 298.874878 -35.815002 0.070453
276.973816 298.874878 -35.815002 -0.165374
290.457092 298.874878 -35.815002 -0.137856
303.940430 298.874878 -35.815002 -0.367228
317.423706 298.874878 -35.815002 0.000000
330.907043 298.874878 -35.815002 0.000000
344.390320 298.874878 -35.815002 0.000000
-343.257996 285.391602 -35.815002 0.000000
-329.774689 285.391602 -35.815002 0.000000
-316.291382 285.391602 -35.815002 -0.063951
-302.808105 285.391602 -35.815002 -0.021076
-289.324799 285.391602 -35.815002 -0.011619
-275.841492 285.391602 -35.815002 -0.081757
-262.358185 285.391602 -35.815002 -0.010686
-248.874893 285.391602 -35.815002 -0.141642
-235.391602 285.391602 -35.815002 -0.484967
-221.908295 285.391602 -35.815002 -0.736359
-208.424988 285.391602 -35.815002 -1.111346
-194.941696 285.391602 -35.815002 -1.089297
-181.458389 285.391602 -35.815002 -1.483473
-167.975098 285.391602 -35.815002 -1.534641
-154.491791 285.391602 -35.815002 -1.736148
-141.008499 285.391602 -35.815002 -1.965528
-127.525192 285.391602 -35.815002 -1.721268
-114.041885 285.391602 -35.815002 -1.550955
-100.558594 285.391602 -35.815002 -1.322830
-87.075287 285.391602 -35.815002 -1.520480
-73.591980 285.391602 -35.815002 -1.381112
-60.108704 285.391602 -35.815002 -1.584467
-46.625397 285.391602 -35.815002 -1.908382
-33.142090 285.391602 -35.815002 -1.971563
-19.658783 285.391602 -35.815002 -1.979903
-6.175476 285.391602 -35.815002 -1.592588
7.307800 285.391602 -35.815002 -1.397061
20.791107 285.391602 -35.815002 -1.257450
34.274414 285.391602 -35.815002 -1.224450
47.757721 285.391602 -35.815002 -1.099993
61.240997 285.391602 -35.815002 -1.099105
74.724304 285.391602 -35.815002 -2.198361
88.207611 285.391602 -35.815002 -3.188401
101.690918 285.391602 -35.815002 -3.275577
115.174225 285.391602 -35.815002 -2.886117
128.657501 285.391602 -35.815002 -2.734188
142.140808 285.391602 -35.815002 -2.090276
155.624115 285.391602 -35.815002 -1.954213
169.107422 285.391602 -35.815002 -2.066533
182.590698 285.391602 -35.815002 -1.984586
196.074036 285.391602 -35.815002 -1.486932
209.557312 285.391602 -35.815002 -1.078842
223.040588 285.391602 -35.815002 -0.900455
236.523926 285.391602 -35.815002 -0.382621
250.007202 285.391602 -35.815002 -0.075044
263.490540 285.391602 -35.815002 0.140238
276.973816 285.391602 -35.815002 0.048563
290.457092 285.391602 -35.815002 -0.190388
303.940430 285.391602 -35.815002 -0.297106
317.423706 285.391602 -35.815002 0.000000
330.907043 285.391602 -35.815002 0.000000
344.390320 285.391602 -35.815002 0.000000
-343.257996 271.908295 -35.815002 0.000000
-329.774689 271.908295 -35.815002 0.000000
-316.291382 271.908295 -35.815002 -0.079764
-302.808105 271.908295 -35.815002 -0.042641
-289.324799 271.908295 -35.815002 -0.056985
-275.841492 271.908295 -35.815002 -0.064211
-262.358185 271.908295 -35.815002 -0.083561
-248.874893 271.908295 -35.815002 -0.146032
-235.391602 271.908295 -35.815002 -0.383879
-221.908295 271.908295 -35.815002 -0.595273
-208.424988 271.908295 -35.815002 -0.933447
-194.941696 271.908295 -35.815002 -1.239155
-181.458389 271.908295 -35.815002 -1.596170
-167.975098 271.908295 -35.815002 -1.460891
-154.491791 271.908295 -35.815002 -1.563369
-141.008499 271.908295 -35.815002 -1.991586
-127.525192 271.908295 -35.815002 -1.617292
-114.041885 271.908295 -35.815002 -1.667814
-100.558594 271.908295 -35.815002 -1.384906
-87.075287 271.908295 -35.815002 -0.892827
-73.591980 271.908295 -35.815002 -1.069885
-60.108704 271.908295 -35.815002 -1.153390
-46.625397 271.908295 -35.815002 -1.475183
-33.142090 271.908295 -35.815002 -1.825931
-19.658783 271.908295 -35.815002 -1.765003
-6.175476 271.908295 -35.815002 -1.701235
7.307800 271.908295 -35.815002 -1.718451
20.791107 271.908295 -35.815002 -1.600973
34.274414 271.908295 -35.815002 -1.395627
47.757721 271.908295 -35.815002 -1.496034
61.240997 271.908295 -35.815002 -1.945230
74.724304 271.908295 -35.815002 -2.510406
88.207611 271.908295 -35.815002 -2.909193
101.690918 271.908295 -35.815002 -2.796613
115.174225 271.908295 -35.815002 -2.428999
128.657501 271.908295 -35.815002 -1.856564
142.140808 271.908295 -35.815002 -1.697969
155.624115 271.908295 -35.815002 -1.723200
169.107422 271.908295 -35.815002 -1.686178
182.590698 271.908295 -35.815002 -1.708250
196.074036 271.908295 -35.815002 -1.500320
209.557312 271.908295 -35.815002 -1.040368
223.040588 271.908295 -35.815002 -0.473858
236.523926 271.908295 -35.815002 -0.190659
250.007202 271.908295 -35.815002 -0.146521
263.490540 271.908295 -35.815002 0.146929
276.973816 271.908295 -35.815002 0.060811
290.457092 271.908295 -35.815002 0.059511
303.940430 271.908295 -35.815002 0.058439
317.423706 271.908295 -35.815002 -0.224662
330.907043 271.908295 -35.815002 0.000000
344.390320 271.908295 -35.815002 0.000000
-343.257996 258.424988 -35.815002 0.000000
-329.774689 258.424988 -35.815002 0.000000
-316.291382 258.424988 -35.815002 -0.013979
-302.808105 258.424988 -35.815002 -0.050434
-289.324799 258.424988 -35.815002 -0.051725
-275.841492 258.424988 -35.815002 -0.036757
-262.358185 258.424988 -35.815002 -0.096080
-248.874893 258.424988 -35.815002 -0.166313
-235.391602 258.424988 -35.815002 -0.297547
-221.908295 258.424988 -35.815002 -0.614526
-208.424988 258.424988 -35.815002 -0.816659
-194.941696 258.424988 -35.815002 -1.065696
-181.458389 258.424988 -35.815002 -1.226707
-167.975098 258.424988 -35.815002 -1.041116
-154.491791 258.424988 -35.815002 -1.127046
-141.008499 258.424988 -35.815002 -1.410370
-127.525192 258.424988 -35.815002 -1.418920
-114.041885 258.424988 -35.815002 -1.242270
-100.558594 258.424988 -35.815002 -1.227803
-87.075287 258.424988 -35.815002 -0.651449
-73.591980 258.424988 -35.815002 -0.912101
-60.108704 258.424988 -35.815002 -0.878792
-46.625397 258.424988 -35.815002 -1.148221
-33.142090 258.424988 -35.815002 -1.604379
-19.658783 258.424988 -35.815002 -1.791558
-6.175476 258.424988 -35.815002 -1.643913
7.307800 258.424988 -35.815002 -1.579921
20.791107 258.424988 -35.815002 -1.663310
34.274414 258.424988 -35.815002 -1.755641
47.757721 258.424988 -35.815002 -1.642905
61.240997 258.424988 -35.815002 -1.955007
74.724304 258.424988 -35.815002 -2.588509
88.207611 258.424988 -35.815002 -2.221246
101.690918 258.424988 -35.815002 -2.021438
115.174225 258.424988 -35.815002 -1.639679
128.657501 258.424988 -35.815002 -1.223934
142.140808 258.424988 -35.815002 -1.195516
155.624115 258.424988 -35.815002 -1.263960
169.107422 258.424988 -35.815002 -1.342823
182.590698 258.424988 -35.815002 -1.226354
196.074036 258.424988 -35.815002 -1.257213
209.557312 258.424988 -35.815002 -1.044908
223.040588 258.424988 -35.815002 -0.522435
236.523926 258.424988 -35.815002 -0.264323
250.007202 258.424988 -35.815002 -0.113173
263.490540 258.424988 -35.815002 0.057583
276.973816 258.424988 -35.815002 0.077453
290.457092 258.424988 -35.815002 -0.012902
303.940430 258.424988 -35.815002 0.022131
317.423706 258.424988 -35.815002 0.048626
330.907043 258.424988 -35.815002 0.000000
344.390320 258.424988 -35.815002 0.000000
-343.257996 244.941696 -35.815002 0.000000
-329.774689 244.941696 -35.815002 0.000000
-316.291382 244.941696 -35.815002 -0.032374
-302.808105 244.941696 -35.815002 -0.049462
-289.324799 244.941696 -35.815002 -0.066789
-275.841492 244.941696 -35.815002 -0.035346
-262.358185 244.941696 -35.815002 -0.094400
-248.874893 244.941696 -35.815002 -0.225571
-235.391602 244.941696 -35.815002 -0.345734
-221.908295 244.941696 -35.815002 -0.559232
-208.424988 244.941696 -35.815002 -0.774121
-194.941696 244.941696 -35.815002 -0.907000
-181.458389 244.941696 -35.815002 -0.906049
-167.975098 244.941696 -35.815002 -0.781793
-154.491791 244.941696 -35.815002 -1.129221
-141.008499 244.941696 -35.815002 -1.127445
-127.525192 244.941696 -35.815002 -1.196311
-114.041885 244.941696 -35.815002 -1.044269
-100.558594 244.941696 -35.815002 -1.177738
-87.075287 244.941696 -35.815002 -0.729201
-73.591980 244.941696 -35.815002 -0.656817
-60.108704 244.941696 -35.815002 -0.665880
-46.625397 244.941696 -35.815002 -0.722203
-33.142090 244.941696 -35.815002 -1.031862
-19.658783 244.941696 -35.815002 -1.587003
-6.175476 244.941696 -35.815002 -1.885078
7.307800 244.941696 -35.815002 -1.596708
20.791107 244.941696 -35.815002 -1.664608
34.274414 244.941696 -35.815002 -1.654357
47.757721 244.941696 -35.815002 -1.889742
61.240997 244.941696 -35.815002 -2.018595
74.724304 244.941696 -35.815002 -1.852886
88.207611 244.941696 -35.815002 -1.412899
101.690918 244.941696 -35.815002 -1.354810
115.174225 244.941696 -35.815002 -1.012897
128.657501 244.941696 -35.815002 -0.696453
142.140808 244.941696 -35.815002 -0.524260
155.624115 244.941696 -35.815002 -0.773160
169.107422 244.941696 -35.815002 -0.851079
182.590698 244.941696 -35.815002 -0.840905
196.074036 244.941696 -35.815002 -1.128726
209.557312 244.941696 -35.815002 -0.983307
223.040588 244.941696 -35.815002 -0.631916
236.523926 244.941696 -35.815002 -0.426981
250.007202 244.941696 -35.815002 -0.203874
263.490540 244.941696 -35.815002 0.030221
276.973816 244.941696 -35.815002 0.097607
290.457092 244.941696 -35.815002 0.051719
303.940430 244.941696 -35.815002 0.036562
317.423706 244.941696 -35.815002 0.032641
330.907043 244.941696 -35.815002 0.000000
344.390320 244.941696 -35.815002 0.000000
-343.257996 231.458389 -35.815002 0.000000
-329.774689 231.458389 -35.815002 0.000000
-316.291382 231.458389 -35.815002 -0.010145
-302.808105 231.458389 -35.815002 -0.025436
-289.324799 231.458389 -35.815002 -0.049242
-275.841492 231.458389 -35.815002 -0.078546
-262.358185 231.458389 -35.815002 -0.105766
-248.874893 231.458389 -35.815002 -0.213699
-235.391602 231.458389 -35.815002 -0.362124
-221.908295 231.458389 -35.815002 -0.498699
-208.424988 231.458389 -35.815002 -0.709627
-194.941696 231.458389 -35.815002 -0.882110
-181.458389 231.458389 -35.815002 -1.049840
-167.975098 231.458389 -35.815002 -1.131538
-154.491791 231.458389 -35.815002 -1.073441
-141.008499 231.458389 -35.815002 -1.022557
-127.525192 231.458389 -35.815002 -1.075777
-114.041885 231.458389 -35.815002 -0.897473
-100.558594 231.458389 -35.815002 -0.758953
-87.075287 231.458389 -35.815002 -0.517841
-73.591980 231.458389 -35.815002 -0.541109
-60.108704 231.458389 -35.815002 -0.272009
-46.625397 231.458389 -35.815002 -0.467582
-33.142090 231.458389 -35.815002 -0.791453
-19.658783 231.458389 -35.815002 -1.312905
-6.175476 231.458389 -35.815002 -1.445665
7.307800 231.458389 -35.815002 -1.267725
20.791107 231.458389 -35.815002 -1.361214
34.274414 231.458389 -35.815002 -1.630626
47.757721 231.458389 -35.815002 -1.659938
61.240997 231.458389 -35.815002 -1.186849
74.724304 231.458389 -35.815002 -0.801151
88.207611 231.458389 -35.815002 -0.370085
101.690918 231.458389 -35.815002 -0.504511
115.174225 231.458389 -35.815002 -0.334020
128.657501 231.458389 -35.815002 0.043703
142.140808 231.458389 -35.815002 -0.058005
155.624115 231.458389 -35.815002 -0.371431
169.107422 231.458389 -35.815002 -0.669204
182.590698 231.458389 -35.815002 -0.982468
196.074036 231.458389 -35.815002 -1.041513
209.557312 231.458389 -35.815002 -1.045658
223.040588 231.458389 -35.815002 -0.739401
236.523926 231.458389 -35.815002 -0.399746
250.007202 231.458389 -35.815002 -0.149682
263.490540 231.458389 -35.815002 0.021334
276.973816 231.458389 -35.815002 0.059067
290.457092 231.458389 -35.815002 0.011401
303.940430 231.458389 -35.815002 -0.005422
317.423706 231.458389 -35.815002 0.030391
330.907043 231.458389 -35.815002 0.000000
344.390320 231.458389 -35.815002 0.000000
-343.257996 217.975098 -35.815002 0.000000
-329.774689 217.975098 -35.815002 0.000000
-316.291382 217.975098 -35.815002 0.034354
-302.808105 217.975098 -35.815002 -0.029636
-289.324799 217.975098 -35.815002 -0.077574
-275.841492 217.975098 -35.815002 -0.077939
-262.358185 217.975098 -35.815002 -0.131984
-248.874893 217.975098 -35.815002 -0.268295
-235.391602 217.975098 -35.815002 -0.422981
-221.908295 217.975098 -35.815002 -0.485695
-208.424988 217.975098 -35.815002 -0.577373
-194.941696 217.975098 -35.815002 -0.915769
-181.458389 217.975098 -35.815002 -0.946589
-167.975098 217.975098 -35.815002 -1.033671
-154.491791 217.975098 -35.815002 -0.949313
-141.008499 217.975098 -35.815002 -0.888443
-127.525192 217.975098 -35.815002 -0.971655
-114.041885 217.975098 -35.815002 -0.725660
-100.558594 217.975098 -35.815002 -0.388583
-87.075287 217.975098 -35.815002 -0.285047
-73.591980 217.975098 -35.815002 -0.089906
-60.108704 217.975098 -35.815002 -0.141085
-46.625397 217.975098 -35.815002 -0.375891
-33.142090 217.975098 -35.815002 -0.728109
-19.658783 217.975098 -35.815002 -0.852713
-6.175476 217.975098 -35.815002 -1.144142
7.307800 217.975098 -35.815002 -1.267509
20.791107 217.975098 -35.815002 -1.480914
34.274414 217.975098 -35.815002 -1.396843
47.757721 217.975098 -35.815002 -1.197277
61.240997 217.975098 -35.815002 -0.501615
74.724304 217.975098 -35.815002 -0.066193
88.207611 217.975098 -35.815002 0.346182
101.690918 217.975098 -35.815002 0.552336
115.174225 217.975098 -35.815002 0.583663
128.657501 217.975098 -35.815002 0.556179
142.140808 217.975098 -35.815002 0.328293
155.624115 217.975098 -35.815002 -0.095390
169.107422 217.975098 -35.815002 -0.470784
182.590698 217.975098 -35.815002 -0.760752
196.074036 217.975098 -35.815002 -0.830930
209.557312 217.975098 -35.815002 -0.802655
223.040588 217.975098 -35.815002 -0.522554
236.523926 217.975098 -35.815002 -0.268926
250.007202 217.975098 -35.815002 -0.101476
263.490540 217.975098 -35.815002 0.002919
276.973816 217.975098 -35.815002 0.047344
290.457092 217.975098 -35.815002 -0.005821
303.940430 217.975098 -35.815002 0.018648
317.423706 217.975098 -35.815002 0.008170
330.907043 217.975098 -35.815002 0.000000
344.390320 217.975098 -35.815002 0.000000
-343.257996 204.491791 -35.815002 0.000000
-329.774689 204.491791 -35.815002 0.000000
-316.291382 204.491791 -35.815002 -0.009720
-302.808105 204.491791 -35.815002 -0.013474
-289.324799 204.491791 -35.815002 -0.071728
-275.841492 204.491791 -35.815002 -0.069207
-262.358185 204.491791 -35.815002 -0.138250
-248.874893 204.491791 -35.815002 -0.236882
-235.391602 204.491791 -35.815002 -0.372813
-221.908295 204.491791 -35.815002 -0.361752
-208.424988 204.491791 -35.815002 -0.565379
-194.941696 204.491791 -35.815002 -0.762892
-181.458389 204.491791 -35.815002 -0.716363
-167.975098 204.491791 -35.815002 -0.860815
-154.491791 204.491791 -35.815002 -0.804967
-141.008499 204.491791 -35.815002 -0.717667
-127.525192 204.491791 -35.815002 -0.784080
-114.041885 204.491791 -35.815002 -0.582270
-100.558594 204.491791 -35.815002 -0.446728
-87.075287 204.491791 -35.815002 -0.076807
-73.591980 204.491791 -35.815002 0.122441
-60.108704 204.491791 -35.815002 0.020527
-46.625397 204.491791 -35.815002 -0.368997
-33.142090 204.491791 -35.815002 -0.424359
-19.658783 204.491791 -35.815002 -0.859894
-6.175476 204.491791 -35.815002 -0.524593
7.307800 204.491791 -35.815002 -0.903065
20.791107 204.491791 -35.815002 -0.965696
34.274414 204.491791 -35.815002 -0.919045
47.757721 204.491791 -35.815002 -0.654544
61.240997 204.491791 -35.815002 0.135954
74.724304 204.491791 -35.815002 0.688472
88.207611 204.491791 -35.815002 0.807469
101.690918 204.491791 -35.815002 1.107772
115.174225 204.491791 -35.815002 0.998175
128.657501 204.491791 -35.815002 0.865227
142.140808 204.491791 -35.815002 0.290115
155.624115 204.491791 -35.815002 0.195017
169.107422 204.491791 -35.815002 -0.185755
182.590698 204.491791 -35.815002 -0.472622
196.074036 204.491791 -35.815002 -0.598612
209.557312 204.491791 -35.815002 -0.643998
223.040588 204.491791 -35.815002 -0.380227
236.523926 204.491791 -35.815002 -0.208208
250.007202 204.491791 -35.815002 -0.102798
263.490540 204.491791 -35.815002 -0.010696
276.973816 204.491791 -35.815002 0.019431
290.457092 204.491791 -35.815002 0.012525
303.940430 204.491791 -35.815002 0.017794
317.423706 204.491791 -35.815002 -0.002975
330.907043 204.491791 -35.815002 0.000000
344.390320 204.491791 -35.815002 0.000000
-343.257996 191.008499 -35.815002 0.000000
-329.774689 191.008499 -35.815002 0.000000
-316.291382 191.008499 -35.815002 0.051065
-302.808105 191.008499 -35.815002 -0.014554
-289.324799 191.008499 -35.815002 -0.041760
-275.841492 191.008499 -35.815002 -0.132478
-262.358185 191.008499 -35.815002 -0.191926
-248.874893 191.008499 -35.815002 -0.333769
-235.391602 191.008499 -35.815002 -0.446429
-221.908295 191.008499 -35.815002 -0.592545
-208.424988 191.008499 -35.815002 -0.615769
-194.941696 191.008499 -35.815002 -0.673829
-181.458389 191.008499 -35.815002 -0.562767
-167.975098 191.008499 -35.815002 -0.711930
-154.491791 191.008499 -35.815002 -0.553309
-141.008499 191.008499 -35.815002 -0.720616
-127.525192 191.008499 -35.815002 -0.771762
-114.041885 191.008499 -35.815002 -0.579533
-100.558594 191.008499 -35.815002 -0.522595
-87.075287 191.008499 -35.815002 -0.240672
-73.591980 191.008499 -35.815002 0.180552
-60.108704 191.008499 -35.815002 0.198632
-46.625397 191.008499 -35.815002 0.007984
-33.142090 191.008499 -35.815002 -0.242567
-19.658783 191.008499 -35.815002 -0.684896
-6.175476 191.008499 -35.815002 -0.498774
7.307800 191.008499 -35.815002 -0.560907
20.791107 191.008499 -35.815002 -0.459600
34.274414 191.008499 -35.815002 -0.344368
47.757721 191.008499 -35.815002 -0.124374
61.240997 191.008499 -35.815002 0.465570
74.724304 191.008499 -35.815002 0.952574
88.207611 191.008499 -35.815002 1.005388
101.690918 191.008499 -35.815002 1.096409
115.174225 191.008499 -35.815002 1.133886
128.657501 191.008499 -35.815002 0.849757
142.140808 191.008499 -35.815002 0.368524
155.624115 191.008499 -35.815002 0.259198
169.107422 191.008499 -35.815002 0.093668
182.590698 191.008499 -35.815002 -0.178215
196.074036 191.008499 -35.815002 -0.486471
209.557312 191.008499 -35.815002 -0.518030
223.040588 191.008499 -35.815002 -0.355537
236.523926 191.008499 -35.815002 -0.180277
250.007202 191.008499 -35.815002 -0.081615
263.490540 191.008499 -35.815002 -0.025860
276.973816 191.008499 -35.815002 0.012392
290.457092 191.008499 -35.815002 -0.000625
303.940430 191.008499 -35.815002 -0.003966
317.423706 191.008499 -35.815002 -0.000597
330.907043 191.008499 -35.815002 0.000000
344.390320 191.008499 -35.815002 0.000000
-343.257996 177.525192 -35.815002 0.000000
-329.774689 177.525192 -35.815002 0.000000
-316.291382 177.525192 -35.815002 0.030344
-302.808105 177.525192 -35.815002 0.027080
-289.324799 177.525192 -35.815002 -0.061851
-275.841492 177.525192 -35.815002 -0.109575
-262.358185 177.525192 -35.815002 -0.250304
-248.874893 177.525192 -35.815002 -0.347592
-235.391602 177.525192 -35.815002 -0.662892
-221.908295 177.525192 -35.815002 -0.617841
-208.424988 177.525192 -35.815002 -0.772240
-194.941696 177.525192 -35.815002 -0.728593
-181.458389 177.525192 -35.815002 -0.701614
-167.975098 177.525192 -35.815002 -0.410497
-154.491791 177.525192 -35.815002 -0.627392
-141.008499 177.525192 -35.815002 -0.655459
-127.525192 177.525192 -35.815002 -0.413837
-114.041885 177.525192 -35.815002 -0.384452
-100.558594 177.525192 -35.815002 -0.416923
-87.075287 177.525192 -35.815002 -0.145427
-73.591980 177.525192 -35.815002 0.046578
-60.108704 177.525192 -35.815002 0.336703
-46.625397 177.525192 -35.815002 0.222271
-33.142090 177.525192 -35.815002 -0.040232
-19.658783 177.525192 -35.815002 -0.353689
-6.175476 177.525192 -35.815002 -0.279681
7.307800 177.525192 -35.815002 -0.487981
20.791107 177.525192 -35.815002 -0.339667
34.274414 177.525192 -35.815002 0.169328
47.757721 177.525192 -35.815002 0.268037
61.240997 177.525192 -35.815002 1.019729
74.724304 177.525192 -35.815002 1.118703
88.207611 177.525192 -35.815002 1.229579
101.690918 177.525192 -35.815002 1.160833
115.174225 177.525192 -35.815002 0.929889
128.657501 177.525192 -35.815002 0.886457
142.140808 177.525192 -35.815002 0.616672
155.624115 177.525192 -35.815002 0.410562
169.107422 177.525192 -35.815002 0.162900
182.590698 177.525192 -35.815002 0.008590
196.074036 177.525192 -35.815002 -0.276436
209.557312 177.525192 -35.815002 -0.280216
223.040588 177.525192 -35.815002 -0.253763
236.523926 177.525192 -35.815002 -0.114958
250.007202 177.525192 -35.815002 -0.053978
263.490540 177.525192 -35.815002 -0.020528
276.973816 177.525192 -35.815002 0.000810
290.457092 177.525192 -35.815002 -0.010705
303.940430 177.525192 -35.815002 -0.023055
317.423706 177.525192 -35.815002 -0.014090
330.907043 177.525192 -35.815002 0.000000
344.390320 177.525192 -35.815002 0.000000
-343.257996 164.041885 -35.815002 0.000000
-329.774689 164.041885 -35.815002 0.000000
-316.291382 164.041885 -35.815002 0.041774
-302.808105 164.041885 -35.815002 0.084477
-289.324799 164.041885 -35.815002 0.005965
-275.841492 164.041885 -35.815002 -0.132709
-262.358185 164.041885 -35.815002 -0.197623
-248.874893 164.041885 -35.815002 -0.346723
-235.391602 164.041885 -35.815002 -0.524095
-221.908295 164.041885 -35.815002 -0.587185
-208.424988 164.041885 -35.815002 -0.718928
-194.941696 164.041885 -35.815002 -0.912581
-181.458389 164.041885 -35.815002 -0.778163
-167.975098 164.041885 -35.815002 -0.869049
-154.491791 164.041885 -35.815002 -0.865153
-141.008499 164.041885 -35.815002 -0.621512
-127.525192 164.041885 -35.815002 -0.423646
-114.041885 164.041885 -35.815002 -0.159336
-100.558594 164.041885 -35.815002 -0.023662
-87.075287 164.041885 -35.815002 -0.121553
-73.591980 164.041885 -35.815002 0.296980
-60.108704 164.041885 -35.815002 0.644322
-46.625397 164.041885 -35.815002 0.453105
-33.142090 164.041885 -35.815002 0.219073
-19.658783 164.041885 -35.815002 -0.114314
-6.175476 164.041885 -35.815002 -0.195312
7.307800 164.041885 -35.815002 -0.362310
20.791107 164.041885 -35.815002 -0.018111
34.274414 164.041885 -35.815002 0.493773
47.757721 164.041885 -35.815002 0.745687
61.240997 164.041885 -35.815002 1.241411
74.724304 164.041885 -35.815002 1.246022
88.207611 164.041885 -35.815002 1.271898
101.690918 164.041885 -35.815002 1.058396
115.174225 164.041885 -35.815002 0.792070
128.657501 164.041885 -35.815002 0.767006
142.140808 164.041885 -35.815002 0.607529
155.624115 164.041885 -35.815002 0.515559
169.107422 164.041885 -35.815002 0.293131
182.590698 164.041885 -35.815002 0.201803
196.074036 164.041885 -35.815002 -0.037312
209.557312 164.041885 -35.815002 -0.092187
223.040588 164.041885 -35.815002 -0.123335
236.523926 164.041885 -35.815002 -0.095628
250.007202 164.041885 -35.815002 -0.008265
263.490540 164.041885 -35.815002 -0.016879
276.973816 164.041885 -35.815002 -0.006795
290.457092 164.041885 -35.815002 -0.018857
303.940430 164.041885 -35.815002 -0.021047
317.423706 164.041885 -35.815002 -0.016991
330.907043 164.041885 -35.815002 0.000000
344.390320 164.041885 -35.815002 0.000000
-343.257996 150.558594 -35.815002 0.000000
-329.774689 150.558594 -35.815002 0.000000
-316.291382 150.558594 -35.815002 0.078306
-302.808105 150.558594 -35.815002 -0.014394
-289.324799 150.558594 -35.815002 0.019997
-275.841492 150.558594 -35.815002 -0.005288
-262.358185 150.558594 -35.815002 -0.123454
-248.874893 150.558594 -35.815002 -0.323884
-235.391602 150.558594 -35.815002 -0.430827
-221.908295 150.558594 -35.815002 -0.512827
-208.424988 150.558594 -35.815002 -0.637055
-194.941696 150.558594 -35.815002 -0.775302
-181.458389 150.558594 -35.815002 -0.689243
-167.975098 150.558594 -35.815002 -0.737358
-154.491791 150.558594 -35.815002 -1.054788
-141.008499 150.558594 -35.815002 -1.067153
-127.525192 150.558594 -35.815002 -0.688150
-114.041885 150.558594 -35.815002 -0.150110
-100.558594 150.558594 -35.815002 0.200920
-87.075287 150.558594 -35.815002 0.269734
-73.591980 150.558594 -35.815002 0.466454
-60.108704 150.558594 -35.815002 0.639689
-46.625397 150.558594 -35.815002 0.547086
-33.142090 150.558594 -35.815002 0.227733
-19.658783 150.558594 -35.815002 0.045660
-6.175476 150.558594 -35.815002 -0.245970
7.307800 150.558594 -35.815002 -0.263431
20.791107 150.558594 -35.815002 0.310782
34.274414 150.558594 -35.815002 0.643097
47.757721 150.558594 -35.815002 0.880804
61.240997 150.558594 -35.815002 1.472996
74.724304 150.558594 -35.815002 1.567605
88.207611 150.558594 -35.815002 1.450737
101.690918 150.558594 -35.815002 1.013027
115.174225 150.558594 -35.815002 0.877353
128.657501 150.558594 -35.815002 0.812871
142.140808 150.558594 -35.815002 0.834934
155.624115 150.558594 -35.815002 0.560603
169.107422 150.558594 -35.815002 0.374818
182.590698 150.558594 -35.815002 0.214674
196.074036 150.558594 -35.815002 0.045124
209.557312 150.558594 -35.815002 -0.033518
223.040588 150.558594 -35.815002 -0.030944
236.523926 150.558594 -35.815002 -0.053481
250.007202 150.558594 -35.815002 0.005223
263.490540 150.558594 -35.815002 0.000083
276.973816 150.558594 -35.815002 -0.015616
290.457092 150.558594 -35.815002 -0.023741
303.940430 150.558594 -35.815002 -0.029475
317.423706 150.558594 -35.815002 -0.021924
330.907043 150.558594 -35.815002 0.000000
344.390320 150.558594 -35.815002 0.000000
-343.257996 137.075287 -35.815002 0.000000
-329.774689 137.075287 -35.815002 0.000000
-316.291382 137.075287 -35.815002 0.000000
-302.808105 137.075287 -35.815002 0.136565
-289.324799 137.075287 -35.815002 -0.043421
-275.841492 137.075287 -35.815002 -0.002666
-262.358185 137.075287 -35.815002 -0.040749
-248.874893 137.075287 -35.815002 -0.148001
-235.391602 137.075287 -35.815002 -0.261334
-221.908295 137.075287 -35.815002 -0.294309
-208.424988 137.075287 -35.815002 -0.359489
-194.941696 137.075287 -35.815002 -0.371691
-181.458389 137.075287 -35.815002 -0.559000
-167.975098 137.075287 -35.815002 -0.788237
-154.491791 137.075287 -35.815002 -1.092117
-141.008499 137.075287 -35.815002 -1.032534
-127.525192 137.075287 -35.815002 -0.804792
-114.041885 137.075287 -35.815002 0.063295
-100.558594 137.075287 -35.815002 0.146900
-87.075287 137.075287 -35.815002 0.676034
-73.591980 137.075287 -35.815002 0.852854
-60.108704 137.075287 -35.815002 0.567710
-46.625397 137.075287 -35.815002 0.264496
-33.142090 137.075287 -35.815002 0.192961
-19.658783 137.075287 -35.815002 0.016627
-6.175476 137.075287 -35.815002 -0.011913
7.307800 137.075287 -35.815002 -0.072208
20.791107 137.075287 -35.815002 0.237145
34.274414 137.075287 -35.815002 0.743575
47.757721 137.075287 -35.815002 1.182793
61.240997 137.075287 -35.815002 1.577661
74.724304 137.075287 -35.815002 1.656490
88.207611 137.075287 -35.815002 1.416305
101.690918 137.075287 -35.815002 0.975489
115.174225 137.075287 -35.815002 0.789198
128.657501 137.075287 -35.815002 0.801798
142.140808 137.075287 -35.815002 0.700774
155.624115 137.075287 -35.815002 0.580474
169.107422 137.075287 -35.815002 0.390956
182.590698 137.075287 -35.815002 0.295984
196.074036 137.075287 -35.815002 0.147579
209.557312 137.075287 -35.815002 0.052431
223.040588 137.075287 -35.815002 -0.003155
236.523926 137.075287 -35.815002 0.002283
250.007202 137.075287 -35.815002 -0.004474
263.490540 137.075287 -35.815002 0.014740
276.973816 137.075287 -35.815002 -0.020108
290.457092 137.075287 -35.815002 -0.024833
303.940430 137.075287 -35.815002 -0.028338
317.423706 137.075287 -35.815002 -0.018649
330.907043 137.075287 -35.815002 0.000000
344.390320 137.075287 -35.815002 0.000000
-343.257996 123.591980 -35.815002 0.000000
-329.774689 123.591980 -35.815002 0.000000
-316.291382 123.591980 -35.815002 0.000000
-302.808105 123.591980 -35.815002 0.121776
-289.324799 123.591980 -35.815002 0.097255
-275.841492 123.591980 -35.815002 0.068143
-262.358185 123.591980 -35.815002 0.026709
-248.874893 123.591980 -35.815002 0.001582
-235.391602 123.591980 -35.815002 -0.188077
-221.908295 123.591980 -35.815002 -0.184187
-208.424988 123.591980 -35.815002 -0.131067
-194.941696 123.591980 -35.815002 -0.310551
-181.458389 123.591980 -35.815002 -0.698400
-167.975098 123.591980 -35.815002 -0.806972
-154.491791 123.591980 -35.815002 -1.030674
-141.008499 123.591980 -35.815002 -0.985673
-127.525192 123.591980 -35.815002 -0.670449
-114.041885 123.591980 -35.815002 0.031063
-100.558594 123.591980 -35.815002 0.593741
-87.075287 123.591980 -35.815002 0.943781
-73.591980 123.591980 -35.815002 1.051693
-60.108704 123.591980 -35.815002 0.798121
-46.625397 123.591980 -35.815002 0.456838
-33.142090 123.591980 -35.815002 0.060776
-19.658783 123.591980 -35.815002 0.003689
-6.175476 123.591980 -35.815002 0.051943
7.307800 123.591980 -35.815002 0.157001
20.791107 123.591980 -35.815002 0.347702
34.274414 123.591980 -35.815002 0.738204
47.757721 123.591980 -35.815002 0.912239
61.240997 123.591980 -35.815002 1.546984
74.724304 123.591980 -35.815002 1.415549
88.207611 123.591980 -35.815002 0.982115
101.690918 123.591980 -35.815002 0.809193
115.174225 123.591980 -35.815002 0.720937
128.657501 123.591980 -35.815002 0.887407
142.140808 123.591980 -35.815002 0.712830
155.624115 123.591980 -35.815002 0.521286
169.107422 123.591980 -35.815002 0.488339
182.590698 123.591980 -35.815002 0.345811
196.074036 123.591980 -35.815002 0.130837
209.557312 123.591980 -35.815002 0.034426
223.040588 123.591980 -35.815002 -0.020129
236.523926 123.591980 -35.815002 -0.022059
250.007202 123.591980 -35.815002 0.012952
263.490540 123.591980 -35.815002 0.017145
276.973816 123.591980 -35.815002 -0.008219
290.457092 123.591980 -35.815002 -0.012936
303.940430 123.591980 -35.815002 -0.006453
317.423706 123.591980 -35.815002 -0.003033
330.907043 123.591980 -35.815002 0.000000
344.390320 123.591980 -35.815002 0.000000
-343.257996 110.108704 -35.815002 0.000000
-329.774689 110.108704 -35.815002 0.000000
-316.291382 110.108704 -35.815002 0.000000
-302.808105 110.108704 -35.815002 0.174057
-289.324799 110.108704 -35.815002 0.163468
-275.841492 110.108704 -35.815002 0.130503
-262.358185 110.108704 -35.815002 0.039692
-248.874893 110.108704 -35.815002 0.111298
-235.391602 110.108704 -35.815002 0.085514
-221.908295 110.108704 -35.815002 -0.157307
-208.424988 110.108704 -35.815002 -0.164077
-194.941696 110.108704 -35.815002 -0.343313
-181.458389 110.108704 -35.815002 -0.571792
-167.975098 110.108704 -35.815002 -1.083881
-154.491791 110.108704 -35.815002 -1.155189
-141.008499 110.108704 -35.815002 -0.718694
-127.525192 110.108704 -35.815002 -0.530377
-114.041885 110.108704 -35.815002 0.188975
-100.558594 110.108704 -35.815002 0.905385
-87.075287 110.108704 -35.815002 1.077834
-73.591980 110.108704 -35.815002 1.066506
-60.108704 110.108704 -35.815002 0.942063
-46.625397 110.108704 -35.815002 0.621346
-33.142090 110.108704 -35.815002 0.204764
-19.658783 110.108704 -35.815002 0.310052
-6.175476 110.108704 -35.815002 -0.044422
7.307800 110.108704 -35.815002 0.070528
20.791107 110.108704 -35.815002 0.294275
34.274414 110.108704 -35.815002 0.699169
47.757721 110.108704 -35.815002 0.966511
61.240997 110.108704 -35.815002 1.213462
74.724304 110.108704 -35.815002 1.217428
88.207611 110.108704 -35.815002 0.875422
101.690918 110.108704 -35.815002 0.510549
115.174225 110.108704 -35.815002 0.666993
128.657501 110.108704 -35.815002 0.753756
142.140808 110.108704 -35.815002 0.582613
155.624115 110.108704 -35.815002 0.538188
169.107422 110.108704 -35.815002 0.365574
182.590698 110.108704 -35.815002 0.285497
196.074036 110.108704 -35.815002 0.120509
209.557312 110.108704 -35.815002 0.018409
223.040588 110.108704 -35.815002 0.008969
236.523926 110.108704 -35.815002 0.012825
250.007202 110.108704 -35.815002 0.036255
263.490540 110.108704 -35.815002 0.022676
276.973816 110.108704 -35.815002 -0.001703
290.457092 110.108704 -35.815002 -0.003863
303.940430 110.108704 -35.815002 -0.011587
317.423706 110.108704 -35.815002 -0.001789
330.907043 110.108704 -35.815002 0.000000
344.390320 110.108704 -35.815002 0.000000
-343.257996 96.625397 -35.815002 0.000000
-329.774689 96.625397 -35.815002 0.000000
-316.291382 96.625397 -35.815002 0.000000
-302.808105 96.625397 -35.815002 0.321455
-289.324799 96.625397 -35.815002 0.348807
-275.841492 96.625397 -35.815002 0.336095
-262.358185 96.625397 -35.815002 0.246980
-248.874893 96.625397 -35.815002 0.085941
-235.391602 96.625397 -35.815002 0.043412
-221.908295 96.625397 -35.815002 -0.227371
-208.424988 96.625397 -35.815002 -0.341716
-194.941696 96.625397 -35.815002 -0.374845
-181.458389 96.625397 -35.815002 -0.345418
-167.975098 96.625397 -35.815002 -0.909556
-154.491791 96.625397 -35.815002 -0.774205
-141.008499 96.625397 -35.815002 -0.714449
-127.525192 96.625397 -35.815002 -0.373130
-114.041885 96.625397 -35.815002 0.289331
-100.558594 96.625397 -35.815002 0.770253
-87.075287 96.625397 -35.815002 0.849987
-73.591980 96.625397 -35.815002 0.796012
-60.108704 96.625397 -35.815002 0.837368
-46.625397 96.625397 -35.815002 0.725767
-33.142090 96.625397 -35.815002 0.754158
-19.658783 96.625397 -35.815002 0.338733
-6.175476 96.625397 -35.815002 0.070067
7.307800 96.625397 -35.815002 0.170043
20.791107 96.625397 -35.815002 0.086892
34.274414 96.625397 -35.815002 0.175500
47.757721 96.625397 -35.815002 0.537919
61.240997 96.625397 -35.815002 0.663976
74.724304 96.625397 -35.815002 0.663942
88.207611 96.625397 -35.815002 0.616690
101.690918 96.625397 -35.815002 0.297785
115.174225 96.625397 -35.815002 0.212057
128.657501 96.625397 -35.815002 0.194052
142.140808 96.625397 -35.815002 0.322657
155.624115 96.625397 -35.815002 0.374882
169.107422 96.625397 -35.815002 0.281980
182.590698 96.625397 -35.815002 0.200646
196.074036 96.625397 -35.815002 0.098849
209.557312 96.625397 -35.815002 0.037569
223.040588 96.625397 -35.815002 0.009846
236.523926 96.625397 -35.815002 0.035151
250.007202 96.625397 -35.815002 0.051430
263.490540 96.625397 -35.815002 0.019636
276.973816 96.625397 -35.815002 0.007839
290.457092 96.625397 -35.815002 -0.002475
303.940430 96.625397 -35.815002 -0.006813
317.423706 96.625397 -35.815002 0.013803
330.907043 96.625397 -35.815002 0.000000
344.390320 96.625397 -35.815002 0.000000
-343.257996 83.142090 -35.815002 0.000000
-329.774689 83.142090 -35.815002 0.000000
-316.291382 83.142090 -35.815002 0.000000
-302.808105 83.142090 -35.815002 0.000000
-289.324799 83.142090 -35.815002 0.448347
-275.841492 83.142090 -35.815002 0.285186
-262.358185 83.142090 -35.815002 0.183023
-248.874893 83.142090 -35.815002 0.082200
-235.391602 83.142090 -35.815002 0.046880
-221.908295 83.142090 -35.815002 -0.142986
-208.424988 83.142090 -35.815002 -0.183233
-194.941696 83.142090 -35.815002 0.009483
-181.458389 83.142090 -35.815002 -0.210206
-167.975098 83.142090 -35.815002 -0.600765
-154.491791 83.142090 -35.815002 -0.633029
-141.008499 83.142090 -35.815002 -0.396353
-127.525192 83.142090 -35.815002 -0.021356
-114.041885 83.142090 -35.815002 1.128779
-100.558594 83.142090 -35.815002 1.394642
-87.075287 83.142090 -35.815002 1.316901
-73.591980 83.142090 -35.815002 1.382015
-60.108704 83.142090 -35.815002 0.853589
-46.625397 83.142090 -35.815002 0.927224
-33.142090 83.142090 -35.815002 0.723905
-19.658783 83.142090 -35.815002 0.197695
-6.175476 83.142090 -35.815002 0.029725
7.307800 83.142090 -35.815002 -0.341557
20.791107 83.142090 -35.815002 -0.309351
34.274414 83.142090 -35.815002 0.096236
47.757721 83.142090 -35.815002 0.029507
61.240997 83.142090 -35.815002 0.326579
74.724304 83.142090 -35.815002 -0.016309
88.207611 83.142090 -35.815002 -0.024267
101.690918 83.142090 -35.815002 0.017400
115.174225 83.142090 -35.815002 -0.197226
128.657501 83.142090 -35.815002 -0.302575
142.140808 83.142090 -35.815002 0.005970
155.624115 83.142090 -35.815002 0.026537
169.107422 83.142090 -35.815002 0.097630
182.590698 83.142090 -35.815002 0.001561
196.074036 83.142090 -35.815002 0.039555
209.557312 83.142090 -35.815002 0.014478
223.040588 83.142090 -35.815002 0.013272
236.523926 83.142090 -35.815002 0.054345
250.007202 83.142090 -35.815002 0.037068
263.490540 83.142090 -35.815002 0.025991
276.973816 83.142090 -35.815002 0.016477
290.457092 83.142090 -35.815002 0.006482
303.940430 83.142090 -35.815002 -0.001845
317.423706 83.142090 -35.815002 0.007808
330.907043 83.142090 -35.815002 0.000000
344.390320 83.142090 -35.815002 0.000000
-343.257996 69.658783 -35.815002 0.000000
-329.774689 69.658783 -35.815002 0.000000
-316.291382 69.658783 -35.815002 0.000000
-302.808105 69.658783 -35.815002 0.000000
-289.324799 69.658783 -35.815002 0.469111
-275.841492 69.658783 -35.815002 0.374291
-262.358185 69.658783 -35.815002 0.312687
-248.874893 69.658783 -35.815002 0.250137
-235.391602 69.658783 -35.815002 0.007573
-221.908295 69.658783 -35.815002 -0.011869
-208.424988 69.658783 -35.815002 -0.142988
-194.941696 69.658783 -35.815002 -0.013104
-181.458389 69.658783 -35.815002 -0.154139
-167.975098 69.658783 -35.815002 -0.192932
-154.491791 69.658783 -35.815002 -0.536260
-141.008499 69.658783 -35.815002 -0.087251
-127.525192 69.658783 -35.815002 0.282209
-114.041885 69.658783 -35.815002 1.068255
-100.558594 69.658783 -35.815002 1.853860
-87.075287 69.658783 -35.815002 1.808951
-73.591980 69.658783 -35.815002 1.664819
-60.108704 69.658783 -35.815002 1.140101
-46.625397 69.658783 -35.815002 0.873783
-33.142090 69.658783 -35.815002 0.457242
-19.658783 69.658783 -35.815002 0.240686
-6.175476 69.658783 -35.815002 -0.127629
7.307800 69.658783 -35.815002 -0.544829
20.791107 69.658783 -35.815002 -0.346201
34.274414 69.658783 -35.815002 -0.215786
47.757721 69.658783 -35.815002 0.043464
61.240997 69.658783 -35.815002 0.041564
74.724304 69.658783 -35.815002 0.200408
88.207611 69.658783 -35.815002 0.171835
101.690918 69.658783 -35.815002 -0.128097
115.174225 69.658783 -35.815002 -0.103625
128.657501 69.658783 -35.815002 -0.202773
142.140808 69.658783 -35.815002 -0.213537
155.624115 69.658783 -35.815002 -0.160745
169.107422 69.658783 -35.815002 -0.301584
182.590698 69.658783 -35.815002 -0.221424
196.074036 69.658783 -35.815002 -0.037152
209.557312 69.658783 -35.815002 0.020059
223.040588 69.658783 -35.815002 0.049073
236.523926 69.658783 -35.815002 0.093099
250.007202 69.658783 -35.815002 0.053105
263.490540 69.658783 -35.815002 0.039138
276.973816 69.658783 -35.815002 0.033372
290.457092 69.658783 -35.815002 0.014263
303.940430 69.658783 -35.815002 0.021652
317.423706 69.658783 -35.815002 0.005339
330.907043 69.658783 -35.815002 0.000000
344.390320 69.658783 -35.815002 0.000000
-343.257996 56.175476 -35.815002 0.000000
-329.774689 56.175476 -35.815002 0.000000
-316.291382 56.175476 -35.815002 0.000000
-302.808105 56.175476 -35.815002 0.240297
-289.324799 56.175476 -35.815002 0.387873
-275.841492 56.175476 -35.815002 0.350886
-262.358185 56.175476 -35.815002 0.295785
-248.874893 56.175476 -35.815002 0.038229
-235.391602 56.175476 -35.815002 0.028360
-221.908295 56.175476 -35.815002 0.025796
-208.424988 56.175476 -35.815002 0.120010
-194.941696 56.175476 -35.815002 -0.066090
-181.458389 56.175476 -35.815002 0.047201
-167.975098 56.175476 -35.815002 0.157495
-154.491791 56.175476 -35.815002 0.389171
-141.008499 56.175476 -35.815002 0.442985
-127.525192 56.175476 -35.815002 0.947374
-114.041885 56.175476 -35.815002 1.256287
-100.558594 56.175476 -35.815002 1.733613
-87.075287 56.175476 -35.815002 2.144625
-73.591980 56.175476 -35.815002 2.045550
-60.108704 56.175476 -35.815002 1.541379
-46.625397 56.175476 -35.815002 1.114941
-33.142090 56.175476 -35.815002 0.529519
-19.658783 56.175476 -35.815002 0.187706
-6.175476 56.175476 -35.815002 -0.061082
7.307800 56.175476 -35.815002 -0.401750
20.791107 56.175476 -35.815002 -0.303937
34.274414 56.175476 -35.815002 -0.059375
47.757721 56.175476 -35.815002 0.296590
61.240997 56.175476 -35.815002 0.289917
74.724304 56.175476 -35.815002 0.463805
88.207611 56.175476 -35.815002 0.320281
101.690918 56.175476 -35.815002 0.091986
115.174225 56.175476 -35.815002 -0.135235
128.657501 56.175476 -35.815002 -0.086813
142.140808 56.175476 -35.815002 -0.271728
155.624115 56.175476 -35.815002 -0.207770
169.107422 56.175476 -35.815002 -0.421338
182.590698 56.175476 -35.815002 -0.380290
196.074036 56.175476 -35.815002 -0.147251
209.557312 56.175476 -35.815002 -0.025319
223.040588 56.175476 -35.815002 0.011765
236.523926 56.175476 -35.815002 0.077459
250.007202 56.175476 -35.815002 0.036936
263.490540 56.175476 -35.815002 0.041020
276.973816 56.175476 -35.815002 0.028807
290.457092 56.175476 -35.815002 0.058355
303.940430 56.175476 -35.815002 0.055038
317.423706 56.175476 -35.815002 0.066493
330.907043 56.175476 -35.815002 0.000000
344.390320 56.175476 -35.815002 0.000000
-343.257996 42.692200 -35.815002 0.000000
-329.774689 42.692200 -35.815002 0.000000
-316.291382 42.692200 -35.815002 0.000000
-302.808105 42.692200 -35.815002 0.303277
-289.324799 42.692200 -35.815002 0.535214
-275.841492 42.692200 -35.815002 0.312926
-262.358185 42.692200 -35.815002 0.241506
-248.874893 42.692200 -35.815002 0.215422
-235.391602 42.692200 -35.815002 0.120491
-221.908295 42.692200 -35.815002 0.119171
-208.424988 42.692200 -35.815002 0.004213
-194.941696 42.692200 -35.815002 0.197262
-181.458389 42.692200 -35.815002 0.589192
-167.975098 42.692200 -35.815002 0.284983
-154.491791 42.692200 -35.815002 0.353795
-141.008499 42.692200 -35.815002 1.007202
-127.525192 42.692200 -35.815002 1.850163
-114.041885 42.692200 -35.815002 2.049906
-100.558594 42.692200 -35.815002 2.670288
-87.075287 42.692200 -35.815002 2.501099
-73.591980 42.692200 -35.815002 2.252158
-60.108704 42.692200 -35.815002 1.940709
-46.625397 42.692200 -35.815002 1.385722
-33.142090 42.692200 -35.815002 0.731717
-19.658783 42.692200 -35.815002 0.242172
-6.175476 42.692200 -35.815002 0.069741
7.307800 42.692200 -35.815002 -0.597490
20.791107 42.692200 -35.815002 -0.531538
34.274414 42.692200 -35.815002 -0.120524
47.757721 42.692200 -35.815002 0.397770
61.240997 42.692200 -35.815002 0.532910
74.724304 42.692200 -35.815002 0.506606
88.207611 42.692200 -35.815002 0.746373
101.690918 42.692200 -35.815002 0.282132
115.174225 42.692200 -35.815002 0.263227
128.657501 42.692200 -35.815002 0.082110
142.140808 42.692200 -35.815002 -0.237616
155.624115 42.692200 -35.815002 -0.227434
169.107422 42.692200 -35.815002 -0.522295
182.590698 42.692200 -35.815002 -0.440778
196.074036 42.692200 -35.815002 -0.161665
209.557312 42.692200 -35.815002 -0.109537
223.040588 42.692200 -35.815002 -0.063346
236.523926 42.692200 -35.815002 0.031096
250.007202 42.692200 -35.815002 0.053039
263.490540 42.692200 -35.815002 0.069339
276.973816 42.692200 -35.815002 0.083210
290.457092 42.692200 -35.815002 0.112945
303.940430 42.692200 -35.815002 0.094051
317.423706 42.692200 -35.815002 0.103195
330.907043 42.692200 -35.815002 0.000000
344.390320 42.692200 -35.815002 0.000000
-343.257996 29.208893 -35.815002 0.000000
-329.774689 29.208893 -35.815002 0.000000
-316.291382 29.208893 -35.815002 0.000000
-302.808105 29.208893 -35.815002 0.330514
-289.324799 29.208893 -35.815002 0.530761
-275.841492 29.208893 -35.815002 0.258122
-262.358185 29.208893 -35.815002 0.265219
-248.874893 29.208893 -35.815002 0.146400
-235.391602 29.208893 -35.815002 0.341436
-221.908295 29.208893 -35.815002 0.501355
-208.424988 29.208893 -35.815002 0.614016
-194.941696 29.208893 -35.815002 0.615241
-181.458389 29.208893 -35.815002 0.713134
-167.975098 29.208893 -35.815002 0.659607
-154.491791 29.208893 -35.815002 0.416370
-141.008499 29.208893 -35.815002 1.620728
-127.525192 29.208893 -35.815002 2.209261
-114.041885 29.208893 -35.815002 2.200740
-100.558594 29.208893 -35.815002 2.305722
-87.075287 29.208893 -35.815002 2.560833
-73.591980 29.208893 -35.815002 2.553474
-60.108704 29.208893 -35.815002 2.107216
-46.625397 29.208893 -35.815002 1.841607
-33.142090 29.208893 -35.815002 1.286139
-19.658783 29.208893 -35.815002 0.171106
-6.175476 29.208893 -35.815002 0.081981
7.307800 29.208893 -35.815002 -0.392364
20.791107 29.208893 -35.815002 -0.164043
34.274414 29.208893 -35.815002 -0.100307
47.757721 29.208893 -35.815002 0.399738
61.240997 29.208893 -35.815002 0.561984
74.724304 29.208893 -35.815002 0.573777
88.207611 29.208893 -35.815002 0.415929
101.690918 29.208893 -35.815002 0.353834
115.174225 29.208893 -35.815002 0.285813
128.657501 29.208893 -35.815002 0.099501
142.140808 29.208893 -35.815002 0.001667
155.624115 29.208893 -35.815002 -0.070380
169.107422 29.208893 -35.815002 -0.267703
182.590698 29.208893 -35.815002 -0.348468
196.074036 29.208893 -35.815002 -0.175856
209.557312 29.208893 -35.815002 -0.166517
223.040588 29.208893 -35.815002 -0.074730
236.523926 29.208893 -35.815002 -0.051983
250.007202 29.208893 -35.815002 0.070904
263.490540 29.208893 -35.815002 0.115980
276.973816 29.208893 -35.815002 0.083124
290.457092 29.208893 -35.815002 0.098483
303.940430 29.208893 -35.815002 0.121207
317.423706 29.208893 -35.815002 0.165288
330.907043 29.208893 -35.815002 0.000000
344.390320 29.208893 -35.815002 0.000000
-343.257996 15.725586 -35.815002 0.000000
-329.774689 15.725586 -35.815002 0.000000
-316.291382 15.725586 -35.815002 0.089664
-302.808105 15.725586 -35.815002 0.122213
-289.324799 15.725586 -35.815002 0.408872
-275.841492 15.725586 -35.815002 0.370879
-262.358185 15.725586 -35.815002 0.290459
-248.874893 15.725586 -35.815002 0.218442
-235.391602 15.725586 -35.815002 0.286665
-221.908295 15.725586 -35.815002 0.374691
-208.424988 15.725586 -35.815002 0.351071
-194.941696 15.725586 -35.815002 0.783390
-181.458389 15.725586 -35.815002 0.601564
-167.975098 15.725586 -35.815002 0.796308
-154.491791 15.725586 -35.815002 1.277650
-141.008499 15.725586 -35.815002 1.665146
-127.525192 15.725586 -35.815002 2.315047
-114.041885 15.725586 -35.815002 2.735604
-100.558594 15.725586 -35.815002 2.522352
-87.075287 15.725586 -35.815002 2.675642
-73.591980 15.725586 -35.815002 3.340319
-60.108704 15.725586 -35.815002 2.469254
-46.625397 15.725586 -35.815002 1.824839
-33.142090 15.725586 -35.815002 1.375332
-19.658783 15.725586 -35.815002 0.818237
-6.175476 15.725586 -35.815002 0.428063
7.307800 15.725586 -35.815002 0.166737
20.791107 15.725586 -35.815002 0.247898
34.274414 15.725586 -35.815002 0.611651
47.757721 15.725586 -35.815002 0.650651
61.240997 15.725586 -35.815002 1.249032
74.724304 15.725586 -35.815002 1.139028
88.207611 15.725586 -35.815002 1.015087
101.690918 15.725586 -35.815002 0.898902
115.174225 15.725586 -35.815002 0.518092
128.657501 15.725586 -35.815002 0.421374
142.140808 15.725586 -35.815002 0.329720
155.624115 15.725586 -35.815002 0.216115
169.107422 15.725586 -35.815002 -0.057761
182.590698 15.725586 -35.815002 -0.212096
196.074036 15.725586 -35.815002 -0.134308
209.557312 15.725586 -35.815002 -0.070521
223.040588 15.725586 -35.815002 -0.035943
236.523926 15.725586 -35.815002 0.056491
250.007202 15.725586 -35.815002 0.090032
263.490540 15.725586 -35.815002 0.098533
276.973816 15.725586 -35.815002 0.098059
290.457092 15.725586 -35.815002 0.076956
303.940430 15.725586 -35.815002 0.120830
317.423706 15.725586 -35.815002 0.118255
330.907043 15.725586 -35.815002 0.000000
344.390320 15.725586 -35.815002 0.000000
-343.257996 2.242279 -35.815002 0.000000
-329.774689 2.242279 -35.815002 0.000000
-316.291382 2.242279 -35.815002 0.067917
-302.808105 2.242279 -35.815002 -0.024286
-289.324799 2.242279 -35.815002 0.283450
-275.841492 2.242279 -35.815002 0.141548
-262.358185 2.242279 -35.815002 0.204863
-248.874893 2.242279 -35.815002 0.381017
-235.391602 2.242279 -35.815002 0.274747
-221.908295 2.242279 -35.815002 0.300922
-208.424988 2.242279 -35.815002 -0.119368
-194.941696 2.242279 -35.815002 0.540973
-181.458389 2.242279 -35.815002 0.689771
-167.975098 2.242279 -35.815002 1.175271
-154.491791 2.242279 -35.815002 1.776093
-141.008499 2.242279 -35.815002 2.420462
-127.525192 2.242279 -35.815002 3.058779
-114.041885 2.242279 -35.815002 3.228592
-100.558594 2.242279 -35.815002 3.209057
-87.075287 2.242279 -35.815002 2.945463
-73.591980 2.242279 -35.815002 3.067878
-60.108704 2.242279 -35.815002 2.729197
-46.625397 2.242279 -35.815002 2.317788
-33.142090 2.242279 -35.815002 1.645536
-19.658783 2.242279 -35.815002 0.949397
-6.175476 2.242279 -35.815002 0.581656
7.307800 2.242279 -35.815002 0.534715
20.791107 2.242279 -35.815002 0.660473
34.274414 2.242279 -35.815002 1.030986
47.757721 2.242279 -35.815002 1.377272
61.240997 2.242279 -35.815002 1.652049
74.724304 2.242279 -35.815002 2.014821
88.207611 2.242279 -35.815002 1.543767
101.690918 2.242279 -35.815002 1.466501
115.174225 2.242279 -35.815002 1.192230
128.657501 2.242279 -35.815002 0.667383
142.140808 2.242279 -35.815002 0.514867
155.624115 2.242279 -35.815002 0.435138
169.107422 2.242279 -35.815002 0.124481
182.590698 2.242279 -35.815002 -0.079554
196.074036 2.242279 -35.815002 -0.050076
209.557312 2.242279 -35.815002 -0.012555
223.040588 2.242279 -35.815002 0.048627
236.523926 2.242279 -35.815002 0.172585
250.007202 2.242279 -35.815002 0.101521
263.490540 2.242279 -35.815002 0.093410
276.973816 2.242279 -35.815002 0.104147
290.457092 2.242279 -35.815002 0.087446
303.940430 2.242279 -35.815002 0.062553
317.423706 2.242279 -35.815002 0.093152
330.907043 2.242279 -35.815002 0.000000
344.390320 2.242279 -35.815002 0.000000
-343.257996 -11.240997 -35.815002 0.000000
-329.774689 -11.240997 -35.815002 0.000000
-316.291382 -11.240997 -35.815002 0.033978
-302.808105 -11.240997 -35.815002 0.207371
-289.324799 -11.240997 -35.815002 0.164126
-275.841492 -11.240997 -35.815002 0.217464
-262.358185 -11.240997 -35.815002 0.046101
-248.874893 -11.240997 -35.815002 0.174771
-235.391602 -11.240997 -35.815002 0.116797
-221.908295 -11.240997 -35.815002 0.294028
-208.424988 -11.240997 -35.815002 0.299724
-194.941696 -11.240997 -35.815002 0.343827
-181.458389 -11.240997 -35.815002 1.317862
-167.975098 -11.240997 -35.815002 1.864377
-154.491791 -11.240997 -35.815002 2.223849
-141.008499 -11.240997 -35.815002 2.656795
-127.525192 -11.240997 -35.815002 3.174477
-114.041885 -11.240997 -35.815002 3.945642
-100.558594 -11.240997 -35.815002 4.267906
-87.075287 -11.240997 -35.815002 4.246852
-73.591980 -11.240997 -35.815002 3.662103
-60.108704 -11.240997 -35.815002 3.348686
-46.625397 -11.240997 -35.815002 2.507808
-33.142090 -11.240997 -35.815002 1.633812
-19.658783 -11.240997 -35.815002 1.279997
-6.175476 -11.240997 -35.815002 1.019049
7.307800 -11.240997 -35.815002 1.238911
20.791107 -11.240997 -35.815002 1.361839
34.274414 -11.240997 -35.815002 1.841395
47.757721 -11.240997 -35.815002 2.076734
61.240997 -11.240997 -35.815002 2.552957
74.724304 -11.240997 -35.815002 2.828543
88.207611 -11.240997 -35.815002 2.348579
101.690918 -11.240997 -35.815002 1.854851
115.174225 -11.240997 -35.815002 1.452997
128.657501 -11.240997 -35.815002 1.192521
142.140808 -11.240997 -35.815002 0.838827
155.624115 -11.240997 -35.815002 0.700057
169.107422 -11.240997 -35.815002 0.276583
182.590698 -11.240997 -35.815002 0.030982
196.074036 -11.240997 -35.815002 -0.073036
209.557312 -11.240997 -35.815002 -0.013370
223.040588 -11.240997 -35.815002 0.033009
236.523926 -11.240997 -35.815002 0.211859
250.007202 -11.240997 -35.815002 0.128405
263.490540 -11.240997 -35.815002 0.122272
276.973816 -11.240997 -35.815002 0.149998
290.457092 -11.240997 -35.815002 0.071265
303.940430 -11.240997 -35.815002 0.099462
317.423706 -11.240997 -35.815002 0.397462
330.907043 -11.240997 -35.815002 0.000000
344.390320 -11.240997 -35.815002 0.000000
-343.257996 -24.724304 -35.815002 0.000000
-329.774689 -24.724304 -35.815002 0.000000
-316.291382 -24.724304 -35.815002 0.358526
-302.808105 -24.724304 -35.815002 0.069338
-289.324799 -24.724304 -35.815002 0.068653
-275.841492 -24.724304 -35.815002 0.268214
-262.358185 -24.724304 -35.815002 0.042120
-248.874893 -24.724304 -35.815002 0.136854
-235.391602 -24.724304 -35.815002 0.493629
-221.908295 -24.724304 -35.815002 0.633723
-208.424988 -24.724304 -35.815002 0.480880
-194.941696 -24.724304 -35.815002 0.641693
-181.458389 -24.724304 -35.815002 1.512402
-167.975098 -24.724304 -35.815002 1.898652
-154.491791 -24.724304 -35.815002 2.467102
-141.008499 -24.724304 -35.815002 3.147338
-127.525192 -24.724304 -35.815002 3.779153
-114.041885 -24.724304 -35.815002 4.697400
-100.558594 -24.724304 -35.815002 4.888048
-87.075287 -24.724304 -35.815002 5.026508
-73.591980 -24.724304 -35.815002 4.576983
-60.108704 -24.724304 -35.815002 3.776273
-46.625397 -24.724304 -35.815002 3.002454
-33.142090 -24.724304 -35.815002 2.436185
-19.658783 -24.724304 -35.815002 2.196244
-6.175476 -24.724304 -35.815002 1.989799
7.307800 -24.724304 -35.815002 1.914621
20.791107 -24.724304 -35.815002 1.964209
34.274414 -24.724304 -35.815002 2.537588
47.757721 -24.724304 -35.815002 3.087423
61.240997 -24.724304 -35.815002 3.531506
74.724304 -24.724304 -35.815002 3.461867
88.207611 -24.724304 -35.815002 2.685236
101.690918 -24.724304 -35.815002 1.957392
115.174225 -24.724304 -35.815002 1.587636
128.657501 -24.724304 -35.815002 0.981816
142.140808 -24.724304 -35.815002 0.836485
155.624115 -24.724304 -35.815002 0.640348
169.107422 -24.724304 -35.815002 0.353313
182.590698 -24.724304 -35.815002 0.082574
196.074036 -24.724304 -35.815002 0.006475
209.557312 -24.724304 -35.815002 0.000281
223.040588 -24.724304 -35.815002 0.061957
236.523926 -24.724304 -35.815002 0.143197
250.007202 -24.724304 -35.815002 0.118450
263.490540 -24.724304 -35.815002 0.143758
276.973816 -24.724304 -35.815002 0.205917
290.457092 -24.724304 -35.815002 0.347940
303.940430 -24.724304 -35.815002 0.196955
317.423706 -24.724304 -35.815002 0.193497
330.907043 -24.724304 -35.815002 0.000000
344.390320 -24.724304 -35.815002 0.000000
-343.257996 -38.207611 -35.815002 0.000000
-329.774689 -38.207611 -35.815002 0.000000
-316.291382 -38.207611 -35.815002 0.716285
-302.808105 -38.207611 -35.815002 0.215081
-289.324799 -38.207611 -35.815002 0.268536
-275.841492 -38.207611 -35.815002 0.586022
-262.358185 -38.207611 -35.815002 0.147617
-248.874893 -38.207611 -35.815002 0.489209
-235.391602 -38.207611 -35.815002 0.491894
-221.908295 -38.207611 -35.815002 0.623203
-208.424988 -38.207611 -35.815002 0.774621
-194.941696 -38.207611 -35.815002 1.232360
-181.458389 -38.207611 -35.815002 1.292325
-167.975098 -38.207611 -35.815002 2.083360
-154.491791 -38.207611 -35.815002 2.303037
-141.008499 -38.207611 -35.815002 3.055091
-127.525192 -38.207611 -35.815002 4.162100
-114.041885 -38.207611 -35.815002 4.750799
-100.558594 -38.207611 -35.815002 4.838077
-87.075287 -38.207611 -35.815002 5.119809
-73.591980 -38.207611 -35.815002 4.526024
-60.108704 -38.207611 -35.815002 3.766907
-46.625397 -38.207611 -35.815002 3.497889
-33.142090 -38.207611 -35.815002 2.956073
-19.658783 -38.207611 -35.815002 2.612874
-6.175476 -38.207611 -35.815002 3.090167
7.307800 -38.207611 -35.815002 2.999542
20.791107 -38.207611 -35.815002 2.901087
34.274414 -38.207611 -35.815002 3.436038
47.757721 -38.207611 -35.815002 3.655799
61.240997 -38.207611 -35.815002 3.836532
74.724304 -38.207611 -35.815002 3.378964
88.207611 -38.207611 -35.815002 2.967329
101.690918 -38.207611 -35.815002 2.206438
115.174225 -38.207611 -35.815002 1.431338
128.657501 -38.207611 -35.815002 1.132431
142.140808 -38.207611 -35.815002 0.811877
155.624115 -38.207611 -35.815002 0.722761
169.107422 -38.207611 -35.815002 0.501353
182.590698 -38.207611 -35.815002 0.216916
196.074036 -38.207611 -35.815002 0.020766
209.557312 -38.207611 -35.815002 0.062664
223.040588 -38.207611 -35.815002 0.084916
236.523926 -38.207611 -35.815002 0.070597
250.007202 -38.207611 -35.815002 0.053230
263.490540 -38.207611 -35.815002 0.140672
276.973816 -38.207611 -35.815002 0.196284
290.457092 -38.207611 -35.815002 0.395283
303.940430 -38.207611 -35.815002 0.320034
317.423706 -38.207611 -35.815002 0.146554
330.907043 -38.207611 -35.815002 0.000000
344.390320 -38.207611 -35.815002 0.000000
-343.257996 -51.690918 -35.815002 0.000000
-329.774689 -51.690918 -35.815002 0.000000
-316.291382 -51.690918 -35.815002 0.929757
-302.808105 -51.690918 -35.815002 0.618256
-289.324799 -51.690918 -35.815002 0.294462
-275.841492 -51.690918 -35.815002 0.598574
-262.358185 -51.690918 -35.815002 0.445507
-248.874893 -51.690918 -35.815002 0.676264
-235.391602 -51.690918 -35.815002 0.363996
-221.908295 -51.690918 -35.815002 0.620414
-208.424988 -51.690918 -35.815002 1.287844
-194.941696 -51.690918 -35.815002 1.558227
-181.458389 -51.690918 -35.815002 1.873041
-167.975098 -51.690918 -35.815002 2.683158
-154.491791 -51.690918 -35.815002 3.045068
-141.008499 -51.690918 -35.815002 4.257316
-127.525192 -51.690918 -35.815002 4.594460
-114.041885 -51.690918 -35.815002 4.214530
-100.558594 -51.690918 -35.815002 4.229353
-87.075287 -51.690918 -35.815002 4.736814
-73.591980 -51.690918 -35.815002 4.218603
-60.108704 -51.690918 -35.815002 3.252939
-46.625397 -51.690918 -35.815002 3.075699
-33.142090 -51.690918 -35.815002 3.357670
-19.658783 -51.690918 -35.815002 2.921566
-6.175476 -51.690918 -35.815002 3.226959
7.307800 -51.690918 -35.815002 3.553533
20.791107 -51.690918 -35.815002 3.669122
34.274414 -51.690918 -35.815002 4.133137
47.757721 -51.690918 -35.815002 3.827704
61.240997 -51.690918 -35.815002 3.538380
74.724304 -51.690918 -35.815002 2.980119
88.207611 -51.690918 -35.815002 2.508504
101.690918 -51.690918 -35.815002 1.861165
115.174225 -51.690918 -35.815002 1.394948
128.657501 -51.690918 -35.815002 0.940995
142.140808 -51.690918 -35.815002 0.739293
155.624115 -51.690918 -35.815002 0.629335
169.107422 -51.690918 -35.815002 0.468938
182.590698 -51.690918 -35.815002 0.365416
196.074036 -51.690918 -35.815002 0.125838
209.557312 -51.690918 -35.815002 0.109547
223.040588 -51.690918 -35.815002 0.162543
236.523926 -51.690918 -35.815002 0.153782
250.007202 -51.690918 -35.815002 0.143637
263.490540 -51.690918 -35.815002 0.236700
276.973816 -51.690918 -35.815002 0.296517
290.457092 -51.690918 -35.815002 0.309423
303.940430 -51.690918 -35.815002 0.907726
317.423706 -51.690918 -35.815002 0.601033
330.907043 -51.690918 -35.815002 0.000000
344.390320 -51.690918 -35.815002 0.000000
-343.257996 -65.174225 -35.815002 0.000000
-329.774689 -65.174225 -35.815002 0.000000
-316.291382 -65.174225 -35.815002 0.671590
-302.808105 -65.174225 -35.815002 0.577978
-289.324799 -65.174225 -35.815002 -0.189075
-275.841492 -65.174225 -35.815002 0.238666
-262.358185 -65.174225 -35.815002 0.304402
-248.874893 -65.174225 -35.815002 0.325156
-235.391602 -65.174225 -35.815002 0.547992
-221.908295 -65.174225 -35.815002 1.410543
-208.424988 -65.174225 -35.815002 1.060056
-194.941696 -65.174225 -35.815002 2.536143
-181.458389 -65.174225 -35.815002 2.566783
-167.975098 -65.174225 -35.815002 3.141554
-154.491791 -65.174225 -35.815002 2.706331
-141.008499 -65.174225 -35.815002 4.330195
-127.525192 -65.174225 -35.815002 4.912755
-114.041885 -65.174225 -35.815002 4.665522
-100.558594 -65.174225 -35.815002 4.028626
-87.075287 -65.174225 -35.815002 4.069731
-73.591980 -65.174225 -35.815002 3.728892
-60.108704 -65.174225 -35.815002 3.361507
-46.625397 -65.174225 -35.815002 3.316721
-33.142090 -65.174225 -35.815002 3.498827
-19.658783 -65.174225 -35.815002 3.337725
-6.175476 -65.174225 -35.815002 3.689341
7.307800 -65.174225 -35.815002 3.976524
20.791107 -65.174225 -35.815002 3.913142
34.274414 -65.174225 -35.815002 4.055425
47.757721 -65.174225 -35.815002 3.910320
61.240997 -65.174225 -35.815002 3.293110
74.724304 -65.174225 -35.815002 2.478758
88.207611 -65.174225 -35.815002 2.036533
101.690918 -65.174225 -35.815002 1.388143
115.174225 -65.174225 -35.815002 1.112509
128.657501 -65.174225 -35.815002 0.780001
142.140808 -65.174225 -35.815002 0.619496
155.624115 -65.174225 -35.815002 0.549543
169.107422 -65.174225 -35.815002 0.468237
182.590698 -65.174225 -35.815002 0.308143
196.074036 -65.174225 -35.815002 0.223568
209.557312 -65.174225 -35.815002 0.243678
223.040588 -65.174225 -35.815002 0.159874
236.523926 -65.174225 -35.815002 0.218903
250.007202 -65.174225 -35.815002 0.259977
263.490540 -65.174225 -35.815002 0.374612
276.973816 -65.174225 -35.815002 0.647934
290.457092 -65.174225 -35.815002 0.471454
303.940430 -65.174225 -35.815002 0.203776
317.423706 -65.174225 -35.815002 0.356413
330.907043 -65.174225 -35.815002 0.000000
344.390320 -65.174225 -35.815002 0.000000
-343.257996 -78.657501 -35.815002 0.000000
-329.774689 -78.657501 -35.815002 0.000000
-316.291382 -78.657501 -35.815002 0.667333
-302.808105 -78.657501 -35.815002 0.884902
-289.324799 -78.657501 -35.815002 0.438515
-275.841492 -78.657501 -35.815002 0.503640
-262.358185 -78.657501 -35.815002 0.048922
-248.874893 -78.657501 -35.815002 -0.180997
-235.391602 -78.657501 -35.815002 0.839132
-221.908295 -78.657501 -35.815002 1.585309
-208.424988 -78.657501 -35.815002 2.483240
-194.941696 -78.657501 -35.815002 0.000000
-181.458389 -78.657501 -35.815002 2.483586
-167.975098 -78.657501 -35.815002 0.000000
-154.491791 -78.657501 -35.815002 4.304987
-141.008499 -78.657501 -35.815002 4.139311
-127.525192 -78.657501 -35.815002 4.515484
-114.041885 -78.657501 -35.815002 4.611413
-100.558594 -78.657501 -35.815002 4.205384
-87.075287 -78.657501 -35.815002 3.901855
-73.591980 -78.657501 -35.815002 3.779093
-60.108704 -78.657501 -35.815002 3.428092
-46.625397 -78.657501 -35.815002 3.602279
-33.142090 -78.657501 -35.815002 3.428023
-19.658783 -78.657501 -35.815002 3.213791
-6.175476 -78.657501 -35.815002 3.410053
7.307800 -78.657501 -35.815002 3.873316
20.791107 -78.657501 -35.815002 3.872785
34.274414 -78.657501 -35.815002 3.962406
47.757721 -78.657501 -35.815002 3.078856
61.240997 -78.657501 -35.815002 2.564866
74.724304 -78.657501 -35.815002 1.854758
88.207611 -78.657501 -35.815002 1.510620
101.690918 -78.657501 -35.815002 1.132171
115.174225 -78.657501 -35.815002 0.986695
128.657501 -78.657501 -35.815002 0.711619
142.140808 -78.657501 -35.815002 0.652289
155.624115 -78.657501 -35.815002 0.530641
169.107422 -78.657501 -35.815002 0.411229
182.590698 -78.657501 -35.815002 0.258099
196.074036 -78.657501 -35.815002 0.235070
209.557312 -78.657501 -35.815002 0.277796
223.040588 -78.657501 -35.815002 0.310440
236.523926 -78.657501 -35.815002 0.292660
250.007202 -78.657501 -35.815002 0.223175
263.490540 -78.657501 -35.815002 0.395145
276.973816 -78.657501 -35.815002 0.729320
290.457092 -78.657501 -35.815002 0.610109
303.940430 -78.657501 -35.815002 0.607483
317.423706 -78.657501 -35.815002 0.512658
330.907043 -78.657501 -35.815002 0.000000
344.390320 -78.657501 -35.815002 0.000000
-343.257996 -92.140808 -35.815002 0.000000
-329.774689 -92.140808 -35.815002 0.000000
-316.291382 -92.140808 -35.815002 1.270119
-302.808105 -92.140808 -35.815002 0.061640
-289.324799 -92.140808 -35.815002 0.025454
-275.841492 -92.140808 -35.815002 1.436451
-262.358185 -92.140808 -35.815002 0.945606
-248.874893 -92.140808 -35.815002 0.033905
-235.391602 -92.140808 -35.815002 0.000000
-221.908295 -92.140808 -35.815002 0.000000
-208.424988 -92.140808 -35.815002 0.000000
-194.941696 -92.140808 -35.815002 0.000000
-181.458389 -92.140808 -35.815002 0.000000
-167.975098 -92.140808 -35.815002 0.000000
-154.491791 -92.140808 -35.815002 3.542946
-141.008499 -92.140808 -35.815002 3.756896
-127.525192 -92.140808 -35.815002 3.465760
-114.041885 -92.140808 -35.815002 3.247811
-100.558594 -92.140808 -35.815002 3.614278
-87.075287 -92.140808 -35.815002 3.215472
-73.591980 -92.140808 -35.815002 3.288667
-60.108704 -92.140808 -35.815002 3.668010
-46.625397 -92.140808 -35.815002 3.736389
-33.142090 -92.140808 -35.815002 3.373590
-19.658783 -92.140808 -35.815002 3.557996
-6.175476 -92.140808 -35.815002 3.348495
7.307800 -92.140808 -35.815002 3.725285
20.791107 -92.140808 -35.815002 3.825821
34.274414 -92.140808 -35.815002 3.509109
47.757721 -92.140808 -35.815002 2.221439
61.240997 -92.140808 -35.815002 1.880013
74.724304 -92.140808 -35.815002 1.524405
88.207611 -92.140808 -35.815002 1.068003
101.690918 -92.140808 -35.815002 0.884653
115.174225 -92.140808 -35.815002 0.703849
128.657501 -92.140808 -35.815002 0.722156
142.140808 -92.140808 -35.815002 0.609495
155.624115 -92.140808 -35.815002 0.468793
169.107422 -92.140808 -35.815002 0.309144
182.590698 -92.140808 -35.815002 0.249380
196.074036 -92.140808 -35.815002 0.140794
209.557312 -92.140808 -35.815002 0.176805
223.040588 -92.140808 -35.815002 0.244926
236.523926 -92.140808 -35.815002 0.219567
250.007202 -92.140808 -35.815002 0.140489
263.490540 -92.140808 -35.815002 0.177243
276.973816 -92.140808 -35.815002 0.246063
290.457092 -92.140808 -35.815002 0.699667
303.940430 -92.140808 -35.815002 1.102956
317.423706 -92.140808 -35.815002 0.816212
330.907043 -92.140808 -35.815002 0.000000
344.390320 -92.140808 -35.815002 0.000000
-343.257996 -105.624115 -35.815002 0.000000
-329.774689 -105.624115 -35.815002 0.000000
-316.291382 -105.624115 -35.815002 0.000000
-302.808105 -105.624115 -35.815002 0.554038
-289.324799 -105.624115 -35.815002 1.214744
-275.841492 -105.624115 -35.815002 0.427654
-262.358185 -105.624115 -35.815002 1.101734
-248.874893 -105.624115 -35.815002 1.089107
-235.391602 -105.624115 -35.815002 0.000000
-221.908295 -105.624115 -35.815002 0.000000
-208.424988 -105.624115 -35.815002 0.000000
-194.941696 -105.624115 -35.815002 0.000000
-181.458389 -105.624115 -35.815002 0.000000
-167.975098 -105.624115 -35.815002 0.000000
-154.491791 -105.624115 -35.815002 2.626765
-141.008499 -105.624115 -35.815002 2.635103
-127.525192 -105.624115 -35.815002 2.981461
-114.041885 -105.624115 -35.815002 2.339801
-100.558594 -105.624115 -35.815002 2.788853
-87.075287 -105.624115 -35.815002 2.866943
-73.591980 -105.624115 -35.815002 2.894381
-60.108704 -105.624115 -35.815002 3.569570
-46.625397 -105.624115 -35.815002 3.546901
-33.142090 -105.624115 -35.815002 3.180642
-19.658783 -105.624115 -35.815002 3.228143
-6.175476 -105.624115 -35.815002 3.114081
7.307800 -105.624115 -35.815002 3.432484
20.791107 -105.624115 -35.815002 3.115376
34.274414 -105.624115 -35.815002 2.528671
47.757721 -105.624115 -35.815002 1.957256
61.240997 -105.624115 -35.815002 1.439404
74.724304 -105.624115 -35.815002 1.188009
88.207611 -105.624115 -35.815002 0.770096
101.690918 -105.624115 -35.815002 0.768743
115.174225 -105.624115 -35.815002 0.634800
128.657501 -105.624115 -35.815002 0.519044
142.140808 -105.624115 -35.815002 0.544990
155.624115 -105.624115 -35.815002 0.376457
169.107422 -105.624115 -35.815002 0.360920
182.590698 -105.624115 -35.815002 0.253907
196.074036 -105.624115 -35.815002 0.187304
209.557312 -105.624115 -35.815002 0.093300
223.040588 -105.624115 -35.815002 0.130668
236.523926 -105.624115 -35.815002 0.414409
250.007202 -105.624115 -35.815002 0.625655
263.490540 -105.624115 -35.815002 0.439982
276.973816 -105.624115 -35.815002 0.874038
290.457092 -105.624115 -35.815002 0.573647
303.940430 -105.624115 -35.815002 0.704496
317.423706 -105.624115 -35.815002 0.493276
330.907043 -105.624115 -35.815002 0.000000
344.390320 -105.624115 -35.815002 0.000000
-343.257996 -119.107422 -35.815002 0.000000
-329.774689 -119.107422 -35.815002 0.000000
-316.291382 -119.107422 -35.815002 0.000000
-302.808105 -119.107422 -35.815002 0.000000
-289.324799 -119.107422 -35.815002 3.045872
-275.841492 -119.107422 -35.815002 3.576125
-262.358185 -119.107422 -35.815002 1.762478
-248.874893 -119.107422 -35.815002 2.381992
-235.391602 -119.107422 -35.815002 0.000000
-221.908295 -119.107422 -35.815002 0.000000
-208.424988 -119.107422 -35.815002 0.000000
-194.941696 -119.107422 -35.815002 0.000000
-181.458389 -119.107422 -35.815002 0.000000
-167.975098 -119.107422 -35.815002 0.000000
-154.491791 -119.107422 -35.815002 1.077951
-141.008499 -119.107422 -35.815002 2.704915
-127.525192 -119.107422 -35.815002 0.914139
-114.041885 -119.107422 -35.815002 1.833070
-100.558594 -119.107422 -35.815002 1.555513
-87.075287 -119.107422 -35.815002 2.904088
-73.591980 -119.107422 -35.815002 3.170249
-60.108704 -119.107422 -35.815002 3.679323
-46.625397 -119.107422 -35.815002 2.864289
-33.142090 -119.107422 -35.815002 2.721221
-19.658783 -119.107422 -35.815002 2.527271
-6.175476 -119.107422 -35.815002 2.894803
7.307800 -119.107422 -35.815002 2.992952
20.791107 -119.107422 -35.815002 2.616318
34.274414 -119.107422 -35.815002 2.283014
47.757721 -119.107422 -35.815002 1.857401
61.240997 -119.107422 -35.815002 1.066160
74.724304 -119.107422 -35.815002 0.784576
88.207611 -119.107422 -35.815002 0.694220
101.690918 -119.107422 -35.815002 0.557695
115.174225 -119.107422 -35.815002 0.598033
128.657501 -119.107422 -35.815002 0.529770
142.140808 -119.107422 -35.815002 0.549695
155.624115 -119.107422 -35.815002 0.538164
169.107422 -119.107422 -35.815002 0.451688
182.590698 -119.107422 -35.815002 0.299647
196.074036 -119.107422 -35.815002 0.451728
209.557312 -119.107422 -35.815002 0.459677
223.040588 -119.107422 -35.815002 0.288798
236.523926 -119.107422 -35.815002 0.680607
250.007202 -119.107422 -35.815002 0.489949
263.490540 -119.107422 -35.815002 0.756866
276.973816 -119.107422 -35.815002 0.116465
290.457092 -119.107422 -35.815002 0.600299
303.940430 -119.107422 -35.815002 -0.571463
317.423706 -119.107422 -35.815002 0.000000
330.907043 -119.107422 -35.815002 0.000000
344.390320 -119.107422 -35.815002 0.000000
-343.257996 -132.590698 -35.815002 0.000000
-329.774689 -132.590698 -35.815002 0.000000
-316.291382 -132.590698 -35.815002 0.000000
-302.808105 -132.590698 -35.815002 0.000000
-289.324799 -132.590698 -35.815002 2.425458
-275.841492 -132.590698 -35.815002 0.000000
-262.358185 -132.590698 -35.815002 -1.821019
-248.874893 -132.590698 -35.815002 0.000000
-235.391602 -132.590698 -35.815002 0.000000
-221.908295 -132.590698 -35.815002 0.000000
-208.424988 -132.590698 -35.815002 0.000000
-194.941696 -132.590698 -35.815002 0.000000
-181.458389 -132.590698 -35.815002 0.000000
-167.975098 -132.590698 -35.815002 0.000000
-154.491791 -132.590698 -35.815002 4.174909
-141.008499 -132.590698 -35.815002 0.000000
-127.525192 -132.590698 -35.815002 -0.622009
-114.041885 -132.590698 -35.815002 0.000000
-100.558594 -132.590698 -35.815002 0.796547
-87.075287 -132.590698 -35.815002 2.722476
-73.591980 -132.590698 -35.815002 3.111569
-60.108704 -132.590698 -35.815002 2.506218
-46.625397 -132.590698 -35.815002 2.835129
-33.142090 -132.590698 -35.815002 2.468889
-19.658783 -132.590698 -35.815002 2.337211
-6.175476 -132.590698 -35.815002 2.009019
7.307800 -132.590698 -35.815002 2.545368
20.791107 -132.590698 -35.815002 2.316524
34.274414 -132.590698 -35.815002 2.036170
47.757721 -132.590698 -35.815002 1.428286
61.240997 -132.590698 -35.815002 0.954757
74.724304 -132.590698 -35.815002 0.634332
88.207611 -132.590698 -35.815002 0.701108
101.690918 -132.590698 -35.815002 0.824082
115.174225 -132.590698 -35.815002 0.402929
128.657501 -132.590698 -35.815002 0.538944
142.140808 -132.590698 -35.815002 0.657033
155.624115 -132.590698 -35.815002 0.634553
169.107422 -132.590698 -35.815002 0.500432
182.590698 -132.590698 -35.815002 0.332757
196.074036 -132.590698 -35.815002 0.587820
209.557312 -132.590698 -35.815002 1.037168
223.040588 -132.590698 -35.815002 1.205974
236.523926 -132.590698 -35.815002 1.159600
250.007202 -132.590698 -35.815002 0.715242
263.490540 -132.590698 -35.815002 1.471361
276.973816 -132.590698 -35.815002 1.081360
290.457092 -132.590698 -35.815002 1.566975
303.940430 -132.590698 -35.815002 0.000000
317.423706 -132.590698 -35.815002 0.000000
330.907043 -132.590698 -35.815002 0.000000
344.390320 -132.590698 -35.815002 0.000000
-343.257996 -146.074036 -35.815002 0.000000
-329.774689 -146.074036 -35.815002 0.000000
-316.291382 -146.074036 -35.815002 0.000000
-302.808105 -146.074036 -35.815002 0.000000
-289.324799 -146.074036 -35.815002 0.000000
-275.841492 -146.074036 -35.815002 0.000000
-262.358185 -146.074036 -35.815002 0.000000
-248.874893 -146.074036 -35.815002 0.000000
-235.391602 -146.074036 -35.815002 0.000000
-221.908295 -146.074036 -35.815002 0.000000
-208.424988 -146.074036 -35.815002 0.000000
-194.941696 -146.074036 -35.815002 0.000000
-181.458389 -146.074036 -35.815002 0.000000
-167.975098 -146.074036 -35.815002 0.000000
-154.491791 -146.074036 -35.815002 0.000000
-141.008499 -146.074036 -35.815002 0.000000
-127.525192 -146.074036 -35.815002 0.000000
-114.041885 -146.074036 -35.815002 0.000000
-100.558594 -146.074036 -35.815002 0.000000
-87.075287 -146.074036 -35.815002 0.000000
-73.591980 -146.074036 -35.815002 0.000000
-60.108704 -146.074036 -35.815002 0.000000
-46.625397 -146.074036 -35.815002 2.322304
-33.142090 -146.074036 -35.815002 2.435818
-19.658783 -146.074036 -35.815002 1.977943
-6.175476 -146.074036 -35.815002 2.556163
7.307800 -146.074036 -35.815002 2.262765
20.791107 -146.074036 -35.815002 2.315623
34.274414 -146.074036 -35.815002 2.171504
47.757721 -146.074036 -35.815002 0.000000
61.240997 -146.074036 -35.815002 0.000000
74.724304 -146.074036 -35.815002 0.000000
88.207611 -146.074036 -35.815002 0.000000
101.690918 -146.074036 -35.815002 0.473974
115.174225 -146.074036 -35.815002 0.452993
128.657501 -146.074036 -35.815002 0.646026
142.140808 -146.074036 -35.815002 0.624308
155.624115 -146.074036 -35.815002 0.839231
169.107422 -146.074036 -35.815002 0.538995
182.590698 -146.074036 -35.815002 0.000000
196.074036 -146.074036 -35.815002 0.000000
209.557312 -146.074036 -35.815002 0.000000
223.040588 -146.074036 -35.815002 0.000000
236.523926 -146.074036 -35.815002 0.000000
250.007202 -146.074036 -35.815002 0.000000
263.490540 -146.074036 -35.815002 0.000000
276.973816 -146.074036 -35.815002 0.000000
290.457092 -146.074036 -35.815002 0.000000
303.940430 -146.074036 -35.815002 0.000000
317.423706 -146.074036 -35.815002 0.000000
330.907043 -146.074036 -35.815002 0.000000
344.390320 -146.074036 -35.815002 0.000000
-343.257996 -159.557312 -35.815002 0.000000
-329.774689 -159.557312 -35.815002 0.000000
-316.291382 -159.557312 -35.815002 0.000000
-302.808105 -159.557312 -35.815002 0.000000
-289.324799 -159.557312 -35.815002 0.000000
-275.841492 -159.557312 -35.815002 0.000000
-262.358185 -159.557312 -35.815002 0.000000
-248.874893 -159.557312 -35.815002 0.000000
-235.391602 -159.557312 -35.815002 0.000000
-221.908295 -159.557312 -35.815002 0.000000
-208.424988 -159.557312 -35.815002 0.000000
-194.941696 -159.557312 -35.815002 0.000000
-181.458389 -159.557312 -35.815002 0.000000
-167.975098 -159.557312 -35.815002 0.000000
-154.491791 -159.557312 -35.815002 0.000000
-141.008499 -159.557312 -35.815002 0.000000
-127.525192 -159.557312 -35.815002 0.000000
-114.041885 -159.557312 -35.815002 0.000000
-100.558594 -159.557312 -35.815002 0.000000
-87.075287 -159.557312 -35.815002 0.000000
-73.591980 -159.557312 -35.815002 0.000000
-60.108704 -159.557312 -35.815002 0.000000
-46.625397 -159.557312 -35.815002 0.000000
-33.142090 -159.557312 -35.815002 0.000000
-19.658783 -159.557312 -35.815002 0.000000
-6.175476 -159.557312 -35.815002 0.000000
7.307800 -159.557312 -35.815002 0.000000
20.791107 -159.557312 -35.815002 0.000000
34.274414 -159.557312 -35.815002 0.000000
47.757721 -159.557312 -35.815002 0.000000
61.240997 -159.557312 -35.815002 0.000000
74.724304 -159.557312 -35.815002 0.000000
88.207611 -159.557312 -35.815002 0.000000
101.690918 -159.557312 -35.815002 0.000000
115.174225 -159.557312 -35.815002 0.000000
128.657501 -159.557312 -35.815002 0.000000
142.140808 -159.557312 -35.815002 0.000000
155.624115 -159.557312 -35.815002 0.000000
169.107422 -159.557312 -35.815002 0.000000
182.590698 -159.557312 -35.815002 0.000000
196.074036 -159.557312 -35.815002 0.000000
209.557312 -159.557312 -35.815002 0.000000
223.040588 -159.557312 -35.815002 0.000000
236.523926 -159.557312 -35.815002 0.000000
250.007202 -159.557312 -35.815002 0.000000
263.490540 -159.557312 -35.815002 0.000000
276.973816 -159.557312 -35.815002 0.000000
290.457092 -159.557312 -35.815002 0.000000
303.940430 -159.557312 -35.815002 0.000000
317.423706 -159.557312 -35.815002 0.000000
330.907043 -159.557312 -35.815002 0.000000
344.390320 -159.557312 -35.815002 0.000000
-343.257996 -173.040588 -35.815002 0.000000
-329.774689 -173.040588 -35.815002 0.000000
-316.291382 -173.040588 -35.815002 0.000000
-302.808105 -173.040588 -35.815002 0.000000
-289.324799 -173.040588 -35.815002 0.000000
-275.841492 -173.040588 -35.815002 0.000000
-262.358185 -173.040588 -35.815002 0.000000
-248.874893 -173.040588 -35.815002 0.000000
-235.391602 -173.040588 -35.815002 0.000000
-221.908295 -173.040588 -35.815002 0.000000
-208.424988 -173.040588 -35.815002 0.000000
-194.941696 -173.040588 -35.815002 0.000000
-181.458389 -173.040588 -35.815002 0.000000
-167.975098 -173.040588 -35.815002 0.000000
-154.491791 -173.040588 -35.815002 0.000000
-141.008499 -173.040588 -35.815002 0.000000
-127.525192 -173.040588 -35.815002 0.000000
-114.041885 -173.040588 -35.815002 0.000000
-100.558594 -173.040588 -35.815002 0.000000
-87.075287 -173.040588 -35.815002 0.000000
-73.591980 -173.040588 -35.815002 0.000000
-60.108704 -173.040588 -35.815002 0.000000
-46.625397 -173.040588 -35.815002 0.000000
-33.142090 -173.040588 -35.815002 0.000000
-19.658783 -173.040588 -35.815002 0.000000
-6.175476 -173.040588 -35.815002 0.000000
7.307800 -173.040588 -35.815002 0.000000
20.791107 -173.040588 -35.815002 0.000000
34.274414 -173.040588 -35.815002 0.000000
47.757721 -173.040588 -35.815002 0.000000
61.240997 -173.040588 -35.815002 0.000000
74.724304 -173.040588 -35.815002 0.000000
88.207611 -173.040588 -35.815002 0.000000
101.690918 -173.040588 -35.815002 0.000000
115.174225 -173.040588 -35.815002 0.000000
128.657501 -173.040588 -35.815002 0.000000
142.140808 -173.040588 -35.815002 0.000000
155.624115 -173.040588 -35.815002 0.000000
169.107422 -173.040588 -35.815002 0.000000
182.590698 -173.040588 -35.815002 0.000000
196.074036 -173.040588 -35.815002 0.000000
209.557312 -173.040588 -35.815002 0.000000
223.040588 -173.040588 -35.815002 0.000000
236.523926 -173.040588 -35.815002 0.000000
250.007202 -173.040588 -35.815002 0.000000
263.490540 -173.040588 -35.815002 0.000000
276.973816 -173.040588 -35.815002 0.000000
290.457092 -173.040588 -35.815002 0.000000
303.940430 -173.040588 -35.815002 0.000000
317.423706 -173.040588 -35.815002 0.000000
330.907043 -173.040588 -35.815002 0.000000
344.390320 -173.040588 -35.815002 0.000000
-343.257996 -186.523926 -35.815002 0.000000
-329.774689 -186.523926 -35.815002 0.000000
-316.291382 -186.523926 -35.815002 0.000000
-302.808105 -186.523926 -35.815002 0.000000
-289.324799 -186.523926 -35.815002 0.000000
-275.841492 -186.523926 -35.815002 0.000000
-262.358185 -186.523926 -35.815002 0.000000
-248.874893 -186.523926 -35.815002 0.000000
-235.391602 -186.523926 -35.815002 0.000000
-221.908295 -186.523926 -35.815002 0.000000
-208.424988 -186.523926 -35.815002 0.000000
-194.941696 -186.523926 -35.815002 0.000000
-181.458389 -186.523926 -35.815002 0.000000
-167.975098 -186.523926 -35.815002 0.000000
-154.491791 -186.523926 -35.815002 0.000000
-141.008499 -186.523926 -35.815002 0.000000
-127.525192 -186.523926 -35.815002 0.000000
-114.041885 -186.523926 -35.815002 0.000000
-100.558594 -186.523926 -35.815002 0.000000
-87.075287 -186.523926 -35.815002 0.000000
-73.591980 -186.523926 -35.815002 0.000000
-60.108704 -186.523926 -35.815002 0.000000
-46.625397 -186.523926 -35.815002 0.000000
-33.142090 -186.523926 -35.815002 0.000000
-19.658783 -186.523926 -35.815002 0.000000
-6.175476 -186.523926 -35.815002 0.000000
7.307800 -186.523926 -35.815002 0.000000
20.791107 -186.523926 -35.815002 0.000000
34.274414 -186.523926 -35.815002 0.000000
47.757721 -186.523926 -35.815002 0.000000
61.240997 -186.523926 -35.815002 0.000000
74.724304 -186.523926 -35.815002 0.000000
88.207611 -186.523926 -35.815002 0.000000
101.690918 -186.523926 -35.815002 0.000000
115.174225 -186.523926 -35.815002 0.000000
128.657501 -186.523926 -35.815002 0.000000
142.140808 -186.523926 -35.815002 0.000000
155.624115 -186.523926 -35.815002 0.000000
169.107422 -186.523926 -35.815002 0.000000
182.590698 -186.523926 -35.815002 0.000000
196.074036 -186.523926 -35.815002 0.000000
209.557312 -186.523926 -35.815002 0.000000
223.040588 -186.523926 -35.815002 0.000000
236.523926 -186.523926 -35.815002 0.000000
250.007202 -186.523926 -35.815002 0.000000
263.490540 -186.523926 -35.815002 0.000000
276.973816 -186.523926 -35.815002 0.000000
290.457092 -186.523926 -35.815002 0.000000
303.940430 -186.523926 -35.815002 0.000000
317.423706 -186.523926 -35.815002 0.000000
330.907043 -186.523926 -35.815002 0.000000
344.390320 -186.523926 -35.815002 0.000000
-343.257996 -200.007202 -35.815002 0.000000
-329.774689 -200.007202 -35.815002 0.000000
-316.291382 -200.007202 -35.815002 0.000000
-302.808105 -200.007202 -35.815002 0.000000
-289.324799 -200.007202 -35.815002 0.000000
-275.841492 -200.007202 -35.815002 0.000000
-262.358185 -200.007202 -35.815002 0.000000
-248.874893 -200.007202 -35.815002 0.000000
-235.391602 -200.007202 -35.815002 0.000000
-221.908295 -200.007202 -35.815002 0.000000
-208.424988 -200.007202 -35.815002 0.000000
-194.941696 -200.007202 -35.815002 0.000000
-181.458389 -200.007202 -35.815002 0.000000
-167.975098 -200.007202 -35.815002 0.000000
-154.491791 -200.007202 -35.815002 0.000000
-141.008499 -200.007202 -35.815002 0.000000
-127.525192 -200.007202 -35.815002 0.000000
-114.041885 -200.007202 -35.815002 0.000000
-100.558594 -200.007202 -35.815002 0.000000
-87.075287 -200.007202 -35.815002 0.000000
-73.591980 -200.007202 -35.815002 0.000000
-60.108704 -200.007202 -35.815002 0.000000
-46.625397 -200.007202 -35.815002 0.000000
-33.142090 -200.007202 -35.815002 0.000000
-19.658783 -200.007202 -35.815002 0.000000
-6.175476 -200.007202 -35.815002 0.000000
7.307800 -200.007202 -35.815002 0.000000
20.791107 -200.007202 -35.815002 0.000000
34.274414 -200.007202 -35.815002 0.000000
47.757721 -200.007202 -35.815002 0.000000
61.240997 -200.007202 -35.815002 0.000000
74.724304 -200.007202 -35.815002 0.000000
88.207611 -200.007202 -35.815002 0.000000
101.690918 -200.007202 -35.815002 0.000000
115.174225 -200.007202 -35.815002 0.000000
128.657501 -200.007202 -35.815002 0.000000
142.140808 -200.007202 -35.815002 0.000000
155.624115 -200.007202 -35.815002 0.000000
169.107422 -200.007202 -35.815002 0.000000
182.590698 -200.007202 -35.815002 0.000000
196.074036 -200.007202 -35.815002 0.000000
209.557312 -200.007202 -35.815002 0.000000
223.040588 -200.007202 -35.815002 0.000000
236.523926 -200.007202 -35.815002 0.000000
250.007202 -200.007202 -35.815002 0.000000
263.490540 -200.007202 -35.815002 0.000000
276.973816 -200.007202 -35.815002 0.000000
290.457092 -200.007202 -35.815002 0.000000
303.940430 -200.007202 -35.815002 0.000000
317.423706 -200.007202 -35.815002 0.000000
330.907043 -200.007202 -35.815002 0.000000
344.390320 -200.007202 -35.815002 0.000000
-343.257996 393.257996 -22.331701 0.000000
-329.774689 393.257996 -22.331701 0.000000
-316.291382 393.257996 -22.331701 0.000000
-302.808105 393.257996 -22.331701 0.000000
-289.324799 393.257996 -22.331701 0.000000
-275.841492 393.257996 -22.331701 0.000000
-262.358185 393.257996 -22.331701 0.000000
-248.874893 393.257996 -22.331701 0.000000
-235.391602 393.257996 -22.331701 0.000000
-221.908295 393.257996 -22.331701 0.000000
-208.424988 393.257996 -22.331701 0.000000
-194.941696 393.257996 -22.331701 0.000000
-181.458389 393.257996 -22.331701 0.000000
-167.975098 393.257996 -22.331701 0.000000
-154.491791 393.257996 -22.331701 0.000000
-141.008499 393.257996 -22.331701 0.000000
-127.525192 393.257996 -22.331701 0.000000
-114.041885 393.257996 -22.331701 0.000000
-100.558594 393.257996 -22.331701 0.000000
-87.075287 393.257996 -22.331701 0.000000
-73.591980 393.257996 -22.331701 0.000000
-60.108704 393.257996 -22.331701 0.000000
-46.625397 393.257996 -22.331701 0.000000
-33.142090 393.257996 -22.331701 0.000000
-19.658783 393.257996 -22.331701 0.000000
-6.175476 393.257996 -22.331701 0.000000
7.307800 393.257996 -22.331701 0.000000
20.791107 393.257996 -22.331701 0.000000
34.274414 393.257996 -22.331701 0.000000
47.757721 393.257996 -22.331701 0.000000
61.240997 393.257996 -22.331701 0.000000
74.724304 393.257996 -22.331701 0.000000
88.207611 393.257996 -22.331701 0.000000
101.690918 393.257996 -22.331701 0.000000
115.174225 393.257996 -22.331701 0.000000
128.657501 393.257996 -22.331701 0.000000
142.140808 393.257996 -22.331701 0.000000
155.624115 393.257996 -22.331701 0.000000
169.107422 393.257996 -22.331701 0.000000
182.590698 393.257996 -22.331701 0.000000
196.074036 393.257996 -22.331701 0.000000
209.557312 393.257996 -22.331701 0.000000
223.040588 393.257996 -22.331701 0.000000
236.523926 393.257996 -22.331701 0.000000
250.007202 393.257996 -22.331701 0.000000
263.490540 393.257996 -22.331701 0.000000
276.973816 393.257996 -22.331701 0.000000
290.457092 393.257996 -22.331701 0.000000
303.940430 393.257996 -22.331701 0.000000
317.423706 393.257996 -22.331701 0.000000
330.907043 393.257996 -22.331701 0.000000
344.390320 393.257996 -22.331701 0.000000
-343.257996 379.774689 -22.331701 0.000000
-329.774689 379.774689 -22.331701 0.000000
-316.291382 379.774689 -22.331701 0.000000
-302.808105 379.774689 -22.331701 0.000000
-289.324799 379.774689 -22.331701 0.000000
-275.841492 379.774689 -22.331701 0.000000
-262.358185 379.774689 -22.331701 0.000000
-248.874893 379.774689 -22.331701 0.000000
-235.391602 379.774689 -22.331701 0.000000
-221.908295 379.774689 -22.331701 0.000000
-208.424988 379.774689 -22.331701 0.000000
-194.941696 379.774689 -22.331701 0.000000
-181.458389 379.774689 -22.331701 0.000000
-167.975098 379.774689 -22.331701 0.000000
-154.491791 379.774689 -22.331701 0.000000
-141.008499 379.774689 -22.331701 0.000000
-127.525192 379.774689 -22.331701 0.000000
-114.041885 379.774689 -22.331701 0.000000
-100.558594 379.774689 -22.331701 0.000000
-87.075287 379.774689 -22.331701 0.000000
-73.591980 379.774689 -22.331701 0.000000
-60.108704 379.774689 -22.331701 0.000000
-46.625397 379.774689 -22.331701 0.000000
-33.142090 379.774689 -22.331701 0.000000
-19.658783 379.774689 -22.331701 0.000000
-6.175476 379.774689 -22.331701 0.000000
7.307800 379.774689 -22.331701 0.000000
20.791107 379.774689 -22.331701 0.000000
34.274414 379.774689 -22.331701 0.000000
47.757721 379.774689 -22.331701 0.000000
61.240997 379.774689 -22.331701 0.000000
74.724304 379.774689 -22.331701 0.000000
88.207611 379.774689 -22.331701 0.000000
101.690918 379.774689 -22.331701 0.000000
115.174225 379.774689 -22.331701 0.000000
128.657501 379.774689 -22.331701 0.000000
142.140808 379.774689 -22.331701 0.000000
155.624115 379.774689 -22.331701 0.000000
169.107422 379.774689 -22.331701 0.000000
182.590698 379.774689 -22.331701 0.000000
196.074036 379.774689 -22.331701 0.000000
209.557312 379.774689 -22.331701 0.000000
223.040588 379.774689 -22.331701 0.000000
236.523926 379.774689 -22.331701 0.000000
250.007202 379.774689 -22.331701 0.000000
263.490540 379.774689 -22.331701 0.000000
276.973816 379.774689 -22.331701 0.000000
290.457092 379.774689 -22.331701 0.000000
303.940430 379.774689 -22.331701 0.000000
317.423706 379.774689 -22.331701 0.000000
330.907043 379.774689 -22.331701 0.000000
344.390320 379.774689 -22.331701 0.000000
-343.257996 366.291382 -22.331701 0.000000
-329.774689 366.291382 -22.331701 0.000000
-316.291382 366.291382 -22.331701 0.000000
-302.808105 366.291382 -22.331701 0.000000
-289.324799 366.291382 -22.331701 0.000000
-275.841492 366.291382 -22.331701 0.000000
-262.358185 366.291382 -22.331701 0.000000
-248.874893 366.291382 -22.331701 0.000000
-235.391602 366.291382 -22.331701 0.000000
-221.908295 366.291382 -22.331701 0.000000
-208.424988 366.291382 -22.331701 0.000000
-194.941696 366.291382 -22.331701 0.000000
-181.458389 366.291382 -22.331701 0.000000
-167.975098 366.291382 -22.331701 0.000000
-154.491791 366.291382 -22.331701 0.000000
-141.008499 366.291382 -22.331701 0.000000
-127.525192 366.291382 -22.331701 0.000000
-114.041885 366.291382 -22.331701 0.000000
-100.558594 366.291382 -22.331701 0.000000
-87.075287 366.291382 -22.331701 0.000000
-73.591980 366.291382 -22.331701 0.000000
-60.108704 366.291382 -22.331701 0.000000
-46.625397 366.291382 -22.331701 0.000000
-33.142090 366.291382 -22.331701 0.000000
-19.658783 366.291382 -22.331701 0.000000
-6.175476 366.291382 -22.331701 0.000000
7.307800 366.291382 -22.331701 0.000000
20.791107 366.291382 -22.331701 -0.477623
34.274414 366.291382 -22.331701 0.000000
47.757721 366.291382 -22.331701 -0.422951
61.240997 366.291382 -22.331701 -0.245962
74.724304 366.291382 -22.331701 -0.217557
88.207611 366.291382 -22.331701 -0.257851
101.690918 366.291382 -22.331701 -0.296628
115.174225 366.291382 -22.331701 -0.599427
128.657501 366.291382 -22.331701 0.000000
142.140808 366.291382 -22.331701 0.000000
155.624115 366.291382 -22.331701 0.000000
169.107422 366.291382 -22.331701 0.000000
182.590698 366.291382 -22.331701 0.000000
196.074036 366.291382 -22.331701 0.000000
209.557312 366.291382 -22.331701 0.000000
223.040588 366.291382 -22.331701 0.000000
236.523926 366.291382 -22.331701 0.000000
250.007202 366.291382 -22.331701 0.000000
263.490540 366.291382 -22.331701 0.000000
276.973816 366.291382 -22.331701 0.000000
290.457092 366.291382 -22.331701 0.000000
303.940430 366.291382 -22.331701 0.000000
317.423706 366.291382 -22.331701 0.000000
330.907043 366.291382 -22.331701 0.000000
344.390320 366.291382 -22.331701 0.000000
-343.257996 352.808105 -22.331701 0.000000
-329.774689 352.808105 -22.331701 0.000000
-316.291382 352.808105 -22.331701 0.000000
-302.808105 352.808105 -22.331701 0.000000
-289.324799 352.808105 -22.331701 0.000000
-275.841492 352.808105 -22.331701 0.000000
-262.358185 352.808105 -22.331701 0.000000
-248.874893 352.808105 -22.331701 0.000000
-235.391602 352.808105 -22.331701 0.000000
-221.908295 352.808105 -22.331701 -0.908225
-208.424988 352.808105 -22.331701 -1.332270
-194.941696 352.808105 -22.331701 -1.576344
-181.458389 352.808105 -22.331701 -2.223269
-167.975098 352.808105 -22.331701 -2.513982
-154.491791 352.808105 -22.331701 -2.756179
-141.008499 352.808105 -22.331701 -3.213181
-127.525192 352.808105 -22.331701 -3.755625
-114.041885 352.808105 -22.331701 -3.849972
-100.558594 352.808105 -22.331701 -3.773249
-87.075287 352.808105 -22.331701 -4.116336
-73.591980 352.808105 -22.331701 -4.131029
-60.108704 352.808105 -22.331701 -3.837269
-46.625397 352.808105 -22.331701 -2.131732
-33.142090 352.808105 -22.331701 -1.306509
-19.658783 352.808105 -22.331701 -0.817836
-6.175476 352.808105 -22.331701 -0.624552
7.307800 352.808105 -22.331701 -0.530415
20.791107 352.808105 -22.331701 -0.493282
34.274414 352.808105 -22.331701 -0.459893
47.757721 352.808105 -22.331701 -0.310692
61.240997 352.808105 -22.331701 -0.157587
74.724304 352.808105 -22.331701 -0.188586
88.207611 352.808105 -22.331701 -0.356795
101.690918 352.808105 -22.331701 -0.379348
115.174225 352.808105 -22.331701 -0.829185
128.657501 352.808105 -22.331701 -1.380211
142.140808 352.808105 -22.331701 -1.436855
155.624115 352.808105 -22.331701 -1.373978
169.107422 352.808105 -22.331701 -1.304865
182.590698 352.808105 -22.331701 -1.725127
196.074036 352.808105 -22.331701 -1.206428
209.557312 352.808105 -22.331701 0.000000
223.040588 352.808105 -22.331701 0.000000
236.523926 352.808105 -22.331701 0.000000
250.007202 352.808105 -22.331701 0.000000
263.490540 352.808105 -22.331701 0.000000
276.973816 352.808105 -22.331701 0.000000
290.457092 352.808105 -22.331701 0.000000
303.940430 352.808105 -22.331701 0.000000
317.423706 352.808105 -22.331701 0.000000
330.907043 352.808105 -22.331701 0.000000
344.390320 352.808105 -22.331701 0.000000
-343.257996 339.324799 -22.331701 0.000000
-329.774689 339.324799 -22.331701 0.000000
-316.291382 339.324799 -22.331701 0.000000
-302.808105 339.324799 -22.331701 0.000000
-289.324799 339.324799 -22.331701 0.000000
-275.841492 339.324799 -22.331701 0.035349
-262.358185 339.324799 -22.331701 -0.360654
-248.874893 339.324799 -22.331701 -0.317936
-235.391602 339.324799 -22.331701 -0.834503
-221.908295 339.324799 -22.331701 -0.942908
-208.424988 339.324799 -22.331701 -1.227196
-194.941696 339.324799 -22.331701 -1.474556
-181.458389 339.324799 -22.331701 -1.831852
-167.975098 339.324799 -22.331701 -2.076462
-154.491791 339.324799 -22.331701 -2.263796
-141.008499 339.324799 -22.331701 -2.646453
-127.525192 339.324799 -22.331701 -3.127942
-114.041885 339.324799 -22.331701 -3.796103
-100.558594 339.324799 -22.331701 -3.913363
-87.075287 339.324799 -22.331701 -3.796991
-73.591980 339.324799 -22.331701 -3.919243
-60.108704 339.324799 -22.331701 -3.437466
-46.625397 339.324799 -22.331701 -2.828122
-33.142090 339.324799 -22.331701 -2.007077
-19.658783 339.324799 -22.331701 -1.013844
-6.175476 339.324799 -22.331701 -0.652401
7.307800 339.324799 -22.331701 -0.689906
20.791107 339.324799 -22.331701 -0.478766
34.274414 339.324799 -22.331701 -0.458380
47.757721 339.324799 -22.331701 -0.368860
61.240997 339.324799 -22.331701 -0.223222
74.724304 339.324799 -22.331701 -0.258949
88.207611 339.324799 -22.331701 -0.745114
101.690918 339.324799 -22.331701 -1.039924
115.174225 339.324799 -22.331701 -1.469892
128.657501 339.324799 -22.331701 -1.634625
142.140808 339.324799 -22.331701 -1.630016
155.624115 339.324799 -22.331701 -1.404284
169.107422 339.324799 -22.331701 -1.191916
182.590698 339.324799 -22.331701 -1.249325
196.074036 339.324799 -22.331701 -1.116496
209.557312 339.324799 -22.331701 -1.130879
223.040588 339.324799 -22.331701 -1.078397
236.523926 339.324799 -22.331701 -1.289086
250.007202 339.324799 -22.331701 -0.915025
263.490540 339.324799 -22.331701 -1.519576
276.973816 339.324799 -22.331701 0.000000
290.457092 339.324799 -22.331701 0.000000
303.940430 339.324799 -22.331701 0.000000
317.423706 339.324799 -22.331701 0.000000
330.907043 339.324799 -22.331701 0.000000
344.390320 339.324799 -22.331701 0.000000
-343.257996 325.841492 -22.331701 0.000000
-329.774689 325.841492 -22.331701 0.000000
-316.291382 325.841492 -22.331701 0.000000
-302.808105 325.841492 -22.331701 0.000000
-289.324799 325.841492 -22.331701 -0.103587
-275.841492 325.841492 -22.331701 -0.013109
-262.358185 325.841492 -22.331701 -0.041149
-248.874893 325.841492 -22.331701 -0.171849
-235.391602 325.841492 -22.331701 -0.488313
-221.908295 325.841492 -22.331701 -0.777895
-208.424988 325.841492 -22.331701 -1.078978
-194.941696 325.841492 -22.331701 -1.260324
-181.458389 325.841492 -22.331701 -1.731795
-167.975098 325.841492 -22.331701 -1.775136
-154.491791 325.841492 -22.331701 -1.777867
-141.008499 325.841492 -22.331701 -2.425827
-127.525192 325.841492 -22.331701 -2.916777
-114.041885 325.841492 -22.331701 -3.008532
-100.558594 325.841492 -22.331701 -3.394527
-87.075287 325.841492 -22.331701 -3.424185
-73.591980 325.841492 -22.331701 -3.645672
-60.108704 325.841492 -22.331701 -3.204809
-46.625397 325.841492 -22.331701 -2.938196
-33.142090 325.841492 -22.331701 -2.206737
-19.658783 325.841492 -22.331701 -1.223305
-6.175476 325.841492 -22.331701 -0.921761
7.307800 325.841492 -22.331701 -0.909280
20.791107 325.841492 -22.331701 -0.677797
34.274414 325.841492 -22.331701 -0.443889
47.757721 325.841492 -22.331701 -0.367651
61.240997 325.841492 -22.331701 -0.346208
74.724304 325.841492 -22.331701 -0.541496
88.207611 325.841492 -22.331701 -1.148753
101.690918 325.841492 -22.331701 -1.952301
115.174225 325.841492 -22.331701 -2.434133
128.657501 325.841492 -22.331701 -2.534952
142.140808 325.841492 -22.331701 -2.440142
155.624115 325.841492 -22.331701 -2.090533
169.107422 325.841492 -22.331701 -1.702769
182.590698 325.841492 -22.331701 -1.691651
196.074036 325.841492 -22.331701 -1.217961
209.557312 325.841492 -22.331701 -1.183019
223.040588 325.841492 -22.331701 -1.052135
236.523926 325.841492 -22.331701 -0.939385
250.007202 325.841492 -22.331701 -0.676573
263.490540 325.841492 -22.331701 -0.412695
276.973816 325.841492 -22.331701 -1.000689
290.457092 325.841492 -22.331701 0.000000
303.940430 325.841492 -22.331701 0.000000
317.423706 325.841492 -22.331701 0.000000
330.907043 325.841492 -22.331701 0.000000
344.390320 325.841492 -22.331701 0.000000
-343.257996 312.358185 -22.331701 0.000000
-329.774689 312.358185 -22.331701 0.000000
-316.291382 312.358185 -22.331701 0.000000
-302.808105 312.358185 -22.331701 -0.050952
-289.324799 312.358185 -22.331701 -0.098402
-275.841492 312.358185 -22.331701 -0.009419
-262.358185 312.358185 -22.331701 -0.191889
-248.874893 312.358185 -22.331701 -0.323779
-235.391602 312.358185 -22.331701 -0.517477
-221.908295 312.358185 -22.331701 -0.617416
-208.424988 312.358185 -22.331701 -0.912609
-194.941696 312.358185 -22.331701 -1.086924
-181.458389 312.358185 -22.331701 -1.709125
-167.975098 312.358185 -22.331701 -1.628655
-154.491791 312.358185 -22.331701 -1.890695
-141.008499 312.358185 -22.331701 -2.279052
-127.525192 312.358185 -22.331701 -2.619911
-114.041885 312.358185 -22.331701 -2.614218
-100.558594 312.358185 -22.331701 -2.649573
-87.075287 312.358185 -22.331701 -2.933692
-73.591980 312.358185 -22.331701 -3.060309
-60.108704 312.358185 -22.331701 -3.002343
-46.625397 312.358185 -22.331701 -2.569968
-33.142090 312.358185 -22.331701 -2.221931
-19.658783 312.358185 -22.331701 -1.561559
-6.175476 312.358185 -22.331701 -1.350010
7.307800 312.358185 -22.331701 -0.998414
20.791107 312.358185 -22.331701 -0.842196
34.274414 312.358185 -22.331701 -0.554238
47.757721 312.358185 -22.331701 -0.617509
61.240997 312.358185 -22.331701 -0.622304
74.724304 312.358185 -22.331701 -1.067241
88.207611 312.358185 -22.331701 -1.930084
101.690918 312.358185 -22.331701 -2.674819
115.174225 312.358185 -22.331701 -3.100798
128.657501 312.358185 -22.331701 -2.898312
142.140808 312.358185 -22.331701 -2.616725
155.624115 312.358185 -22.331701 -2.583724
169.107422 312.358185 -22.331701 -1.924325
182.590698 312.358185 -22.331701 -1.677569
196.074036 312.358185 -22.331701 -1.420168
209.557312 312.358185 -22.331701 -1.081227
223.040588 312.358185 -22.331701 -0.927327
236.523926 312.358185 -22.331701 -0.763326
250.007202 312.358185 -22.331701 -0.399803
263.490540 312.358185 -22.331701 -0.418796
276.973816 312.358185 -22.331701 -0.506068
290.457092 312.358185 -22.331701 -0.594948
303.940430 312.358185 -22.331701 0.000000
317.423706 312.358185 -22.331701 0.000000
330.907043 312.358185 -22.331701 0.000000
344.390320 312.358185 -22.331701 0.000000
-343.257996 298.874878 -22.331701 0.000000
-329.774689 298.874878 -22.331701 0.000000
-316.291382 298.874878 -22.331701 -0.019972
-302.808105 298.874878 -22.331701 -0.113263
-289.324799 298.874878 -22.331701 -0.012382
-275.841492 298.874878 -22.331701 -0.051082
-262.358185 298.874878 -22.331701 -0.029366
-248.874893 298.874878 -22.331701 -0.171812
-235.391602 298.874878 -22.331701 -0.321008
-221.908295 298.874878 -22.331701 -0.697991
-208.424988 298.874878 -22.331701 -0.989000
-194.941696 298.874878 -22.331701 -0.820891
-181.458389 298.874878 -22.331701 -1.436886
-167.975098 298.874878 -22.331701 -1.555542
-154.491791 298.874878 -22.331701 -1.712081
-141.008499 298.874878 -22.331701 -2.066837
-127.525192 298.874878 -22.331701 -2.184747
-114.041885 298.874878 -22.331701 -1.981689
-100.558594 298.874878 -22.331701 -1.964874
-87.075287 298.874878 -22.331701 -2.101266
-73.591980 298.874878 -22.331701 -1.948316
-60.108704 298.874878 -22.331701 -2.371566
-46.625397 298.874878 -22.331701 -2.590457
-33.142090 298.874878 -22.331701 -2.240139
-19.658783 298.874878 -22.331701 -2.143537
-6.175476 298.874878 -22.331701 -1.574678
7.307800 298.874878 -22.331701 -1.113750
20.791107 298.874878 -22.331701 -0.970843
34.274414 298.874878 -22.331701 -0.922594
47.757721 298.874878 -22.331701 -0.746397
61.240997 298.874878 -22.331701 -0.939527
74.724304 298.874878 -22.331701 -1.538368
88.207611 298.874878 -22.331701 -2.561079
101.690918 298.874878 -22.331701 -3.162806
115.174225 298.874878 -22.331701 -3.657946
128.657501 298.874878 -22.331701 -3.036425
142.140808 298.874878 -22.331701 -2.850434
155.624115 298.874878 -22.331701 -2.311357
169.107422 298.874878 -22.331701 -1.874868
182.590698 298.874878 -22.331701 -1.669984
196.074036 298.874878 -22.331701 -1.282298
209.557312 298.874878 -22.331701 -1.035509
223.040588 298.874878 -22.331701 -0.843506
236.523926 298.874878 -22.331701 -0.532182
250.007202 298.874878 -22.331701 -0.068280
263.490540 298.874878 -22.331701 -0.063556
276.973816 298.874878 -22.331701 -0.148557
290.457092 298.874878 -22.331701 -0.109182
303.940430 298.874878 -22.331701 -0.468467
317.423706 298.874878 -22.331701 0.000000
330.907043 298.874878 -22.331701 0.000000
344.390320 298.874878 -22.331701 0.000000
-343.257996 285.391602 -22.331701 0.000000
-329.774689 285.391602 -22.331701 0.000000
-316.291382 285.391602 -22.331701 -0.069420
-302.808105 285.391602 -22.331701 -0.024701
-289.324799 285.391602 -22.331701 -0.015950
-275.841492 285.391602 -22.331701 -0.078086
-262.358185 285.391602 -22.331701 -0.045846
-248.874893 285.391602 -22.331701 -0.134507
-235.391602 285.391602 -22.331701 -0.490746
-221.908295 285.391602 -22.331701 -0.793588
-208.424988 285.391602 -22.331701 -1.212919
-194.941696 285.391602 -22.331701 -1.151197
-181.458389 285.391602 -22.331701 -1.424059
-167.975098 285.391602 -22.331701 -1.419011
-154.491791 285.391602 -22.331701 -1.768625
-141.008499 285.391602 -22.331701 -2.009570
-127.525192 285.391602 -22.331701 -1.793534
-114.041885 285.391602 -22.331701 -1.526086
-100.558594 285.391602 -22.331701 -1.274417
-87.075287 285.391602 -22.331701 -1.410915
-73.591980 285.391602 -22.331701 -1.163823
-60.108704 285.391602 -22.331701 -1.509086
-46.625397 285.391602 -22.331701 -1.857091
-33.142090 285.391602 -22.331701 -1.820005
-19.658783 285.391602 -22.331701 -1.890518
-6.175476 285.391602 -22.331701 -1.579331
7.307800 285.391602 -22.331701 -1.268785
20.791107 285.391602 -22.331701 -1.194509
34.274414 285.391602 -22.331701 -1.201806
47.757721 285.391602 -22.331701 -0.985025
61.240997 285.391602 -22.331701 -1.191261
74.724304 285.391602 -22.331701 -2.037389
88.207611 285.391602 -22.331701 -3.096091
101.690918 285.391602 -22.331701 -3.286736
115.174225 285.391602 -22.331701 -2.900033
128.657501 285.391602 -22.331701 -2.630635
142.140808 285.391602 -22.331701 -2.309111
155.624115 285.391602 -22.331701 -2.261133
169.107422 285.391602 -22.331701 -2.016507
182.590698 285.391602 -22.331701 -1.995755
196.074036 285.391602 -22.331701 -1.538271
209.557312 285.391602 -22.331701 -1.111810
223.040588 285.391602 -22.331701 -0.855923
236.523926 285.391602 -22.331701 -0.293984
250.007202 285.391602 -22.331701 -0.047537
263.490540 285.391602 -22.331701 0.123865
276.973816 285.391602 -22.331701 0.130392
290.457092 285.391602 -22.331701 -0.072574
303.940430 285.391602 -22.331701 -0.352631
317.423706 285.391602 -22.331701 0.000000
330.907043 285.391602 -22.331701 0.000000
344.390320 285.391602 -22.331701 0.000000
-343.257996 271.908295 -22.331701 0.000000
-329.774689 271.908295 -22.331701 0.000000
-316.291382 271.908295 -22.331701 -0.026807
-302.808105 271.908295 -22.331701 -0.050849
-289.324799 271.908295 -22.331701 -0.047101
-275.841492 271.908295 -22.331701 -0.048969
-262.358185 271.908295 -22.331701 -0.111689
-248.874893 271.908295 -22.331701 -0.205544
-235.391602 271.908295 -22.331701 -0.323659
-221.908295 271.908295 -22.331701 -0.675836
-208.424988 271.908295 -22.331701 -0.902800
-194.941696 271.908295 -22.331701 -1.167692
-181.458389 271.908295 -22.331701 -1.512266
-167.975098 271.908295 -22.331701 -1.401116
-154.491791 271.908295 -22.331701 -1.573125
-141.008499 271.908295 -22.331701 -1.711843
-127.525192 271.908295 -22.331701 -1.648328
-114.041885 271.908295 -22.331701 -1.522602
-100.558594 271.908295 -22.331701 -1.229094
-87.075287 271.908295 -22.331701 -0.713076
-73.591980 271.908295 -22.331701 -0.985847
-60.108704 271.908295 -22.331701 -0.938973
-46.625397 271.908295 -22.331701 -1.424315
-33.142090 271.908295 -22.331701 -1.619590
-19.658783 271.908295 -22.331701 -1.771275
-6.175476 271.908295 -22.331701 -1.643363
7.307800 271.908295 -22.331701 -1.450107
20.791107 271.908295 -22.331701 -1.410795
34.274414 271.908295 -22.331701 -1.320239
47.757721 271.908295 -22.331701 -1.286436
61.240997 271.908295 -22.331701 -1.629944
74.724304 271.908295 -22.331701 -2.510866
88.207611 271.908295 -22.331701 -2.829112
101.690918 271.908295 -22.331701 -2.715625
115.174225 271.908295 -22.331701 -2.294070
128.657501 271.908295 -22.331701 -2.051047
142.140808 271.908295 -22.331701 -1.589900
155.624115 271.908295 -22.331701 -1.728033
169.107422 271.908295 -22.331701 -1.623778
182.590698 271.908295 -22.331701 -1.651114
196.074036 271.908295 -22.331701 -1.566748
209.557312 271.908295 -22.331701 -1.159521
223.040588 271.908295 -22.331701 -0.631036
236.523926 271.908295 -22.331701 -0.237925
250.007202 271.908295 -22.331701 -0.111196
263.490540 271.908295 -22.331701 0.135478
276.973816 271.908295 -22.331701 0.090438
290.457092 271.908295 -22.331701 0.045574
303.940430 271.908295 -22.331701 0.006770
317.423706 271.908295 -22.331701 -0.129162
330.907043 271.908295 -22.331701 0.000000
344.390320 271.908295 -22.331701 0.000000
-343.257996 258.424988 -22.331701 0.000000
-329.774689 258.424988 -22.331701 0.000000
-316.291382 258.424988 -22.331701 -0.021214
-302.808105 258.424988 -22.331701 -0.058722
-289.324799 258.424988 -22.331701 -0.013608
-275.841492 258.424988 -22.331701 -0.025068
-262.358185 258.424988 -22.331701 -0.070489
-248.874893 258.424988 -22.331701 -0.175119
-235.391602 258.424988 -22.331701 -0.365402
-221.908295 258.424988 -22.331701 -0.610433
-208.424988 258.424988 -22.331701 -0.841469
-194.941696 258.424988 -22.331701 -1.057555
-181.458389 258.424988 -22.331701 -1.273901
-167.975098 258.424988 -22.331701 -1.040035
-154.491791 258.424988 -22.331701 -1.082085
-141.008499 258.424988 -22.331701 -1.475869
-127.525192 258.424988 -22.331701 -1.521025
-114.041885 258.424988 -22.331701 -1.227387
-100.558594 258.424988 -22.331701 -1.038237
-87.075287 258.424988 -22.331701 -0.796982
-73.591980 258.424988 -22.331701 -0.898795
-60.108704 258.424988 -22.331701 -0.822246
-46.625397 258.424988 -22.331701 -1.135898
-33.142090 258.424988 -22.331701 -1.704176
-19.658783 258.424988 -22.331701 -1.846637
-6.175476 258.424988 -22.331701 -1.610182
7.307800 258.424988 -22.331701 -1.592747
20.791107 258.424988 -22.331701 -1.664326
34.274414 258.424988 -22.331701 -1.853562
47.757721 258.424988 -22.331701 -1.702094
61.240997 258.424988 -22.331701 -2.039141
74.724304 258.424988 -22.331701 -2.395097
88.207611 258.424988 -22.331701 -2.228024
101.690918 258.424988 -22.331701 -2.031179
115.174225 258.424988 -22.331701 -1.579150
128.657501 258.424988 -22.331701 -1.420208
142.140808 258.424988 -22.331701 -1.303946
155.624115 258.424988 -22.331701 -1.209811
169.107422 258.424988 -22.331701 -1.318483
182.590698 258.424988 -22.331701 -1.334300
196.074036 258.424988 -22.331701 -1.344174
209.557312 258.424988 -22.331701 -1.146281
223.040588 258.424988 -22.331701 -0.538492
236.523926 258.424988 -22.331701 -0.274866
250.007202 258.424988 -22.331701 -0.123009
263.490540 258.424988 -22.331701 0.104515
276.973816 258.424988 -22.331701 0.067363
290.457092 258.424988 -22.331701 0.054243
303.940430 258.424988 -22.331701 0.018588
317.423706 258.424988 -22.331701 0.074890
330.907043 258.424988 -22.331701 0.000000
344.390320 258.424988 -22.331701 0.000000
-343.257996 244.941696 -22.331701 0.000000
-329.774689 244.941696 -22.331701 0.000000
-316.291382 244.941696 -22.331701 -0.040872
-302.808105 244.941696 -22.331701 -0.045394
-289.324799 244.941696 -22.331701 -0.065997
-275.841492 244.941696 -22.331701 -0.039405
-262.358185 244.941696 -22.331701 -0.107034
-248.874893 244.941696 -22.331701 -0.242739
-235.391602 244.941696 -22.331701 -0.342109
-221.908295 244.941696 -22.331701 -0.599014
-208.424988 244.941696 -22.331701 -0.766536
-194.941696 244.941696 -22.331701 -0.917472
-181.458389 244.941696 -22.331701 -0.945955
-167.975098 244.941696 -22.331701 -0.850202
-154.491791 244.941696 -22.331701 -1.108643
-141.008499 244.941696 -22.331701 -1.097142
-127.525192 244.941696 -22.331701 -1.129379
-114.041885 244.941696 -22.331701 -1.198823
-100.558594 244.941696 -22.331701 -1.037935
-87.075287 244.941696 -22.331701 -0.633194
-73.591980 244.941696 -22.331701 -0.779356
-60.108704 244.941696 -22.331701 -0.533908
-46.625397 244.941696 -22.331701 -0.740442
-33.142090 244.941696 -22.331701 -1.169557
-19.658783 244.941696 -22.331701 -1.605308
-6.175476 244.941696 -22.331701 -1.801693
7.307800 244.941696 -22.331701 -1.601086
20.791107 244.941696 -22.331701 -1.690572
34.274414 244.941696 -22.331701 -1.610154
47.757721 244.941696 -22.331701 -1.847481
61.240997 244.941696 -22.331701 -1.862951
74.724304 244.941696 -22.331701 -1.628419
88.207611 244.941696 -22.331701 -1.360445
101.690918 244.941696 -22.331701 -1.377302
115.174225 244.941696 -22.331701 -0.877941
128.657501 244.941696 -22.331701 -0.753963
142.140808 244.941696 -22.331701 -0.637179
155.624115 244.941696 -22.331701 -0.746782
169.107422 244.941696 -22.331701 -0.880511
182.590698 244.941696 -22.331701 -0.912450
196.074036 244.941696 -22.331701 -1.283870
209.557312 244.941696 -22.331701 -1.046679
223.040588 244.941696 -22.331701 -0.741213
236.523926 244.941696 -22.331701 -0.460693
250.007202 244.941696 -22.331701 -0.249318
263.490540 244.941696 -22.331701 0.013833
276.973816 244.941696 -22.331701 0.057263
290.457092 244.941696 -22.331701 0.063247
303.940430 244.941696 -22.331701 0.052508
317.423706 244.941696 -22.331701 0.049544
330.907043 244.941696 -22.331701 0.000000
344.390320 244.941696 -22.331701 0.000000
-343.257996 231.458389 -22.331701 0.000000
-329.774689 231.458389 -22.331701 0.000000
-316.291382 231.458389 -22.331701 0.006432
-302.808105 231.458389 -22.331701 -0.011746
-289.324799 231.458389 -22.331701 -0.042609
-275.841492 231.458389 -22.331701 -0.049796
-262.358185 231.458389 -22.331701 -0.087887
-248.874893 231.458389 -22.331701 -0.167259
-235.391602 231.458389 -22.331701 -0.344962
-221.908295 231.458389 -22.331701 -0.535488
-208.424988 231.458389 -22.331701 -0.666149
-194.941696 231.458389 -22.331701 -0.862290
-181.458389 231.458389 -22.331701 -1.037780
-167.975098 231.458389 -22.331701 -1.073742
-154.491791 231.458389 -22.331701 -1.150442
-141.008499 231.458389 -22.331701 -0.811126
-127.525192 231.458389 -22.331701 -0.950443
-114.041885 231.458389 -22.331701 -0.916400
-100.558594 231.458389 -22.331701 -0.816781
-87.075287 231.458389 -22.331701 -0.518970
-73.591980 231.458389 -22.331701 -0.562081
-60.108704 231.458389 -22.331701 -0.343610
-46.625397 231.458389 -22.331701 -0.536058
-33.142090 231.458389 -22.331701 -0.795020
-19.658783 231.458389 -22.331701 -1.212559
-6.175476 231.458389 -22.331701 -1.376785
7.307800 231.458389 -22.331701 -1.279296
20.791107 231.458389 -22.331701 -1.440614
34.274414 231.458389 -22.331701 -1.629689
47.757721 231.458389 -22.331701 -1.651662
61.240997 231.458389 -22.331701 -1.204002
74.724304 231.458389 -22.331701 -0.916809
88.207611 231.458389 -22.331701 -0.381996
101.690918 231.458389 -22.331701 -0.556942
115.174225 231.458389 -22.331701 -0.303060
128.657501 231.458389 -22.331701 -0.066307
142.140808 231.458389 -22.331701 -0.079275
155.624115 231.458389 -22.331701 -0.360638
169.107422 231.458389 -22.331701 -0.611938
182.590698 231.458389 -22.331701 -0.830359
196.074036 231.458389 -22.331701 -1.119739
209.557312 231.458389 -22.331701 -0.891240
223.040588 231.458389 -22.331701 -0.714919
236.523926 231.458389 -22.331701 -0.408669
250.007202 231.458389 -22.331701 -0.155770
263.490540 231.458389 -22.331701 -0.010444
276.973816 231.458389 -22.331701 0.055918
290.457092 231.458389 -22.331701 0.014000
303.940430 231.458389 -22.331701 -0.003461
317.423706 231.458389 -22.331701 -0.003000
330.907043 231.458389 -22.331701 0.000000
344.390320 231.458389 -22.331701 0.000000
-343.257996 217.975098 -22.331701 0.000000
-329.774689 217.975098 -22.331701 0.000000
-316.291382 217.975098 -22.331701 0.026417
-302.808105 217.975098 -22.331701 -0.009758
-289.324799 217.975098 -22.331701 -0.053016
-275.841492 217.975098 -22.331701 -0.061079
-262.358185 217.975098 -22.331701 -0.167582
-248.874893 217.975098 -22.331701 -0.244371
-235.391602 217.975098 -22.331701 -0.369812
-221.908295 217.975098 -22.331701 -0.514868
-208.424988 217.975098 -22.331701 -0.630327
-194.941696 217.975098 -22.331701 -0.958846
-181.458389 217.975098 -22.331701 -0.897265
-167.975098 217.975098 -22.331701 -1.002358
-154.491791 217.975098 -22.331701 -0.901803
-141.008499 217.975098 -22.331701 -0.873791
-127.525192 217.975098 -22.331701 -0.920558
-114.041885 217.975098 -22.331701 -0.631931
-100.558594 217.975098 -22.331701 -0.405802
-87.075287 217.975098 -22.331701 -0.145411
-73.591980 217.975098 -22.331701 0.065899
-60.108704 217.975098 -22.331701 -0.162740
-46.625397 217.975098 -22.331701 -0.447512
-33.142090 217.975098 -22.331701 -0.713230
-19.658783 217.975098 -22.331701 -0.881288
-6.175476 217.975098 -22.331701 -1.247337
7.307800 217.975098 -22.331701 -1.151087
20.791107 217.975098 -22.331701 -1.251041
34.274414 217.975098 -22.331701 -1.265297
47.757721 217.975098 -22.331701 -1.070525
61.240997 217.975098 -22.331701 -0.390029
74.724304 217.975098 -22.331701 -0.166640
88.207611 217.975098 -22.331701 0.329360
101.690918 217.975098 -22.331701 0.537058
115.174225 217.975098 -22.331701 0.567893
128.657501 217.975098 -22.331701 0.541305
142.140808 217.975098 -22.331701 0.403443
155.624115 217.975098 -22.331701 0.006725
169.107422 217.975098 -22.331701 -0.340326
182.590698 217.975098 -22.331701 -0.659116
196.074036 217.975098 -22.331701 -0.768277
209.557312 217.975098 -22.331701 -0.828570
223.040588 217.975098 -22.331701 -0.546059
236.523926 217.975098 -22.331701 -0.293381
250.007202 217.975098 -22.331701 -0.079572
263.490540 217.975098 -22.331701 -0.007546
276.973816 217.975098 -22.331701 0.038568
290.457092 217.975098 -22.331701 -0.009071
303.940430 217.975098 -22.331701 0.000714
317.423706 217.975098 -22.331701 -0.010785
330.907043 217.975098 -22.331701 0.000000
344.390320 217.975098 -22.331701 0.000000
-343.257996 204.491791 -22.331701 0.000000
-329.774689 204.491791 -22.331701 0.000000
-316.291382 204.491791 -22.331701 -0.005013
-302.808105 204.491791 -22.331701 -0.018276
-289.324799 204.491791 -22.331701 -0.083047
-275.841492 204.491791 -22.331701 -0.087620
-262.358185 204.491791 -22.331701 -0.152530
-248.874893 204.491791 -22.331701 -0.250000
-235.391602 204.491791 -22.331701 -0.315121
-221.908295 204.491791 -22.331701 -0.401772
-208.424988 204.491791 -22.331701 -0.563488
-194.941696 204.491791 -22.331701 -0.726778
-181.458389 204.491791 -22.331701 -0.713575
-167.975098 204.491791 -22.331701 -0.794830
-154.491791 204.491791 -22.331701 -0.867490
-141.008499 204.491791 -22.331701 -0.711458
-127.525192 204.491791 -22.331701 -0.673015
-114.041885 204.491791 -22.331701 -0.654965
-100.558594 204.491791 -22.331701 -0.321728
-87.075287 204.491791 -22.331701 0.096601
-73.591980 204.491791 -22.331701 0.198263
-60.108704 204.491791 -22.331701 0.075642
-46.625397 204.491791 -22.331701 -0.294841
-33.142090 204.491791 -22.331701 -0.316358
-19.658783 204.491791 -22.331701 -0.775776
-6.175476 204.491791 -22.331701 -0.482280
7.307800 204.491791 -22.331701 -0.756049
20.791107 204.491791 -22.331701 -1.151369
34.274414 204.491791 -22.331701 -0.680086
47.757721 204.491791 -22.331701 -0.791324
61.240997 204.491791 -22.331701 0.011748
74.724304 204.491791 -22.331701 0.660472
88.207611 204.491791 -22.331701 0.977327
101.690918 204.491791 -22.331701 1.112612
115.174225 204.491791 -22.331701 0.977654
128.657501 204.491791 -22.331701 0.941893
142.140808 204.491791 -22.331701 0.496120
155.624115 204.491791 -22.331701 0.287603
169.107422 204.491791 -22.331701 -0.099156
182.590698 204.491791 -22.331701 -0.280559
196.074036 204.491791 -22.331701 -0.642461
209.557312 204.491791 -22.331701 -0.724473
223.040588 204.491791 -22.331701 -0.465280
236.523926 204.491791 -22.331701 -0.220805
250.007202 204.491791 -22.331701 -0.110908
263.490540 204.491791 -22.331701 -0.021492
276.973816 204.491791 -22.331701 0.016654
290.457092 204.491791 -22.331701 0.019161
303.940430 204.491791 -22.331701 0.021196
317.423706 204.491791 -22.331701 -0.000833
330.907043 204.491791 -22.331701 0.000000
344.390320 204.491791 -22.331701 0.000000
-343.257996 191.008499 -22.331701 0.000000
-329.774689 191.008499 -22.331701 0.000000
-316.291382 191.008499 -22.331701 0.053308
-302.808105 191.008499 -22.331701 -0.013682
-289.324799 191.008499 -22.331701 -0.039098
-275.841492 191.008499 -22.331701 -0.103029
-262.358185 191.008499 -22.331701 -0.218976
-248.874893 191.008499 -22.331701 -0.316556
-235.391602 191.008499 -22.331701 -0.371675
-221.908295 191.008499 -22.331701 -0.569751
-208.424988 191.008499 -22.331701 -0.635456
-194.941696 191.008499 -22.331701 -0.675635
-181.458389 191.008499 -22.331701 -0.561550
-167.975098 191.008499 -22.331701 -0.674713
-154.491791 191.008499 -22.331701 -0.563120
-141.008499 191.008499 -22.331701 -0.545984
-127.525192 191.008499 -22.331701 -0.671751
-114.041885 191.008499 -22.331701 -0.569767
-100.558594 191.008499 -22.331701 -0.390918
-87.075287 191.008499 -22.331701 -0.234049
-73.591980 191.008499 -22.331701 0.105317
-60.108704 191.008499 -22.331701 0.160617
-46.625397 191.008499 -22.331701 -0.119530
-33.142090 191.008499 -22.331701 -0.199034
-19.658783 191.008499 -22.331701 -0.613246
-6.175476 191.008499 -22.331701 -0.478838
7.307800 191.008499 -22.331701 -0.340333
20.791107 191.008499 -22.331701 -0.565408
34.274414 191.008499 -22.331701 -0.288882
47.757721 191.008499 -22.331701 -0.276096
61.240997 191.008499 -22.331701 0.436351
74.724304 191.008499 -22.331701 0.919516
88.207611 191.008499 -22.331701 1.163884
101.690918 191.008499 -22.331701 0.986182
115.174225 191.008499 -22.331701 1.097707
128.657501 191.008499 -22.331701 0.773369
142.140808 191.008499 -22.331701 0.508031
155.624115 191.008499 -22.331701 0.298824
169.107422 191.008499 -22.331701 0.055615
182.590698 191.008499 -22.331701 -0.098969
196.074036 191.008499 -22.331701 -0.521547
209.557312 191.008499 -22.331701 -0.511203
223.040588 191.008499 -22.331701 -0.389485
236.523926 191.008499 -22.331701 -0.208068
250.007202 191.008499 -22.331701 -0.071313
263.490540 191.008499 -22.331701 -0.034700
276.973816 191.008499 -22.331701 -0.010171
290.457092 191.008499 -22.331701 -0.001479
303.940430 191.008499 -22.331701 -0.006131
317.423706 191.008499 -22.331701 -0.007853
330.907043 191.008499 -22.331701 0.000000
344.390320 191.008499 -22.331701 0.000000
-343.257996 177.525192 -22.331701 0.000000
-329.774689 177.525192 -22.331701 0.000000
-316.291382 177.525192 -22.331701 0.030615
-302.808105 177.525192 -22.331701 0.027629
-289.324799 177.525192 -22.331701 -0.060330
-275.841492 177.525192 -22.331701 -0.121675
-262.358185 177.525192 -22.331701 -0.280272
-248.874893 177.525192 -22.331701 -0.338579
-235.391602 177.525192 -22.331701 -0.573943
-221.908295 177.525192 -22.331701 -0.630886
-208.424988 177.525192 -22.331701 -0.678777
-194.941696 177.525192 -22.331701 -0.756189
-181.458389 177.525192 -22.331701 -0.620151
-167.975098 177.525192 -22.331701 -0.535454
-154.491791 177.525192 -22.331701 -0.705037
-141.008499 177.525192 -22.331701 -0.669943
-127.525192 177.525192 -22.331701 -0.454956
-114.041885 177.525192 -22.331701 -0.497387
-100.558594 177.525192 -22.331701 -0.290817
-87.075287 177.525192 -22.331701 -0.268259
-73.591980 177.525192 -22.331701 0.057592
-60.108704 177.525192 -22.331701 0.337226
-46.625397 177.525192 -22.331701 0.249088
-33.142090 177.525192 -22.331701 -0.092229
-19.658783 177.525192 -22.331701 -0.352464
-6.175476 177.525192 -22.331701 -0.371545
7.307800 177.525192 -22.331701 -0.266699
20.791107 177.525192 -22.331701 -0.186440
34.274414 177.525192 -22.331701 0.300825
47.757721 177.525192 -22.331701 0.268585
61.240997 177.525192 -22.331701 0.700557
74.724304 177.525192 -22.331701 1.232827
88.207611 177.525192 -22.331701 1.245482
101.690918 177.525192 -22.331701 1.218171
115.174225 177.525192 -22.331701 0.977324
128.657501 177.525192 -22.331701 0.761919
142.140808 177.525192 -22.331701 0.567955
155.624115 177.525192 -22.331701 0.391460
169.107422 177.525192 -22.331701 0.248116
182.590698 177.525192 -22.331701 0.011949
196.074036 177.525192 -22.331701 -0.282334
209.557312 177.525192 -22.331701 -0.380033
223.040588 177.525192 -22.331701 -0.288914
236.523926 177.525192 -22.331701 -0.143449
250.007202 177.525192 -22.331701 -0.052579
263.490540 177.525192 -22.331701 -0.022029
276.973816 177.525192 -22.331701 0.004599
290.457092 177.525192 -22.331701 -0.016405
303.940430 177.525192 -22.331701 -0.020061
317.423706 177.525192 -22.331701 -0.022450
330.907043 177.525192 -22.331701 0.000000
344.390320 177.525192 -22.331701 0.000000
-343.257996 164.041885 -22.331701 0.000000
-329.774689 164.041885 -22.331701 0.000000
-316.291382 164.041885 -22.331701 0.057958
-302.808105 164.041885 -22.331701 0.072206
-289.324799 164.041885 -22.331701 0.000159
-275.841492 164.041885 -22.331701 -0.141416
-262.358185 164.041885 -22.331701 -0.167172
-248.874893 164.041885 -22.331701 -0.326700
-235.391602 164.041885 -22.331701 -0.475371
-221.908295 164.041885 -22.331701 -0.589223
-208.424988 164.041885 -22.331701 -0.704441
-194.941696 164.041885 -22.331701 -0.878568
-181.458389 164.041885 -22.331701 -0.746629
-167.975098 164.041885 -22.331701 -0.921883
-154.491791 164.041885 -22.331701 -0.808956
-141.008499 164.041885 -22.331701 -0.699459
-127.525192 164.041885 -22.331701 -0.332321
-114.041885 164.041885 -22.331701 -0.126026
-100.558594 164.041885 -22.331701 -0.039303
-87.075287 164.041885 -22.331701 -0.109604
-73.591980 164.041885 -22.331701 0.175655
-60.108704 164.041885 -22.331701 0.685294
-46.625397 164.041885 -22.331701 0.390503
-33.142090 164.041885 -22.331701 0.193838
-19.658783 164.041885 -22.331701 -0.152664
-6.175476 164.041885 -22.331701 -0.321417
7.307800 164.041885 -22.331701 -0.240625
20.791107 164.041885 -22.331701 0.157742
34.274414 164.041885 -22.331701 0.505105
47.757721 164.041885 -22.331701 0.769349
61.240997 164.041885 -22.331701 1.147654
74.724304 164.041885 -22.331701 1.438140
88.207611 164.041885 -22.331701 1.319023
101.690918 164.041885 -22.331701 1.079767
115.174225 164.041885 -22.331701 0.748472
128.657501 164.041885 -22.331701 0.749718
142.140808 164.041885 -22.331701 0.603605
155.624115 164.041885 -22.331701 0.562871
169.107422 164.041885 -22.331701 0.278369
182.590698 164.041885 -22.331701 0.220696
196.074036 164.041885 -22.331701 -0.069307
209.557312 164.041885 -22.331701 -0.086175
223.040588 164.041885 -22.331701 -0.150240
236.523926 164.041885 -22.331701 -0.084313
250.007202 164.041885 -22.331701 -0.007804
263.490540 164.041885 -22.331701 -0.015181
276.973816 164.041885 -22.331701 -0.003412
290.457092 164.041885 -22.331701 -0.012226
303.940430 164.041885 -22.331701 -0.019566
317.423706 164.041885 -22.331701 -0.019418
330.907043 164.041885 -22.331701 0.000000
344.390320 164.041885 -22.331701 0.000000
-343.257996 150.558594 -22.331701 0.000000
-329.774689 150.558594 -22.331701 0.000000
-316.291382 150.558594 -22.331701 0.009459
-302.808105 150.558594 -22.331701 -0.001636
-289.324799 150.558594 -22.331701 -0.007971
-275.841492 150.558594 -22.331701 -0.020768
-262.358185 150.558594 -22.331701 -0.164687
-248.874893 150.558594 -22.331701 -0.417002
-235.391602 150.558594 -22.331701 -0.440375
-221.908295 150.558594 -22.331701 -0.470127
-208.424988 150.558594 -22.331701 -0.618553
-194.941696 150.558594 -22.331701 -0.662974
-181.458389 150.558594 -22.331701 -0.654861
-167.975098 150.558594 -22.331701 -0.804311
-154.491791 150.558594 -22.331701 -1.184214
-141.008499 150.558594 -22.331701 -0.851370
-127.525192 150.558594 -22.331701 -0.547960
-114.041885 150.558594 -22.331701 -0.033642
-100.558594 150.558594 -22.331701 0.103963
-87.075287 150.558594 -22.331701 0.183033
-73.591980 150.558594 -22.331701 0.387934
-60.108704 150.558594 -22.331701 0.690979
-46.625397 150.558594 -22.331701 0.479401
-33.142090 150.558594 -22.331701 0.266712
-19.658783 150.558594 -22.331701 0.067665
-6.175476 150.558594 -22.331701 -0.190225
7.307800 150.558594 -22.331701 -0.145682
20.791107 150.558594 -22.331701 0.411040
34.274414 150.558594 -22.331701 0.810706
47.757721 150.558594 -22.331701 0.875492
61.240997 150.558594 -22.331701 1.463886
74.724304 150.558594 -22.331701 1.616838
88.207611 150.558594 -22.331701 1.421618
101.690918 150.558594 -22.331701 1.096419
115.174225 150.558594 -22.331701 0.895003
128.657501 150.558594 -22.331701 0.700452
142.140808 150.558594 -22.331701 0.749905
155.624115 150.558594 -22.331701 0.508092
169.107422 150.558594 -22.331701 0.336666
182.590698 150.558594 -22.331701 0.202803
196.074036 150.558594 -22.331701 0.037950
209.557312 150.558594 -22.331701 -0.039570
223.040588 150.558594 -22.331701 -0.044433
236.523926 150.558594 -22.331701 -0.023149
250.007202 150.558594 -22.331701 0.001686
263.490540 150.558594 -22.331701 -0.002396
276.973816 150.558594 -22.331701 -0.017962
290.457092 150.558594 -22.331701 -0.022453
303.940430 150.558594 -22.331701 -0.028704
317.423706 150.558594 -22.331701 -0.027304
330.907043 150.558594 -22.331701 0.000000
344.390320 150.558594 -22.331701 0.000000
-343.257996 137.075287 -22.331701 0.000000
-329.774689 137.075287 -22.331701 0.000000
-316.291382 137.075287 -22.331701 0.036167
-302.808105 137.075287 -22.331701 0.072797
-289.324799 137.075287 -22.331701 -0.021530
-275.841492 137.075287 -22.331701 -0.028127
-262.358185 137.075287 -22.331701 -0.019409
-248.874893 137.075287 -22.331701 -0.166041
-235.391602 137.075287 -22.331701 -0.274390
-221.908295 137.075287 -22.331701 -0.361016
-208.424988 137.075287 -22.331701 -0.391905
-194.941696 137.075287 -22.331701 -0.441103
-181.458389 137.075287 -22.331701 -0.658975
-167.975098 137.075287 -22.331701 -1.011156
-154.491791 137.075287 -22.331701 -1.128909
-141.008499 137.075287 -22.331701 -0.945054
-127.525192 137.075287 -22.331701 -0.697402
-114.041885 137.075287 -22.331701 0.177006
-100.558594 137.075287 -22.331701 0.261859
-87.075287 137.075287 -22.331701 0.565087
-73.591980 137.075287 -22.331701 0.916873
-60.108704 137.075287 -22.331701 0.592416
-46.625397 137.075287 -22.331701 0.493827
-33.142090 137.075287 -22.331701 0.241660
-19.658783 137.075287 -22.331701 0.019731
-6.175476 137.075287 -22.331701 -0.046987
7.307800 137.075287 -22.331701 0.094994
20.791107 137.075287 -22.331701 0.497824
34.274414 137.075287 -22.331701 0.875840
47.757721 137.075287 -22.331701 1.103185
61.240997 137.075287 -22.331701 1.573611
74.724304 137.075287 -22.331701 1.594708
88.207611 137.075287 -22.331701 1.345309
101.690918 137.075287 -22.331701 0.854801
115.174225 137.075287 -22.331701 0.874477
128.657501 137.075287 -22.331701 0.679562
142.140808 137.075287 -22.331701 0.636780
155.624115 137.075287 -22.331701 0.565289
169.107422 137.075287 -22.331701 0.335413
182.590698 137.075287 -22.331701 0.246649
196.074036 137.075287 -22.331701 0.124077
209.557312 137.075287 -22.331701 0.047935
223.040588 137.075287 -22.331701 0.004049
236.523926 137.075287 -22.331701 0.012543
250.007202 137.075287 -22.331701 0.009363
263.490540 137.075287 -22.331701 0.012485
276.973816 137.075287 -22.331701 -0.014465
290.457092 137.075287 -22.331701 -0.022588
303.940430 137.075287 -22.331701 -0.029565
317.423706 137.075287 -22.331701 -0.017792
330.907043 137.075287 -22.331701 0.000000
344.390320 137.075287 -22.331701 0.000000
-343.257996 123.591980 -22.331701 0.000000
-329.774689 123.591980 -22.331701 0.000000
-316.291382 123.591980 -22.331701 0.000000
-302.808105 123.591980 -22.331701 0.200590
-289.324799 123.591980 -22.331701 0.081955
-275.841492 123.591980 -22.331701 0.037180
-262.358185 123.591980 -22.331701 -0.008227
-248.874893 123.591980 -22.331701 -0.031321
-235.391602 123.591980 -22.331701 -0.106618
-221.908295 123.591980 -22.331701 -0.127568
-208.424988 123.591980 -22.331701 -0.097777
-194.941696 123.591980 -22.331701 -0.340604
-181.458389 123.591980 -22.331701 -0.605401
-167.975098 123.591980 -22.331701 -0.919204
-154.491791 123.591980 -22.331701 -1.174412
-141.008499 123.591980 -22.331701 -0.985897
-127.525192 123.591980 -22.331701 -0.638046
-114.041885 123.591980 -22.331701 0.188402
-100.558594 123.591980 -22.331701 0.608970
-87.075287 123.591980 -22.331701 0.851787
-73.591980 123.591980 -22.331701 1.135955
-60.108704 123.591980 -22.331701 0.863528
-46.625397 123.591980 -22.331701 0.419502
-33.142090 123.591980 -22.331701 0.275708
-19.658783 123.591980 -22.331701 0.022702
-6.175476 123.591980 -22.331701 0.109800
7.307800 123.591980 -22.331701 0.246559
20.791107 123.591980 -22.331701 0.285000
34.274414 123.591980 -22.331701 0.734980
47.757721 123.591980 -22.331701 1.286643
61.240997 123.591980 -22.331701 1.667295
74.724304 123.591980 -22.331701 1.407349
88.207611 123.591980 -22.331701 1.038265
101.690918 123.591980 -22.331701 0.735823
115.174225 123.591980 -22.331701 0.752903
128.657501 123.591980 -22.331701 0.694473
142.140808 123.591980 -22.331701 0.670084
155.624115 123.591980 -22.331701 0.507718
169.107422 123.591980 -22.331701 0.470767
182.590698 123.591980 -22.331701 0.349483
196.074036 123.591980 -22.331701 0.099536
209.557312 123.591980 -22.331701 0.031054
223.040588 123.591980 -22.331701 0.021612
236.523926 123.591980 -22.331701 -0.013138
250.007202 123.591980 -22.331701 -0.000309
263.490540 123.591980 -22.331701 0.016191
276.973816 123.591980 -22.331701 -0.012400
290.457092 123.591980 -22.331701 -0.016883
303.940430 123.591980 -22.331701 -0.008109
317.423706 123.591980 -22.331701 -0.003772
330.907043 123.591980 -22.331701 0.000000
344.390320 123.591980 -22.331701 0.000000
-343.257996 110.108704 -22.331701 0.000000
-329.774689 110.108704 -22.331701 0.000000
-316.291382 110.108704 -22.331701 0.000000
-302.808105 110.108704 -22.331701 0.212137
-289.324799 110.108704 -22.331701 0.177575
-275.841492 110.108704 -22.331701 0.148691
-262.358185 110.108704 -22.331701 0.109740
-248.874893 110.108704 -22.331701 0.081082
-235.391602 110.108704 -22.331701 0.025836
-221.908295 110.108704 -22.331701 -0.053682
-208.424988 110.108704 -22.331701 -0.077570
-194.941696 110.108704 -22.331701 -0.408834
-181.458389 110.108704 -22.331701 -0.666233
-167.975098 110.108704 -22.331701 -1.032880
-154.491791 110.108704 -22.331701 -1.077849
-141.008499 110.108704 -22.331701 -0.791243
-127.525192 110.108704 -22.331701 -0.300258
-114.041885 110.108704 -22.331701 0.049856
-100.558594 110.108704 -22.331701 0.772627
-87.075287 110.108704 -22.331701 1.078371
-73.591980 110.108704 -22.331701 1.115366
-60.108704 110.108704 -22.331701 0.824948
-46.625397 110.108704 -22.331701 0.723078
-33.142090 110.108704 -22.331701 0.289914
-19.658783 110.108704 -22.331701 0.192181
-6.175476 110.108704 -22.331701 -0.109424
7.307800 110.108704 -22.331701 0.120175
20.791107 110.108704 -22.331701 0.235589
34.274414 110.108704 -22.331701 0.673332
47.757721 110.108704 -22.331701 0.988549
61.240997 110.108704 -22.331701 1.343726
74.724304 110.108704 -22.331701 0.928098
88.207611 110.108704 -22.331701 0.719433
101.690918 110.108704 -22.331701 0.507202
115.174225 110.108704 -22.331701 0.639609
128.657501 110.108704 -22.331701 0.566686
142.140808 110.108704 -22.331701 0.551990
155.624115 110.108704 -22.331701 0.556560
169.107422 110.108704 -22.331701 0.383680
182.590698 110.108704 -22.331701 0.242771
196.074036 110.108704 -22.331701 0.116138
209.557312 110.108704 -22.331701 0.033097
223.040588 110.108704 -22.331701 0.011570
236.523926 110.108704 -22.331701 0.021501
250.007202 110.108704 -22.331701 0.030687
263.490540 110.108704 -22.331701 0.019169
276.973816 110.108704 -22.331701 -0.004035
290.457092 110.108704 -22.331701 -0.007186
303.940430 110.108704 -22.331701 -0.005518
317.423706 110.108704 -22.331701 -0.002305
330.907043 110.108704 -22.331701 0.000000
344.390320 110.108704 -22.331701 0.000000
-343.257996 96.625397 -22.331701 0.000000
-329.774689 96.625397 -22.331701 0.000000
-316.291382 96.625397 -22.331701 0.000000
-302.808105 96.625397 -22.331701 0.325115
-289.324799 96.625397 -22.331701 0.302688
-275.841492 96.625397 -22.331701 0.278987
-262.358185 96.625397 -22.331701 0.160739
-248.874893 96.625397 -22.331701 0.167468
-235.391602 96.625397 -22.331701 -0.055335
-221.908295 96.625397 -22.331701 -0.134880
-208.424988 96.625397 -22.331701 -0.186988
-194.941696 96.625397 -22.331701 -0.306273
-181.458389 96.625397 -22.331701 -0.264051
-167.975098 96.625397 -22.331701 -0.846791
-154.491791 96.625397 -22.331701 -0.849009
-141.008499 96.625397 -22.331701 -0.677050
-127.525192 96.625397 -22.331701 -0.271693
-114.041885 96.625397 -22.331701 0.364181
-100.558594 96.625397 -22.331701 0.955311
-87.075287 96.625397 -22.331701 1.156725
-73.591980 96.625397 -22.331701 0.795333
-60.108704 96.625397 -22.331701 0.850951
-46.625397 96.625397 -22.331701 0.727521
-33.142090 96.625397 -22.331701 0.617150
-19.658783 96.625397 -22.331701 0.341066
-6.175476 96.625397 -22.331701 0.149895
7.307800 96.625397 -22.331701 0.193657
20.791107 96.625397 -22.331701 0.047139
34.274414 96.625397 -22.331701 0.274297
47.757721 96.625397 -22.331701 0.647158
61.240997 96.625397 -22.331701 0.656126
74.724304 96.625397 -22.331701 0.586970
88.207611 96.625397 -22.331701 0.679136
101.690918 96.625397 -22.331701 0.257522
115.174225 96.625397 -22.331701 0.125984
128.657501 96.625397 -22.331701 0.235048
142.140808 96.625397 -22.331701 0.246916
155.624115 96.625397 -22.331701 0.364207
169.107422 96.625397 -22.331701 0.334197
182.590698 96.625397 -22.331701 0.146480
196.074036 96.625397 -22.331701 0.106668
209.557312 96.625397 -22.331701 0.016711
223.040588 96.625397 -22.331701 -0.001416
236.523926 96.625397 -22.331701 0.029283
250.007202 96.625397 -22.331701 0.042581
263.490540 96.625397 -22.331701 0.017180
276.973816 96.625397 -22.331701 0.006238
290.457092 96.625397 -22.331701 -0.000096
303.940430 96.625397 -22.331701 -0.001763
317.423706 96.625397 -22.331701 0.015130
330.907043 96.625397 -22.331701 0.000000
344.390320 96.625397 -22.331701 0.000000
-343.257996 83.142090 -22.331701 0.000000
-329.774689 83.142090 -22.331701 0.000000
-316.291382 83.142090 -22.331701 0.000000
-302.808105 83.142090 -22.331701 0.438906
-289.324799 83.142090 -22.331701 0.377244
-275.841492 83.142090 -22.331701 0.361984
-262.358185 83.142090 -22.331701 0.241722
-248.874893 83.142090 -22.331701 0.183404
-235.391602 83.142090 -22.331701 0.052459
-221.908295 83.142090 -22.331701 -0.126316
-208.424988 83.142090 -22.331701 -0.272491
-194.941696 83.142090 -22.331701 -0.074929
-181.458389 83.142090 -22.331701 -0.112938
-167.975098 83.142090 -22.331701 -0.467032
-154.491791 83.142090 -22.331701 -0.498745
-141.008499 83.142090 -22.331701 -0.166915
-127.525192 83.142090 -22.331701 0.236463
-114.041885 83.142090 -22.331701 0.972699
-100.558594 83.142090 -22.331701 1.403211
-87.075287 83.142090 -22.331701 1.404162
-73.591980 83.142090 -22.331701 1.175307
-60.108704 83.142090 -22.331701 0.889112
-46.625397 83.142090 -22.331701 0.991489
-33.142090 83.142090 -22.331701 0.499578
-19.658783 83.142090 -22.331701 0.178543
-6.175476 83.142090 -22.331701 0.174818
7.307800 83.142090 -22.331701 -0.129876
20.791107 83.142090 -22.331701 -0.243045
34.274414 83.142090 -22.331701 -0.017346
47.757721 83.142090 -22.331701 0.051869
61.240997 83.142090 -22.331701 0.281136
74.724304 83.142090 -22.331701 0.063298
88.207611 83.142090 -22.331701 0.002878
101.690918 83.142090 -22.331701 0.119883
115.174225 83.142090 -22.331701 -0.136721
128.657501 83.142090 -22.331701 -0.333527
142.140808 83.142090 -22.331701 -0.002958
155.624115 83.142090 -22.331701 0.057586
169.107422 83.142090 -22.331701 0.094766
182.590698 83.142090 -22.331701 -0.039167
196.074036 83.142090 -22.331701 0.033400
209.557312 83.142090 -22.331701 -0.010271
223.040588 83.142090 -22.331701 -0.004770
236.523926 83.142090 -22.331701 0.056073
250.007202 83.142090 -22.331701 0.050821
263.490540 83.142090 -22.331701 0.030911
276.973816 83.142090 -22.331701 0.017828
290.457092 83.142090 -22.331701 0.008051
303.940430 83.142090 -22.331701 0.004112
317.423706 83.142090 -22.331701 0.001808
330.907043 83.142090 -22.331701 0.000000
344.390320 83.142090 -22.331701 0.000000
-343.257996 69.658783 -22.331701 0.000000
-329.774689 69.658783 -22.331701 0.000000
-316.291382 69.658783 -22.331701 0.000000
-302.808105 69.658783 -22.331701 0.000000
-289.324799 69.658783 -22.331701 0.518631
-275.841492 69.658783 -22.331701 0.405135
-262.358185 69.658783 -22.331701 0.268193
-248.874893 69.658783 -22.331701 0.263799
-235.391602 69.658783 -22.331701 -0.031786
-221.908295 69.658783 -22.331701 -0.023451
-208.424988 69.658783 -22.331701 -0.201126
-194.941696 69.658783 -22.331701 0.009833
-181.458389 69.658783 -22.331701 -0.024707
-167.975098 69.658783 -22.331701 0.021884
-154.491791 69.658783 -22.331701 -0.369751
-141.008499 69.658783 -22.331701 0.013295
-127.525192 69.658783 -22.331701 0.473126
-114.041885 69.658783 -22.331701 0.980697
-100.558594 69.658783 -22.331701 1.508675
-87.075287 69.658783 -22.331701 1.729141
-73.591980 69.658783 -22.331701 1.613665
-60.108704 69.658783 -22.331701 1.059541
-46.625397 69.658783 -22.331701 0.771436
-33.142090 69.658783 -22.331701 0.308049
-19.658783 69.658783 -22.331701 0.043333
-6.175476 69.658783 -22.331701 0.027022
7.307800 69.658783 -22.331701 -0.409333
20.791107 69.658783 -22.331701 -0.494847
34.274414 69.658783 -22.331701 -0.120917
47.757721 69.658783 -22.331701 0.129997
61.240997 69.658783 -22.331701 -0.044084
74.724304 69.658783 -22.331701 0.188577
88.207611 69.658783 -22.331701 0.213979
101.690918 69.658783 -22.331701 -0.005689
115.174225 69.658783 -22.331701 -0.097189
128.657501 69.658783 -22.331701 -0.249475
142.140808 69.658783 -22.331701 -0.321235
155.624115 69.658783 -22.331701 -0.238678
169.107422 69.658783 -22.331701 -0.313816
182.590698 69.658783 -22.331701 -0.183713
196.074036 69.658783 -22.331701 -0.059673
209.557312 69.658783 -22.331701 0.009035
223.040588 69.658783 -22.331701 0.060304
236.523926 69.658783 -22.331701 0.082137
250.007202 69.658783 -22.331701 0.047138
263.490540 69.658783 -22.331701 0.039836
276.973816 69.658783 -22.331701 0.028891
290.457092 69.658783 -22.331701 0.019285
303.940430 69.658783 -22.331701 0.019830
317.423706 69.658783 -22.331701 0.018019
330.907043 69.658783 -22.331701 0.000000
344.390320 69.658783 -22.331701 0.000000
-343.257996 56.175476 -22.331701 0.000000
-329.774689 56.175476 -22.331701 0.000000
-316.291382 56.175476 -22.331701 0.000000
-302.808105 56.175476 -22.331701 0.378732
-289.324799 56.175476 -22.331701 0.412435
-275.841492 56.175476 -22.331701 0.290353
-262.358185 56.175476 -22.331701 0.277109
-248.874893 56.175476 -22.331701 0.149365
-235.391602 56.175476 -22.331701 -0.012062
-221.908295 56.175476 -22.331701 -0.027174
-208.424988 56.175476 -22.331701 -0.029328
-194.941696 56.175476 -22.331701 -0.103663
-181.458389 56.175476 -22.331701 0.060759
-167.975098 56.175476 -22.331701 0.174170
-154.491791 56.175476 -22.331701 0.291563
-141.008499 56.175476 -22.331701 0.444420
-127.525192 56.175476 -22.331701 0.929281
-114.041885 56.175476 -22.331701 1.380662
-100.558594 56.175476 -22.331701 1.819227
-87.075287 56.175476 -22.331701 2.209531
-73.591980 56.175476 -22.331701 2.029283
-60.108704 56.175476 -22.331701 1.819714
-46.625397 56.175476 -22.331701 0.980122
-33.142090 56.175476 -22.331701 0.571496
-19.658783 56.175476 -22.331701 0.167589
-6.175476 56.175476 -22.331701 -0.140576
7.307800 56.175476 -22.331701 -0.397233
20.791107 56.175476 -22.331701 -0.251474
34.274414 56.175476 -22.331701 -0.205296
47.757721 56.175476 -22.331701 0.338813
61.240997 56.175476 -22.331701 0.358149
74.724304 56.175476 -22.331701 0.332480
88.207611 56.175476 -22.331701 0.430556
101.690918 56.175476 -22.331701 0.071193
115.174225 56.175476 -22.331701 -0.197153
128.657501 56.175476 -22.331701 0.012979
142.140808 56.175476 -22.331701 -0.203250
155.624115 56.175476 -22.331701 -0.174129
169.107422 56.175476 -22.331701 -0.385586
182.590698 56.175476 -22.331701 -0.405322
196.074036 56.175476 -22.331701 -0.153931
209.557312 56.175476 -22.331701 -0.036472
223.040588 56.175476 -22.331701 -0.003992
236.523926 56.175476 -22.331701 0.064966
250.007202 56.175476 -22.331701 0.044090
263.490540 56.175476 -22.331701 0.051311
276.973816 56.175476 -22.331701 0.040609
290.457092 56.175476 -22.331701 0.057859
303.940430 56.175476 -22.331701 0.061236
317.423706 56.175476 -22.331701 0.049427
330.907043 56.175476 -22.331701 0.000000
344.390320 56.175476 -22.331701 0.000000
-343.257996 42.692200 -22.331701 0.000000
-329.774689 42.692200 -22.331701 0.000000
-316.291382 42.692200 -22.331701 0.000000
-302.808105 42.692200 -22.331701 0.379977
-289.324799 42.692200 -22.331701 0.374686
-275.841492 42.692200 -22.331701 0.313515
-262.358185 42.692200 -22.331701 0.217882
-248.874893 42.692200 -22.331701 0.229624
-235.391602 42.692200 -22.331701 0.079351
-221.908295 42.692200 -22.331701 0.194132
-208.424988 42.692200 -22.331701 -0.022791
-194.941696 42.692200 -22.331701 0.169932
-181.458389 42.692200 -22.331701 0.465756
-167.975098 42.692200 -22.331701 0.623794
-154.491791 42.692200 -22.331701 0.623698
-141.008499 42.692200 -22.331701 1.092173
-127.525192 42.692200 -22.331701 1.606969
-114.041885 42.692200 -22.331701 1.792974
-100.558594 42.692200 -22.331701 2.413591
-87.075287 42.692200 -22.331701 2.605686
-73.591980 42.692200 -22.331701 2.305962
-60.108704 42.692200 -22.331701 1.758383
-46.625397 42.692200 -22.331701 1.479765
-33.142090 42.692200 -22.331701 0.620280
-19.658783 42.692200 -22.331701 0.144772
-6.175476 42.692200 -22.331701 0.127879
7.307800 42.692200 -22.331701 -0.546686
20.791107 42.692200 -22.331701 -0.463510
34.274414 42.692200 -22.331701 0.013026
47.757721 42.692200 -22.331701 0.298584
61.240997 42.692200 -22.331701 0.580940
74.724304 42.692200 -22.331701 0.601755
88.207611 42.692200 -22.331701 0.770441
101.690918 42.692200 -22.331701 0.126352
115.174225 42.692200 -22.331701 0.185317
128.657501 42.692200 -22.331701 0.088601
142.140808 42.692200 -22.331701 -0.273408
155.624115 42.692200 -22.331701 -0.266533
169.107422 42.692200 -22.331701 -0.524541
182.590698 42.692200 -22.331701 -0.387067
196.074036 42.692200 -22.331701 -0.144938
209.557312 42.692200 -22.331701 -0.082016
223.040588 42.692200 -22.331701 -0.035702
236.523926 42.692200 -22.331701 0.043358
250.007202 42.692200 -22.331701 0.050250
263.490540 42.692200 -22.331701 0.069432
276.973816 42.692200 -22.331701 0.070497
290.457092 42.692200 -22.331701 0.105102
303.940430 42.692200 -22.331701 0.092405
317.423706 42.692200 -22.331701 0.088570
330.907043 42.692200 -22.331701 0.000000
344.390320 42.692200 -22.331701 0.000000
-343.257996 29.208893 -22.331701 0.000000
-329.774689 29.208893 -22.331701 0.000000
-316.291382 29.208893 -22.331701 0.000000
-302.808105 29.208893 -22.331701 0.267692
-289.324799 29.208893 -22.331701 0.455654
-275.841492 29.208893 -22.331701 0.298928
-262.358185 29.208893 -22.331701 0.191469
-248.874893 29.208893 -22.331701 0.231296
-235.391602 29.208893 -22.331701 0.347940
-221.908295 29.208893 -22.331701 0.375865
-208.424988 29.208893 -22.331701 0.672958
-194.941696 29.208893 -22.331701 0.572229
-181.458389 29.208893 -22.331701 0.710734
-167.975098 29.208893 -22.331701 0.741600
-154.491791 29.208893 -22.331701 0.509763
-141.008499 29.208893 -22.331701 1.547068
-127.525192 29.208893 -22.331701 2.460052
-114.041885 29.208893 -22.331701 2.517720
-100.558594 29.208893 -22.331701 2.517638
-87.075287 29.208893 -22.331701 2.639155
-73.591980 29.208893 -22.331701 2.761873
-60.108704 29.208893 -22.331701 2.045039
-46.625397 29.208893 -22.331701 1.697208
-33.142090 29.208893 -22.331701 1.023434
-19.658783 29.208893 -22.331701 0.320958
-6.175476 29.208893 -22.331701 -0.016108
7.307800 29.208893 -22.331701 -0.209594
20.791107 29.208893 -22.331701 -0.190559
34.274414 29.208893 -22.331701 0.048115
47.757721 29.208893 -22.331701 0.254249
61.240997 29.208893 -22.331701 0.429598
74.724304 29.208893 -22.331701 0.623436
88.207611 29.208893 -22.331701 0.536496
101.690918 29.208893 -22.331701 0.285481
115.174225 29.208893 -22.331701 0.253846
128.657501 29.208893 -22.331701 0.148587
142.140808 29.208893 -22.331701 0.095667
155.624115 29.208893 -22.331701 -0.173610
169.107422 29.208893 -22.331701 -0.316082
182.590698 29.208893 -22.331701 -0.361134
196.074036 29.208893 -22.331701 -0.208997
209.557312 29.208893 -22.331701 -0.151711
223.040588 29.208893 -22.331701 -0.049965
236.523926 29.208893 -22.331701 -0.055094
250.007202 29.208893 -22.331701 0.068852
263.490540 29.208893 -22.331701 0.099956
276.973816 29.208893 -22.331701 0.104157
290.457092 29.208893 -22.331701 0.105402
303.940430 29.208893 -22.331701 0.107611
317.423706 29.208893 -22.331701 0.132080
330.907043 29.208893 -22.331701 0.000000
344.390320 29.208893 -22.331701 0.000000
-343.257996 15.725586 -22.331701 0.000000
-329.774689 15.725586 -22.331701 0.000000
-316.291382 15.725586 -22.331701 0.186790
-302.808105 15.725586 -22.331701 0.218727
-289.324799 15.725586 -22.331701 0.402936
-275.841492 15.725586 -22.331701 0.288268
-262.358185 15.725586 -22.331701 0.255805
-248.874893 15.725586 -22.331701 0.170572
-235.391602 15.725586 -22.331701 0.389228
-221.908295 15.725586 -22.331701 0.405507
-208.424988 15.725586 -22.331701 0.345036
-194.941696 15.725586 -22.331701 0.757452
-181.458389 15.725586 -22.331701 0.465028
-167.975098 15.725586 -22.331701 0.898734
-154.491791 15.725586 -22.331701 1.041943
-141.008499 15.725586 -22.331701 1.632444
-127.525192 15.725586 -22.331701 2.462349
-114.041885 15.725586 -22.331701 2.888245
-100.558594 15.725586 -22.331701 2.913774
-87.075287 15.725586 -22.331701 2.979482
-73.591980 15.725586 -22.331701 3.318752
-60.108704 15.725586 -22.331701 2.513659
-46.625397 15.725586 -22.331701 2.031982
-33.142090 15.725586 -22.331701 1.266569
-19.658783 15.725586 -22.331701 0.606687
-6.175476 15.725586 -22.331701 0.292321
7.307800 15.725586 -22.331701 0.144067
20.791107 15.725586 -22.331701 0.242391
34.274414 15.725586 -22.331701 0.460990
47.757721 15.725586 -22.331701 0.799410
61.240997 15.725586 -22.331701 1.345338
74.724304 15.725586 -22.331701 1.147409
88.207611 15.725586 -22.331701 0.943622
101.690918 15.725586 -22.331701 0.883235
115.174225 15.725586 -22.331701 0.706268
128.657501 15.725586 -22.331701 0.510416
142.140808 15.725586 -22.331701 0.227541
155.624115 15.725586 -22.331701 0.160765
169.107422 15.725586 -22.331701 -0.107222
182.590698 15.725586 -22.331701 -0.234696
196.074036 15.725586 -22.331701 -0.209951
209.557312 15.725586 -22.331701 -0.111856
223.040588 15.725586 -22.331701 -0.052416
236.523926 15.725586 -22.331701 0.057291
250.007202 15.725586 -22.331701 0.087325
263.490540 15.725586 -22.331701 0.094480
276.973816 15.725586 -22.331701 0.086393
290.457092 15.725586 -22.331701 0.070016
303.940430 15.725586 -22.331701 0.125287
317.423706 15.725586 -22.331701 0.179427
330.907043 15.725586 -22.331701 0.000000
344.390320 15.725586 -22.331701 0.000000
-343.257996 2.242279 -22.331701 0.000000
-329.774689 2.242279 -22.331701 0.000000
-316.291382 2.242279 -22.331701 -0.059707
-302.808105 2.242279 -22.331701 0.041641
-289.324799 2.242279 -22.331701 0.326156
-275.841492 2.242279 -22.331701 0.198560
-262.358185 2.242279 -22.331701 0.303114
-248.874893 2.242279 -22.331701 0.300720
-235.391602 2.242279 -22.331701 0.311283
-221.908295 2.242279 -22.331701 0.249962
-208.424988 2.242279 -22.331701 0.119424
-194.941696 2.242279 -22.331701 0.469379
-181.458389 2.242279 -22.331701 0.561217
-167.975098 2.242279 -22.331701 1.233444
-154.491791 2.242279 -22.331701 1.828020
-141.008499 2.242279 -22.331701 2.587316
-127.525192 2.242279 -22.331701 3.100901
-114.041885 2.242279 -22.331701 3.166547
-100.558594 2.242279 -22.331701 3.108181
-87.075287 2.242279 -22.331701 3.235319
-73.591980 2.242279 -22.331701 3.213421
-60.108704 2.242279 -22.331701 2.628307
-46.625397 2.242279 -22.331701 2.414672
-33.142090 2.242279 -22.331701 1.671797
-19.658783 2.242279 -22.331701 0.747660
-6.175476 2.242279 -22.331701 0.491694
7.307800 2.242279 -22.331701 0.398379
20.791107 2.242279 -22.331701 0.435650
34.274414 2.242279 -22.331701 1.061217
47.757721 2.242279 -22.331701 1.418344
61.240997 2.242279 -22.331701 1.755945
74.724304 2.242279 -22.331701 1.879996
88.207611 2.242279 -22.331701 1.575609
101.690918 2.242279 -22.331701 1.498697
115.174225 2.242279 -22.331701 1.219557
128.657501 2.242279 -22.331701 0.772056
142.140808 2.242279 -22.331701 0.454081
155.624115 2.242279 -22.331701 0.406534
169.107422 2.242279 -22.331701 0.154419
182.590698 2.242279 -22.331701 -0.125271
196.074036 2.242279 -22.331701 -0.106316
209.557312 2.242279 -22.331701 0.005762
223.040588 2.242279 -22.331701 0.046614
236.523926 2.242279 -22.331701 0.182941
250.007202 2.242279 -22.331701 0.120942
263.490540 2.242279 -22.331701 0.121006
276.973816 2.242279 -22.331701 0.077164
290.457092 2.242279 -22.331701 0.124567
303.940430 2.242279 -22.331701 0.265622
317.423706 2.242279 -22.331701 0.177352
330.907043 2.242279 -22.331701 0.000000
344.390320 2.242279 -22.331701 0.000000
-343.257996 -11.240997 -22.331701 0.000000
-329.774689 -11.240997 -22.331701 0.000000
-316.291382 -11.240997 -22.331701 0.373528
-302.808105 -11.240997 -22.331701 0.244555
-289.324799 -11.240997 -22.331701 0.307038
-275.841492 -11.240997 -22.331701 0.261365
-262.358185 -11.240997 -22.331701 0.179923
-248.874893 -11.240997 -22.331701 0.079228
-235.391602 -11.240997 -22.331701 0.284949
-221.908295 -11.240997 -22.331701 0.280870
-208.424988 -11.240997 -22.331701 -0.009585
-194.941696 -11.240997 -22.331701 0.630465
-181.458389 -11.240997 -22.331701 1.198936
-167.975098 -11.240997 -22.331701 1.618741
-154.491791 -11.240997 -22.331701 2.326124
-141.008499 -11.240997 -22.331701 2.667831
-127.525192 -11.240997 -22.331701 3.128672
-114.041885 -11.240997 -22.331701 3.897829
-100.558594 -11.240997 -22.331701 4.123231
-87.075287 -11.240997 -22.331701 4.077809
-73.591980 -11.240997 -22.331701 3.666273
-60.108704 -11.240997 -22.331701 3.304252
-46.625397 -11.240997 -22.331701 2.434062
-33.142090 -11.240997 -22.331701 1.619919
-19.658783 -11.240997 -22.331701 1.260941
-6.175476 -11.240997 -22.331701 0.999599
7.307800 -11.240997 -22.331701 0.992064
20.791107 -11.240997 -22.331701 1.290960
34.274414 -11.240997 -22.331701 1.581056
47.757721 -11.240997 -22.331701 2.029276
61.240997 -11.240997 -22.331701 2.654474
74.724304 -11.240997 -22.331701 2.664003
88.207611 -11.240997 -22.331701 2.271262
101.690918 -11.240997 -22.331701 1.993541
115.174225 -11.240997 -22.331701 1.507900
128.657501 -11.240997 -22.331701 1.293296
142.140808 -11.240997 -22.331701 0.723801
155.624115 -11.240997 -22.331701 0.623779
169.107422 -11.240997 -22.331701 0.253390
182.590698 -11.240997 -22.331701 0.032391
196.074036 -11.240997 -22.331701 -0.030813
209.557312 -11.240997 -22.331701 0.022832
223.040588 -11.240997 -22.331701 0.062942
236.523926 -11.240997 -22.331701 0.138475
250.007202 -11.240997 -22.331701 0.150900
263.490540 -11.240997 -22.331701 0.140780
276.973816 -11.240997 -22.331701 0.055404
290.457092 -11.240997 -22.331701 0.154011
303.940430 -11.240997 -22.331701 0.254261
317.423706 -11.240997 -22.331701 0.420565
330.907043 -11.240997 -22.331701 0.000000
344.390320 -11.240997 -22.331701 0.000000
-343.257996 -24.724304 -22.331701 0.000000
-329.774689 -24.724304 -22.331701 0.000000
-316.291382 -24.724304 -22.331701 0.473329
-302.808105 -24.724304 -22.331701 0.011049
-289.324799 -24.724304 -22.331701 0.481015
-275.841492 -24.724304 -22.331701 0.499647
-262.358185 -24.724304 -22.331701 0.053538
-248.874893 -24.724304 -22.331701 0.180985
-235.391602 -24.724304 -22.331701 0.499639
-221.908295 -24.724304 -22.331701 0.737551
-208.424988 -24.724304 -22.331701 0.609035
-194.941696 -24.724304 -22.331701 0.884728
-181.458389 -24.724304 -22.331701 1.388916
-167.975098 -24.724304 -22.331701 2.136873
-154.491791 -24.724304 -22.331701 2.171441
-141.008499 -24.724304 -22.331701 2.814566
-127.525192 -24.724304 -22.331701 3.737286
-114.041885 -24.724304 -22.331701 4.894613
-100.558594 -24.724304 -22.331701 4.893164
-87.075287 -24.724304 -22.331701 4.748049
-73.591980 -24.724304 -22.331701 4.829183
-60.108704 -24.724304 -22.331701 3.779988
-46.625397 -24.724304 -22.331701 3.048941
-33.142090 -24.724304 -22.331701 2.272832
-19.658783 -24.724304 -22.331701 1.990155
-6.175476 -24.724304 -22.331701 1.880908
7.307800 -24.724304 -22.331701 2.000798
20.791107 -24.724304 -22.331701 2.128166
34.274414 -24.724304 -22.331701 2.715099
47.757721 -24.724304 -22.331701 3.115675
61.240997 -24.724304 -22.331701 3.441940
74.724304 -24.724304 -22.331701 3.385540
88.207611 -24.724304 -22.331701 2.557452
101.690918 -24.724304 -22.331701 1.925905
115.174225 -24.724304 -22.331701 1.483812
128.657501 -24.724304 -22.331701 0.956508
142.140808 -24.724304 -22.331701 0.769642
155.624115 -24.724304 -22.331701 0.660840
169.107422 -24.724304 -22.331701 0.413246
182.590698 -24.724304 -22.331701 0.072175
196.074036 -24.724304 -22.331701 -0.014044
209.557312 -24.724304 -22.331701 -0.016776
223.040588 -24.724304 -22.331701 0.021378
236.523926 -24.724304 -22.331701 0.106134
250.007202 -24.724304 -22.331701 0.138589
263.490540 -24.724304 -22.331701 0.103414
276.973816 -24.724304 -22.331701 0.215464
290.457092 -24.724304 -22.331701 0.261613
303.940430 -24.724304 -22.331701 0.320847
317.423706 -24.724304 -22.331701 0.106019
330.907043 -24.724304 -22.331701 0.000000
344.390320 -24.724304 -22.331701 0.000000
-343.257996 -38.207611 -22.331701 0.000000
-329.774689 -38.207611 -22.331701 0.000000
-316.291382 -38.207611 -22.331701 0.243589
-302.808105 -38.207611 -22.331701 -0.120804
-289.324799 -38.207611 -22.331701 0.275835
-275.841492 -38.207611 -22.331701 0.404678
-262.358185 -38.207611 -22.331701 0.197536
-248.874893 -38.207611 -22.331701 0.369628
-235.391602 -38.207611 -22.331701 0.532171
-221.908295 -38.207611 -22.331701 0.837828
-208.424988 -38.207611 -22.331701 1.231914
-194.941696 -38.207611 -22.331701 1.048703
-181.458389 -38.207611 -22.331701 1.393315
-167.975098 -38.207611 -22.331701 2.314592
-154.491791 -38.207611 -22.331701 2.546011
-141.008499 -38.207611 -22.331701 3.123272
-127.525192 -38.207611 -22.331701 4.488693
-114.041885 -38.207611 -22.331701 4.483817
-100.558594 -38.207611 -22.331701 4.235095
-87.075287 -38.207611 -22.331701 5.083831
-73.591980 -38.207611 -22.331701 4.210063
-60.108704 -38.207611 -22.331701 3.548474
-46.625397 -38.207611 -22.331701 3.175431
-33.142090 -38.207611 -22.331701 2.970135
-19.658783 -38.207611 -22.331701 2.554968
-6.175476 -38.207611 -22.331701 2.928316
7.307800 -38.207611 -22.331701 2.858707
20.791107 -38.207611 -22.331701 2.898252
34.274414 -38.207611 -22.331701 3.270092
47.757721 -38.207611 -22.331701 3.492283
61.240997 -38.207611 -22.331701 3.535378
74.724304 -38.207611 -22.331701 3.554505
88.207611 -38.207611 -22.331701 2.835840
101.690918 -38.207611 -22.331701 2.009614
115.174225 -38.207611 -22.331701 1.211876
128.657501 -38.207611 -22.331701 1.044992
142.140808 -38.207611 -22.331701 0.787562
155.624115 -38.207611 -22.331701 0.649634
169.107422 -38.207611 -22.331701 0.491347
182.590698 -38.207611 -22.331701 0.239679
196.074036 -38.207611 -22.331701 -0.010100
209.557312 -38.207611 -22.331701 0.044426
223.040588 -38.207611 -22.331701 0.061919
236.523926 -38.207611 -22.331701 0.097476
250.007202 -38.207611 -22.331701 0.060422
263.490540 -38.207611 -22.331701 0.108291
276.973816 -38.207611 -22.331701 0.142643
290.457092 -38.207611 -22.331701 0.367519
303.940430 -38.207611 -22.331701 0.104811
317.423706 -38.207611 -22.331701 0.116491
330.907043 -38.207611 -22.331701 0.000000
344.390320 -38.207611 -22.331701 0.000000
-343.257996 -51.690918 -22.331701 0.000000
-329.774689 -51.690918 -22.331701 0.000000
-316.291382 -51.690918 -22.331701 0.706095
-302.808105 -51.690918 -22.331701 0.139573
-289.324799 -51.690918 -22.331701 0.175597
-275.841492 -51.690918 -22.331701 0.400538
-262.358185 -51.690918 -22.331701 0.196430
-248.874893 -51.690918 -22.331701 0.546935
-235.391602 -51.690918 -22.331701 0.425641
-221.908295 -51.690918 -22.331701 0.713066
-208.424988 -51.690918 -22.331701 1.194028
-194.941696 -51.690918 -22.331701 1.701762
-181.458389 -51.690918 -22.331701 2.137741
-167.975098 -51.690918 -22.331701 2.260556
-154.491791 -51.690918 -22.331701 3.224536
-141.008499 -51.690918 -22.331701 3.878033
-127.525192 -51.690918 -22.331701 4.584733
-114.041885 -51.690918 -22.331701 3.920620
-100.558594 -51.690918 -22.331701 4.103412
-87.075287 -51.690918 -22.331701 4.776392
-73.591980 -51.690918 -22.331701 3.976290
-60.108704 -51.690918 -22.331701 3.437539
-46.625397 -51.690918 -22.331701 2.934285
-33.142090 -51.690918 -22.331701 3.151316
-19.658783 -51.690918 -22.331701 2.789910
-6.175476 -51.690918 -22.331701 3.268869
7.307800 -51.690918 -22.331701 3.407282
20.791107 -51.690918 -22.331701 3.599593
34.274414 -51.690918 -22.331701 4.016839
47.757721 -51.690918 -22.331701 3.700696
61.240997 -51.690918 -22.331701 3.183519
74.724304 -51.690918 -22.331701 3.082361
88.207611 -51.690918 -22.331701 2.445405
101.690918 -51.690918 -22.331701 1.800159
115.174225 -51.690918 -22.331701 1.482054
128.657501 -51.690918 -22.331701 0.969826
142.140808 -51.690918 -22.331701 0.736061
155.624115 -51.690918 -22.331701 0.611932
169.107422 -51.690918 -22.331701 0.453052
182.590698 -51.690918 -22.331701 0.331841
196.074036 -51.690918 -22.331701 0.116979
209.557312 -51.690918 -22.331701 0.149005
223.040588 -51.690918 -22.331701 0.156488
236.523926 -51.690918 -22.331701 0.208741
250.007202 -51.690918 -22.331701 0.160027
263.490540 -51.690918 -22.331701 0.246956
276.973816 -51.690918 -22.331701 0.163815
290.457092 -51.690918 -22.331701 0.206881
303.940430 -51.690918 -22.331701 0.411159
317.423706 -51.690918 -22.331701 0.454564
330.907043 -51.690918 -22.331701 0.000000
344.390320 -51.690918 -22.331701 0.000000
-343.257996 -65.174225 -22.331701 0.000000
-329.774689 -65.174225 -22.331701 0.000000
-316.291382 -65.174225 -22.331701 0.660730
-302.808105 -65.174225 -22.331701 0.654384
-289.324799 -65.174225 -22.331701 -0.009800
-275.841492 -65.174225 -22.331701 -0.144547
-262.358185 -65.174225 -22.331701 0.219988
-248.874893 -65.174225 -22.331701 0.494481
-235.391602 -65.174225 -22.331701 0.830923
-221.908295 -65.174225 -22.331701 1.243790
-208.424988 -65.174225 -22.331701 1.496535
-194.941696 -65.174225 -22.331701 1.881149
-181.458389 -65.174225 -22.331701 2.079600
-167.975098 -65.174225 -22.331701 2.719242
-154.491791 -65.174225 -22.331701 3.052431
-141.008499 -65.174225 -22.331701 4.504172
-127.525192 -65.174225 -22.331701 4.614732
-114.041885 -65.174225 -22.331701 4.651705
-100.558594 -65.174225 -22.331701 3.986103
-87.075287 -65.174225 -22.331701 3.839221
-73.591980 -65.174225 -22.331701 3.958428
-60.108704 -65.174225 -22.331701 3.527496
-46.625397 -65.174225 -22.331701 3.189829
-33.142090 -65.174225 -22.331701 3.404289
-19.658783 -65.174225 -22.331701 3.351616
-6.175476 -65.174225 -22.331701 3.456944
7.307800 -65.174225 -22.331701 3.610654
20.791107 -65.174225 -22.331701 3.845102
34.274414 -65.174225 -22.331701 4.130556
47.757721 -65.174225 -22.331701 4.077063
61.240997 -65.174225 -22.331701 3.075777
74.724304 -65.174225 -22.331701 2.342484
88.207611 -65.174225 -22.331701 2.112238
101.690918 -65.174225 -22.331701 1.605304
115.174225 -65.174225 -22.331701 1.167767
128.657501 -65.174225 -22.331701 0.933064
142.140808 -65.174225 -22.331701 0.648831
155.624115 -65.174225 -22.331701 0.555495
169.107422 -65.174225 -22.331701 0.543667
182.590698 -65.174225 -22.331701 0.304795
196.074036 -65.174225 -22.331701 0.234124
209.557312 -65.174225 -22.331701 0.234622
223.040588 -65.174225 -22.331701 0.162800
236.523926 -65.174225 -22.331701 0.264316
250.007202 -65.174225 -22.331701 0.195754
263.490540 -65.174225 -22.331701 0.291048
276.973816 -65.174225 -22.331701 0.257175
290.457092 -65.174225 -22.331701 0.032573
303.940430 -65.174225 -22.331701 0.367141
317.423706 -65.174225 -22.331701 0.422099
330.907043 -65.174225 -22.331701 0.000000
344.390320 -65.174225 -22.331701 0.000000
-343.257996 -78.657501 -22.331701 0.000000
-329.774689 -78.657501 -22.331701 0.000000
-316.291382 -78.657501 -22.331701 0.697494
-302.808105 -78.657501 -22.331701 0.232928
-289.324799 -78.657501 -22.331701 0.601561
-275.841492 -78.657501 -22.331701 0.624917
-262.358185 -78.657501 -22.331701 -0.095032
-248.874893 -78.657501 -22.331701 0.033058
-235.391602 -78.657501 -22.331701 0.862051
-221.908295 -78.657501 -22.331701 1.007054
-208.424988 -78.657501 -22.331701 0.000000
-194.941696 -78.657501 -22.331701 0.000000
-181.458389 -78.657501 -22.331701 0.000000
-167.975098 -78.657501 -22.331701 3.091510
-154.491791 -78.657501 -22.331701 4.002721
-141.008499 -78.657501 -22.331701 4.441128
-127.525192 -78.657501 -22.331701 4.299480
-114.041885 -78.657501 -22.331701 4.353717
-100.558594 -78.657501 -22.331701 3.975139
-87.075287 -78.657501 -22.331701 3.730423
-73.591980 -78.657501 -22.331701 3.910585
-60.108704 -78.657501 -22.331701 3.453734
-46.625397 -78.657501 -22.331701 3.429548
-33.142090 -78.657501 -22.331701 3.305285
-19.658783 -78.657501 -22.331701 3.254542
-6.175476 -78.657501 -22.331701 3.753813
7.307800 -78.657501 -22.331701 3.744750
20.791107 -78.657501 -22.331701 4.059490
34.274414 -78.657501 -22.331701 4.051500
47.757721 -78.657501 -22.331701 3.294811
61.240997 -78.657501 -22.331701 2.475913
74.724304 -78.657501 -22.331701 1.971920
88.207611 -78.657501 -22.331701 1.702620
101.690918 -78.657501 -22.331701 1.184007
115.174225 -78.657501 -22.331701 1.096700
128.657501 -78.657501 -22.331701 0.826711
142.140808 -78.657501 -22.331701 0.624827
155.624115 -78.657501 -22.331701 0.465079
169.107422 -78.657501 -22.331701 0.427364
182.590698 -78.657501 -22.331701 0.343560
196.074036 -78.657501 -22.331701 0.247269
209.557312 -78.657501 -22.331701 0.306920
223.040588 -78.657501 -22.331701 0.256825
236.523926 -78.657501 -22.331701 0.246272
250.007202 -78.657501 -22.331701 0.167160
263.490540 -78.657501 -22.331701 0.352065
276.973816 -78.657501 -22.331701 0.515452
290.457092 -78.657501 -22.331701 0.514518
303.940430 -78.657501 -22.331701 0.825105
317.423706 -78.657501 -22.331701 0.410898
330.907043 -78.657501 -22.331701 0.000000
344.390320 -78.657501 -22.331701 0.000000
-343.257996 -92.140808 -22.331701 0.000000
-329.774689 -92.140808 -22.331701 0.000000
-316.291382 -92.140808 -22.331701 0.000000
-302.808105 -92.140808 -22.331701 0.745294
-289.324799 -92.140808 -22.331701 -0.041385
-275.841492 -92.140808 -22.331701 0.775274
-262.358185 -92.140808 -22.331701 0.568152
-248.874893 -92.140808 -22.331701 0.411743
-235.391602 -92.140808 -22.331701 0.000000
-221.908295 -92.140808 -22.331701 0.000000
-208.424988 -92.140808 -22.331701 0.000000
-194.941696 -92.140808 -22.331701 0.000000
-181.458389 -92.140808 -22.331701 0.000000
-167.975098 -92.140808 -22.331701 0.000000
-154.491791 -92.140808 -22.331701 3.453856
-141.008499 -92.140808 -22.331701 3.677812
-127.525192 -92.140808 -22.331701 3.181808
-114.041885 -92.140808 -22.331701 2.759203
-100.558594 -92.140808 -22.331701 3.518550
-87.075287 -92.140808 -22.331701 3.057173
-73.591980 -92.140808 -22.331701 3.393419
-60.108704 -92.140808 -22.331701 3.287067
-46.625397 -92.140808 -22.331701 3.500008
-33.142090 -92.140808 -22.331701 3.200067
-19.658783 -92.140808 -22.331701 3.138457
-6.175476 -92.140808 -22.331701 3.521352
7.307800 -92.140808 -22.331701 3.505458
20.791107 -92.140808 -22.331701 3.663341
34.274414 -92.140808 -22.331701 3.166559
47.757721 -92.140808 -22.331701 2.595454
61.240997 -92.140808 -22.331701 2.147879
74.724304 -92.140808 -22.331701 1.522587
88.207611 -92.140808 -22.331701 1.168610
101.690918 -92.140808 -22.331701 0.922110
115.174225 -92.140808 -22.331701 0.767951
128.657501 -92.140808 -22.331701 0.681105
142.140808 -92.140808 -22.331701 0.617920
155.624115 -92.140808 -22.331701 0.480922
169.107422 -92.140808 -22.331701 0.400424
182.590698 -92.140808 -22.331701 0.255783
196.074036 -92.140808 -22.331701 0.212082
209.557312 -92.140808 -22.331701 0.197845
223.040588 -92.140808 -22.331701 0.237730
236.523926 -92.140808 -22.331701 0.155189
250.007202 -92.140808 -22.331701 0.355039
263.490540 -92.140808 -22.331701 0.211975
276.973816 -92.140808 -22.331701 0.155312
290.457092 -92.140808 -22.331701 0.540225
303.940430 -92.140808 -22.331701 0.706274
317.423706 -92.140808 -22.331701 1.143437
330.907043 -92.140808 -22.331701 0.000000
344.390320 -92.140808 -22.331701 0.000000
-343.257996 -105.624115 -22.331701 0.000000
-329.774689 -105.624115 -22.331701 0.000000
-316.291382 -105.624115 -22.331701 0.000000
-302.808105 -105.624115 -22.331701 -0.403812
-289.324799 -105.624115 -22.331701 0.382410
-275.841492 -105.624115 -22.331701 0.368170
-262.358185 -105.624115 -22.331701 0.319047
-248.874893 -105.624115 -22.331701 1.872706
-235.391602 -105.624115 -22.331701 0.000000
-221.908295 -105.624115 -22.331701 0.000000
-208.424988 -105.624115 -22.331701 0.000000
-194.941696 -105.624115 -22.331701 0.000000
-181.458389 -105.624115 -22.331701 0.000000
-167.975098 -105.624115 -22.331701 0.000000
-154.491791 -105.624115 -22.331701 0.000000
-141.008499 -105.624115 -22.331701 2.580824
-127.525192 -105.624115 -22.331701 2.690692
-114.041885 -105.624115 -22.331701 1.740100
-100.558594 -105.624115 -22.331701 3.112678
-87.075287 -105.624115 -22.331701 2.743304
-73.591980 -105.624115 -22.331701 2.665789
-60.108704 -105.624115 -22.331701 3.798802
-46.625397 -105.624115 -22.331701 3.263109
-33.142090 -105.624115 -22.331701 3.015603
-19.658783 -105.624115 -22.331701 3.057094
-6.175476 -105.624115 -22.331701 3.252001
7.307800 -105.624115 -22.331701 3.479172
20.791107 -105.624115 -22.331701 3.412398
34.274414 -105.624115 -22.331701 2.600714
47.757721 -105.624115 -22.331701 1.987222
61.240997 -105.624115 -22.331701 1.484345
74.724304 -105.624115 -22.331701 1.236879
88.207611 -105.624115 -22.331701 0.779980
101.690918 -105.624115 -22.331701 0.709093
115.174225 -105.624115 -22.331701 0.720540
128.657501 -105.624115 -22.331701 0.577662
142.140808 -105.624115 -22.331701 0.572734
155.624115 -105.624115 -22.331701 0.357313
169.107422 -105.624115 -22.331701 0.416776
182.590698 -105.624115 -22.331701 0.227136
196.074036 -105.624115 -22.331701 0.271575
209.557312 -105.624115 -22.331701 0.049281
223.040588 -105.624115 -22.331701 0.248321
236.523926 -105.624115 -22.331701 0.455100
250.007202 -105.624115 -22.331701 0.381959
263.490540 -105.624115 -22.331701 -0.008554
276.973816 -105.624115 -22.331701 0.894064
290.457092 -105.624115 -22.331701 0.568518
303.940430 -105.624115 -22.331701 0.630300
317.423706 -105.624115 -22.331701 0.000000
330.907043 -105.624115 -22.331701 0.000000
344.390320 -105.624115 -22.331701 0.000000
-343.257996 -119.107422 -22.331701 0.000000
-329.774689 -119.107422 -22.331701 0.000000
-316.291382 -119.107422 -22.331701 0.000000
-302.808105 -119.107422 -22.331701 0.000000
-289.324799 -119.107422 -22.331701 2.175649
-275.841492 -119.107422 -22.331701 0.430477
-262.358185 -119.107422 -22.331701 0.072197
-248.874893 -119.107422 -22.331701 0.000000
-235.391602 -119.107422 -22.331701 0.000000
-221.908295 -119.107422 -22.331701 0.000000
-208.424988 -119.107422 -22.331701 0.000000
-194.941696 -119.107422 -22.331701 0.000000
-181.458389 -119.107422 -22.331701 0.000000
-167.975098 -119.107422 -22.331701 0.000000
-154.491791 -119.107422 -22.331701 1.225813
-141.008499 -119.107422 -22.331701 2.330618
-127.525192 -119.107422 -22.331701 0.411466
-114.041885 -119.107422 -22.331701 1.064332
-100.558594 -119.107422 -22.331701 2.020423
-87.075287 -119.107422 -22.331701 2.807939
-73.591980 -119.107422 -22.331701 3.199729
-60.108704 -119.107422 -22.331701 3.663838
-46.625397 -119.107422 -22.331701 3.286689
-33.142090 -119.107422 -22.331701 2.978586
-19.658783 -119.107422 -22.331701 2.482680
-6.175476 -119.107422 -22.331701 3.053120
7.307800 -119.107422 -22.331701 3.088055
20.791107 -119.107422 -22.331701 2.749352
34.274414 -119.107422 -22.331701 2.268026
47.757721 -119.107422 -22.331701 1.561143
61.240997 -119.107422 -22.331701 1.064940
74.724304 -119.107422 -22.331701 0.706048
88.207611 -119.107422 -22.331701 0.605811
101.690918 -119.107422 -22.331701 0.601336
115.174225 -119.107422 -22.331701 0.609730
128.657501 -119.107422 -22.331701 0.581799
142.140808 -119.107422 -22.331701 0.511632
155.624115 -119.107422 -22.331701 0.351633
169.107422 -119.107422 -22.331701 0.478532
182.590698 -119.107422 -22.331701 0.310587
196.074036 -119.107422 -22.331701 0.452021
209.557312 -119.107422 -22.331701 0.374732
223.040588 -119.107422 -22.331701 0.344476
236.523926 -119.107422 -22.331701 0.375742
250.007202 -119.107422 -22.331701 0.546433
263.490540 -119.107422 -22.331701 0.341812
276.973816 -119.107422 -22.331701 0.899848
290.457092 -119.107422 -22.331701 1.131183
303.940430 -119.107422 -22.331701 -0.295810
317.423706 -119.107422 -22.331701 0.000000
330.907043 -119.107422 -22.331701 0.000000
344.390320 -119.107422 -22.331701 0.000000
-343.257996 -132.590698 -22.331701 0.000000
-329.774689 -132.590698 -22.331701 0.000000
-316.291382 -132.590698 -22.331701 0.000000
-302.808105 -132.590698 -22.331701 0.000000
-289.324799 -132.590698 -22.331701 0.000000
-275.841492 -132.590698 -22.331701 0.000000
-262.358185 -132.590698 -22.331701 0.000000
-248.874893 -132.590698 -22.331701 0.000000
-235.391602 -132.590698 -22.331701 0.000000
-221.908295 -132.590698 -22.331701 0.000000
-208.424988 -132.590698 -22.331701 0.000000
-194.941696 -132.590698 -22.331701 0.000000
-181.458389 -132.590698 -22.331701 0.000000
-167.975098 -132.590698 -22.331701 0.000000
-154.491791 -132.590698 -22.331701 0.000000
-141.008499 -132.590698 -22.331701 -0.151426
-127.525192 -132.590698 -22.331701 -1.112806
-114.041885 -132.590698 -22.331701 -0.908554
-100.558594 -132.590698 -22.331701 0.005848
-87.075287 -132.590698 -22.331701 2.843068
-73.591980 -132.590698 -22.331701 2.107800
-60.108704 -132.590698 -22.331701 3.416903
-46.625397 -132.590698 -22.331701 2.702523
-33.142090 -132.590698 -22.331701 2.127194
-19.658783 -132.590698 -22.331701 2.650145
-6.175476 -132.590698 -22.331701 2.403374
7.307800 -132.590698 -22.331701 2.810594
20.791107 -132.590698 -22.331701 2.772684
34.274414 -132.590698 -22.331701 1.953074
47.757721 -132.590698 -22.331701 1.512506
61.240997 -132.590698 -22.331701 1.147928
74.724304 -132.590698 -22.331701 0.816578
88.207611 -132.590698 -22.331701 0.663344
101.690918 -132.590698 -22.331701 0.675256
115.174225 -132.590698 -22.331701 0.498890
128.657501 -132.590698 -22.331701 0.695855
142.140808 -132.590698 -22.331701 0.729535
155.624115 -132.590698 -22.331701 0.661867
169.107422 -132.590698 -22.331701 0.880364
182.590698 -132.590698 -22.331701 0.480894
196.074036 -132.590698 -22.331701 0.588611
209.557312 -132.590698 -22.331701 0.459683
223.040588 -132.590698 -22.331701 0.492172
236.523926 -132.590698 -22.331701 0.342311
250.007202 -132.590698 -22.331701 1.752663
263.490540 -132.590698 -22.331701 1.686733
276.973816 -132.590698 -22.331701 2.330301
290.457092 -132.590698 -22.331701 0.000000
303.940430 -132.590698 -22.331701 0.000000
317.423706 -132.590698 -22.331701 0.000000
330.907043 -132.590698 -22.331701 0.000000
344.390320 -132.590698 -22.331701 0.000000
-343.257996 -146.074036 -22.331701 0.000000
-329.774689 -146.074036 -22.331701 0.000000
-316.291382 -146.074036 -22.331701 0.000000
-302.808105 -146.074036 -22.331701 0.000000
-289.324799 -146.074036 -22.331701 0.000000
-275.841492 -146.074036 -22.331701 0.000000
-262.358185 -146.074036 -22.331701 0.000000
-248.874893 -146.074036 -22.331701 0.000000
-235.391602 -146.074036 -22.331701 0.000000
-221.908295 -146.074036 -22.331701 0.000000
-208.424988 -146.074036 -22.331701 0.000000
-194.941696 -146.074036 -22.331701 0.000000
-181.458389 -146.074036 -22.331701 0.000000
-167.975098 -146.074036 -22.331701 0.000000
-154.491791 -146.074036 -22.331701 0.000000
-141.008499 -146.074036 -22.331701 0.000000
-127.525192 -146.074036 -22.331701 0.000000
-114.041885 -146.074036 -22.331701 0.000000
-100.558594 -146.074036 -22.331701 0.000000
-87.075287 -146.074036 -22.331701 0.000000
-73.591980 -146.074036 -22.331701 0.000000
-60.108704 -146.074036 -22.331701 0.000000
-46.625397 -146.074036 -22.331701 2.125474
-33.142090 -146.074036 -22.331701 1.875548
-19.658783 -146.074036 -22.331701 2.630798
-6.175476 -146.074036 -22.331701 2.511838
7.307800 -146.074036 -22.331701 2.217369
20.791107 -146.074036 -22.331701 2.391203
34.274414 -146.074036 -22.331701 0.000000
47.757721 -146.074036 -22.331701 0.000000
61.240997 -146.074036 -22.331701 0.000000
74.724304 -146.074036 -22.331701 0.000000
88.207611 -146.074036 -22.331701 0.000000
101.690918 -146.074036 -22.331701 0.000000
115.174225 -146.074036 -22.331701 0.626040
128.657501 -146.074036 -22.331701 0.641574
142.140808 -146.074036 -22.331701 0.690535
155.624115 -146.074036 -22.331701 0.000000
169.107422 -146.074036 -22.331701 0.000000
182.590698 -146.074036 -22.331701 0.000000
196.074036 -146.074036 -22.331701 0.000000
209.557312 -146.074036 -22.331701 0.000000
223.040588 -146.074036 -22.331701 0.000000
236.523926 -146.074036 -22.331701 0.000000
250.007202 -146.074036 -22.331701 0.000000
263.490540 -146.074036 -22.331701 0.000000
276.973816 -146.074036 -22.331701 0.000000
290.457092 -146.074036 -22.331701 0.000000
303.940430 -146.074036 -22.331701 0.000000
317.423706 -146.074036 -22.331701 0.000000
330.907043 -146.074036 -22.331701 0.000000
344.390320 -146.074036 -22.331701 0.000000
-343.257996 -159.557312 -22.331701 0.000000
-329.774689 -159.557312 -22.331701 0.000000
-316.291382 -159.557312 -22.331701 0.000000
-302.808105 -159.557312 -22.331701 0.000000
-289.324799 -159.557312 -22.331701 0.000000
-275.841492 -159.557312 -22.331701 0.000000
-262.358185 -159.557312 -22.331701 0.000000
-248.874893 -159.557312 -22.331701 0.000000
-235.391602 -159.557312 -22.331701 0.000000
-221.908295 -159.557312 -22.331701 0.000000
-208.424988 -159.557312 -22.331701 0.000000
-194.941696 -159.557312 -22.331701 0.000000
-181.458389 -159.557312 -22.331701 0.000000
-167.975098 -159.557312 -22.331701 0.000000
-154.491791 -159.557312 -22.331701 0.000000
-141.008499 -159.557312 -22.331701 0.000000
-127.525192 -159.557312 -22.331701 0.000000
-114.041885 -159.557312 -22.331701 0.000000
-100.558594 -159.557312 -22.331701 0.000000
-87.075287 -159.557312 -22.331701 0.000000
-73.591980 -159.557312 -22.331701 0.000000
-60.108704 -159.557312 -22.331701 0.000000
-46.625397 -159.557312 -22.331701 0.000000
-33.142090 -159.557312 -22.331701 0.000000
-19.658783 -159.557312 -22.331701 0.000000
-6.175476 -159.557312 -22.331701 0.000000
7.307800 -159.557312 -22.331701 0.000000
20.791107 -159.557312 -22.331701 0.000000
34.274414 -159.557312 -22.331701 0.000000
47.757721 -159.557312 -22.331701 0.000000
61.240997 -159.557312 -22.331701 0.000000
74.724304 -159.557312 -22.331701 0.000000
88.207611 -159.557312 -22.331701 0.000000
101.690918 -159.557312 -22.331701 0.000000
115.174225 -159.557312 -22.331701 0.000000
128.657501 -159.557312 -22.331701 0.000000
142.140808 -159.557312 -22.331701 0.000000
155.624115 -159.557312 -22.331701 0.000000
169.107422 -159.557312 -22.331701 0.000000
182.590698 -159.557312 -22.331701 0.000000
196.074036 -159.557312 -22.331701 0.000000
209.557312 -159.557312 -22.331701 0.000000
223.040588 -159.557312 -22.331701 0.000000
236.523926 -159.557312 -22.331701 0.000000
250.007202 -159.557312 -22.331701 0.000000
263.490540 -159.557312 -22.331701 0.000000
276.973816 -159.557312 -22.331701 0.000000
290.457092 -159.557312 -22.331701 0.000000
303.940430 -159.557312 -22.331701 0.000000
317.423706 -159.557312 -22.331701 0.000000
330.907043 -159.557312 -22.331701 0.000000
344.390320 -159.557312 -22.331701 0.000000
-343.257996 -173.040588 -22.331701 0.000000
-329.774689 -173.040588 -22.331701 0.000000
-316.291382 -173.040588 -22.331701 0.000000
-302.808105 -173.040588 -22.331701 0.000000
-289.324799 -173.040588 -22.331701 0.000000
-275.841492 -173.040588 -22.331701 0.000000
-262.358185 -173.040588 -22.331701 0.000000
-248.874893 -173.040588 -22.331701 0.000000
-235.391602 -173.040588 -22.331701 0.000000
-221.908295 -173.040588 -22.331701 0.000000
-208.424988 -173.040588 -22.331701 0.000000
-194.941696 -173.040588 -22.331701 0.000000
-181.458389 -173.040588 -22.331701 0.000000
-167.975098 -173.040588 -22.331701 0.000000
-154.491791 -173.040588 -22.331701 0.000000
-141.008499 -173.040588 -22.331701 0.000000
-127.525192 -173.040588 -22.331701 0.000000
-114.041885 -173.040588 -22.331701 0.000000
-100.558594 -173.040588 -22.331701 0.000000
-87.075287 -173.040588 -22.331701 0.000000
-73.591980 -173.040588 -22.331701 0.000000
-60.108704 -173.040588 -22.331701 0.000000
-46.625397 -173.040588 -22.331701 0.000000
-33.142090 -173.040588 -22.331701 0.000000
-19.658783 -173.040588 -22.331701 0.000000
-6.175476 -173.040588 -22.331701 0.000000
7.307800 -173.040588 -22.331701 0.000000
20.791107 -173.040588 -22.331701 0.000000
34.274414 -173.040588 -22.331701 0.000000
47.757721 -173.040588 -22.331701 0.000000
61.240997 -173.040588 -22.331701 0.000000
74.724304 -173.040588 -22.331701 0.000000
88.207611 -173.040588 -22.331701 0.000000
101.690918 -173.040588 -22.331701 0.000000
115.174225 -173.040588 -22.331701 0.000000
128.657501 -173.040588 -22.331701 0.000000
142.140808 -173.040588 -22.331701 0.000000
155.624115 -173.040588 -22.331701 0.000000
169.107422 -173.040588 -22.331701 0.000000
182.590698 -173.040588 -22.331701 0.000000
196.074036 -173.040588 -22.331701 0.000000
209.557312 -173.040588 -22.331701 0.000000
223.040588 -173.040588 -22.331701 0.000000
236.523926 -173.040588 -22.331701 0.000000
250.007202 -173.040588 -22.331701 0.000000
263.490540 -173.040588 -22.331701 0.000000
276.973816 -173.040588 -22.331701 0.000000
290.457092 -173.040588 -22.331701 0.000000
303.940430 -173.040588 -22.331701 0.000000
317.423706 -173.040588 -22.331701 0.000000
330.907043 -173.040588 -22.331701 0.000000
344.390320 -173.040588 -22.331701 0.000000
-343.257996 -186.523926 -22.331701 0.000000
-329.774689 -186.523926 -22.331701 0.000000
-316.291382 -186.523926 -22.331701 0.000000
-302.808105 -186.523926 -22.331701 0.000000
-289.324799 -186.523926 -22.331701 0.000000
-275.841492 -186.523926 -22.331701 0.000000
-262.358185 -186.523926 -22.331701 0.000000
-248.874893 -186.523926 -22.331701 0.000000
-235.391602 -186.523926 -22.331701 0.000000
-221.908295 -186.523926 -22.331701 0.000000
-208.424988 -186.523926 -22.331701 0.000000
-194.941696 -186.523926 -22.331701 0.000000
-181.458389 -186.523926 -22.331701 0.000000
-167.975098 -186.523926 -22.331701 0.000000
-154.491791 -186.523926 -22.331701 0.000000
-141.008499 -186.523926 -22.331701 0.000000
-127.525192 -186.523926 -22.331701 0.000000
-114.041885 -186.523926 -22.331701 0.000000
-100.558594 -186.523926 -22.331701 0.000000
-87.075287 -186.523926 -22.331701 0.000000
-73.591980 -186.523926 -22.331701 0.000000
-60.108704 -186.523926 -22.331701 0.000000
-46.625397 -186.523926 -22.331701 0.000000
-33.142090 -186.523926 -22.331701 0.000000
-19.658783 -186.523926 -22.331701 0.000000
-6.175476 -186.523926 -22.331701 0.000000
7.307800 -186.523926 -22.331701 0.000000
20.791107 -186.523926 -22.331701 0.000000
34.274414 -186.523926 -22.331701 0.000000
47.757721 -186.523926 -22.331701 0.000000
61.240997 -186.523926 -22.331701 0.000000
74.724304 -186.523926 -22.331701 0.000000
88.207611 -186.523926 -22.331701 0.000000
101.690918 -186.523926 -22.331701 0.000000
115.174225 -186.523926 -22.331701 0.000000
128.657501 -186.523926 -22.331701 0.000000
142.140808 -186.523926 -22.331701 0.000000
155.624115 -186.523926 -22.331701 0.000000
169.107422 -186.523926 -22.331701 0.000000
182.590698 -186.523926 -22.331701 0.000000
196.074036 -186.523926 -22.331701 0.000000
209.557312 -186.523926 -22.331701 0.000000
223.040588 -186.523926 -22.331701 0.000000
236.523926 -186.523926 -22.331701 0.000000
250.007202 -186.523926 -22.331701 0.000000
263.490540 -186.523926 -22.331701 0.000000
276.973816 -186.523926 -22.331701 0.000000
290.457092 -186.523926 -22.331701 0.000000
303.940430 -186.523926 -22.331701 0.000000
317.423706 -186.523926 -22.331701 0.000000
330.907043 -186.523926 -22.331701 0.000000
344.390320 -186.523926 -22.331701 0.000000
-343.257996 -200.007202 -22.331701 0.000000
-329.774689 -200.007202 -22.331701 0.000000
-316.291382 -200.007202 -22.331701 0.000000
-302.808105 -200.007202 -22.331701 0.000000
-289.324799 -200.007202 -22.331701 0.000000
-275.841492 -200.007202 -22.331701 0.000000
-262.358185 -200.007202 -22.331701 0.000000
-248.874893 -200.007202 -22.331701 0.000000
-235.391602 -200.007202 -22.331701 0.000000
-221.908295 -200.007202 -22.331701 0.000000
-208.424988 -200.007202 -22.331701 0.000000
-194.941696 -200.007202 -22.331701 0.000000
-181.458389 -200.007202 -22.331701 0.000000
-167.975098 -200.007202 -22.331701 0.000000
-154.491791 -200.007202 -22.331701 0.000000
-141.008499 -200.007202 -22.331701 0.000000
-127.525192 -200.007202 -22.331701 0.000000
-114.041885 -200.007202 -22.331701 0.000000
-100.558594 -200.007202 -22.331701 0.000000
-87.075287 -200.007202 -22.331701 0.000000
-73.591980 -200.007202 -22.331701 0.000000
-60.108704 -200.007202 -22.331701 0.000000
-46.625397 -200.007202 -22.331701 0.000000
-33.142090 -200.007202 -22.331701 0.000000
-19.658783 -200.007202 -22.331701 0.000000
-6.175476 -200.007202 -22.331701 0.000000
7.307800 -200.007202 -22.331701 0.000000
20.791107 -200.007202 -22.331701 0.000000
34.274414 -200.007202 -22.331701 0.000000
47.757721 -200.007202 -22.331701 0.000000
61.240997 -200.007202 -22.331701 0.000000
74.724304 -200.007202 -22.331701 0.000000
88.207611 -200.007202 -22.331701 0.000000
101.690918 -200.007202 -22.331701 0.000000
115.174225 -200.007202 -22.331701 0.000000
128.657501 -200.007202 -22.331701 0.000000
142.140808 -200.007202 -22.331701 0.000000
155.624115 -200.007202 -22.331701 0.000000
169.107422 -200.007202 -22.331701 0.000000
182.590698 -200.007202 -22.331701 0.000000
196.074036 -200.007202 -22.331701 0.000000
209.557312 -200.007202 -22.331701 0.000000
223.040588 -200.007202 -22.331701 0.000000
236.523926 -200.007202 -22.331701 0.000000
250.007202 -200.007202 -22.331701 0.000000
263.490540 -200.007202 -22.331701 0.000000
276.973816 -200.007202 -22.331701 0.000000
290.457092 -200.007202 -22.331701 0.000000
303.940430 -200.007202 -22.331701 0.000000
317.423706 -200.007202 -22.331701 0.000000
330.907043 -200.007202 -22.331701 0.000000
344.390320 -200.007202 -22.331701 0.000000
-343.257996 393.257996 -8.848400 0.000000
-329.774689 393.257996 -8.848400 0.000000
-316.291382 393.257996 -8.848400 0.000000
-302.808105 393.257996 -8.848400 0.000000
-289.324799 393.257996 -8.848400 0.000000
-275.841492 393.257996 -8.848400 0.000000
-262.358185 393.257996 -8.848400 0.000000
-248.874893 393.257996 -8.848400 0.000000
-235.391602 393.257996 -8.848400 0.000000
-221.908295 393.257996 -8.848400 0.000000
-208.424988 393.257996 -8.848400 0.000000
-194.941696 393.257996 -8.848400 0.000000
-181.458389 393.257996 -8.848400 0.000000
-167.975098 393.257996 -8.848400 0.000000
-154.491791 393.257996 -8.848400 0.000000
-141.008499 393.257996 -8.848400 0.000000
-127.525192 393.257996 -8.848400 0.000000
-114.041885 393.257996 -8.848400 0.000000
-100.558594 393.257996 -8.848400 0.000000
-87.075287 393.257996 -8.848400 0.000000
-73.591980 393.257996 -8.848400 0.000000
-60.108704 393.257996 -8.848400 0.000000
-46.625397 393.257996 -8.848400 0.000000
-33.142090 393.257996 -8.848400 0.000000
-19.658783 393.257996 -8.848400 0.000000
-6.175476 393.257996 -8.848400 0.000000
7.307800 393.257996 -8.848400 0.000000
20.791107 393.257996 -8.848400 0.000000
34.274414 393.257996 -8.848400 0.000000
47.757721 393.257996 -8.848400 0.000000
61.240997 393.257996 -8.848400 0.000000
74.724304 393.257996 -8.848400 0.000000
88.207611 393.257996 -8.848400 0.000000
101.690918 393.257996 -8.848400 0.000000
115.174225 393.257996 -8.848400 0.000000
128.657501 393.257996 -8.848400 0.000000
142.140808 393.257996 -8.848400 0.000000
155.624115 393.257996 -8.848400 0.000000
169.107422 393.257996 -8.848400 0.000000
182.590698 393.257996 -8.848400 0.000000
196.074036 393.257996 -8.848400 0.000000
209.557312 393.257996 -8.848400 0.000000
223.040588 393.257996 -8.848400 0.000000
236.523926 393.257996 -8.848400 0.000000
250.007202 393.257996 -8.848400 0.000000
263.490540 393.257996 -8.848400 0.000000
276.973816 393.257996 -8.848400 0.000000
290.457092 393.257996 -8.848400 0.000000
303.940430 393.257996 -8.848400 0.000000
317.423706 393.257996 -8.848400 0.000000
330.907043 393.257996 -8.848400 0.000000
344.390320 393.257996 -8.848400 0.000000
-343.257996 379.774689 -8.848400 0.000000
-329.774689 379.774689 -8.848400 0.000000
-316.291382 379.774689 -8.848400 0.000000
-302.808105 379.774689 -8.848400 0.000000
-289.324799 379.774689 -8.848400 0.000000
-275.841492 379.774689 -8.848400 0.000000
-262.358185 379.774689 -8.848400 0.000000
-248.874893 379.774689 -8.848400 0.000000
-235.391602 379.774689 -8.848400 0.000000
-221.908295 379.774689 -8.848400 0.000000
-208.424988 379.774689 -8.848400 0.000000
-194.941696 379.774689 -8.848400 0.000000
-181.458389 379.774689 -8.848400 0.000000
-167.975098 379.774689 -8.848400 0.000000
-154.491791 379.774689 -8.848400 0.000000
-141.008499 379.774689 -8.848400 0.000000
-127.525192 379.774689 -8.848400 0.000000
-114.041885 379.774689 -8.848400 0.000000
-100.558594 379.774689 -8.848400 0.000000
-87.075287 379.774689 -8.848400 0.000000
-73.591980 379.774689 -8.848400 0.000000
-60.108704 379.774689 -8.848400 0.000000
-46.625397 379.774689 -8.848400 0.000000
-33.142090 379.774689 -8.848400 0.000000
-19.658783 379.774689 -8.848400 0.000000
-6.175476 379.774689 -8.848400 0.000000
7.307800 379.774689 -8.848400 0.000000
20.791107 379.774689 -8.848400 0.000000
34.274414 379.774689 -8.848400 0.000000
47.757721 379.774689 -8.848400 0.000000
61.240997 379.774689 -8.848400 0.000000
74.724304 379.774689 -8.848400 0.000000
88.207611 379.774689 -8.848400 0.000000
101.690918 379.774689 -8.848400 0.000000
115.174225 379.774689 -8.848400 0.000000
128.657501 379.774689 -8.848400 0.000000
142.140808 379.774689 -8.848400 0.000000
155.624115 379.774689 -8.848400 0.000000
169.107422 379.774689 -8.848400 0.000000
182.590698 379.774689 -8.848400 0.000000
196.074036 379.774689 -8.848400 0.000000
209.557312 379.774689 -8.848400 0.000000
223.040588 379.774689 -8.848400 0.000000
236.523926 379.774689 -8.848400 0.000000
250.007202 379.774689 -8.848400 0.000000
263.490540 379.774689 -8.848400 0.000000
276.973816 379.774689 -8.848400 0.000000
290.457092 379.774689 -8.848400 0.000000
303.940430 379.774689 -8.848400 0.000000
317.423706 379.774689 -8.848400 0.000000
330.907043 379.774689 -8.848400 0.000000
344.390320 379.774689 -8.848400 0.000000
-343.257996 366.291382 -8.848400 0.000000
-329.774689 366.291382 -8.848400 0.000000
-316.291382 366.291382 -8.848400 0.000000
-302.808105 366.291382 -8.848400 0.000000
-289.324799 366.291382 -8.848400 0.000000
-275.841492 366.291382 -8.848400 0.000000
-262.358185 366.291382 -8.848400 0.000000
-248.874893 366.291382 -8.848400 0.000000
-235.391602 366.291382 -8.848400 0.000000
-221.908295 366.291382 -8.848400 0.000000
-208.424988 366.291382 -8.848400 0.000000
-194.941696 366.291382 -8.848400 0.000000
-181.458389 366.291382 -8.848400 0.000000
-167.975098 366.291382 -8.848400 0.000000
-154.491791 366.291382 -8.848400 0.000000
-141.008499 366.291382 -8.848400 0.000000
-127.525192 366.291382 -8.848400 0.000000
-114.041885 366.291382 -8.848400 0.000000
-100.558594 366.291382 -8.848400 0.000000
-87.075287 366.291382 -8.848400 0.000000
-73.591980 366.291382 -8.848400 0.000000
-60.108704 366.291382 -8.848400 0.000000
-46.625397 366.291382 -8.848400 0.000000
-33.142090 366.291382 -8.848400 0.000000
-19.658783 366.291382 -8.848400 0.000000
-6.175476 366.291382 -8.848400 0.000000
7.307800 366.291382 -8.848400 0.000000
20.791107 366.291382 -8.848400 0.000000
34.274414 366.291382 -8.848400 0.000000
47.757721 366.291382 -8.848400 0.000000
61.240997 366.291382 -8.848400 0.000000
74.724304 366.291382 -8.848400 0.000000
88.207611 366.291382 -8.848400 0.000000
101.690918 366.291382 -8.848400 0.000000
115.174225 366.291382 -8.848400 0.000000
128.657501 366.291382 -8.848400 0.000000
142.140808 366.291382 -8.848400 0.000000
155.624115 366.291382 -8.848400 0.000000
169.107422 366.291382 -8.848400 0.000000
182.590698 366.291382 -8.848400 0.000000
196.074036 366.291382 -8.848400 0.000000
209.557312 366.291382 -8.848400 0.000000
223.040588 366.291382 -8.848400 0.000000
236.523926 366.291382 -8.848400 0.000000
250.007202 366.291382 -8.848400 0.000000
263.490540 366.291382 -8.848400 0.000000
276.973816 366.291382 -8.848400 0.000000
290.457092 366.291382 -8.848400 0.000000
303.940430 366.291382 -8.848400 0.000000
317.423706 366.291382 -8.848400 0.000000
330.907043 366.291382 -8.848400 0.000000
344.390320 366.291382 -8.848400 0.000000
-343.257996 352.808105 -8.848400 0.000000
-329.774689 352.808105 -8.848400 0.000000
-316.291382 352.808105 -8.848400 0.000000
-302.808105 352.808105 -8.848400 0.000000
-289.324799 352.808105 -8.848400 0.000000
-275.841492 352.808105 -8.848400 0.000000
-262.358185 352.808105 -8.848400 0.000000
-248.874893 352.808105 -8.848400 0.000000
-235.391602 352.808105 -8.848400 0.000000
-221.908295 352.808105 -8.848400 0.000000
-208.424988 352.808105 -8.848400 0.000000
-194.941696 352.808105 -8.848400 0.000000
-181.458389 352.808105 -8.848400 0.000000
-167.975098 352.808105 -8.848400 0.000000
-154.491791 352.808105 -8.848400 0.000000
-141.008499 352.808105 -8.848400 0.000000
-127.525192 352.808105 -8.848400 0.000000
-114.041885 352.808105 -8.848400 0.000000
-100.558594 352.808105 -8.848400 0.000000
-87.075287 352.808105 -8.848400 0.000000
-73.591980 352.808105 -8.848400 0.000000
-60.108704 352.808105 -8.848400 0.000000
-46.625397 352.808105 -8.848400 0.000000
-33.142090 352.808105 -8.848400 0.000000
-19.658783 352.808105 -8.848400 0.000000
-6.175476 352.808105 -8.848400 0.000000
7.307800 352.808105 -8.848400 0.000000
20.791107 352.808105 -8.848400 0.000000
34.274414 352.808105 -8.848400 0.000000
47.757721 352.808105 -8.848400 0.000000
61.240997 352.808105 -8.848400 0.000000
74.724304 352.808105 -8.848400 0.000000
88.207611 352.808105 -8.848400 0.000000
101.690918 352.808105 -8.848400 0.000000
115.174225 352.808105 -8.848400 0.000000
128.657501 352.808105 -8.848400 0.000000
142.140808 352.808105 -8.848400 0.000000
155.624115 352.808105 -8.848400 0.000000
169.107422 352.808105 -8.848400 0.000000
182.590698 352.808105 -8.848400 0.000000
196.074036 352.808105 -8.848400 0.000000
209.557312 352.808105 -8.848400 0.000000
223.040588 352.808105 -8.848400 0.000000
236.523926 352.808105 -8.848400 0.000000
250.007202 352.808105 -8.848400 0.000000
263.490540 352.808105 -8.848400 0.000000
276.973816 352.808105 -8.848400 0.000000
290.457092 352.808105 -8.848400 0.000000
303.940430 352.808105 -8.848400 0.000000
317.423706 352.808105 -8.848400 0.000000
330.907043 352.808105 -8.848400 0.000000
344.390320 352.808105 -8.848400 0.000000
-343.257996 339.324799 -8.848400 0.000000
-329.774689 339.324799 -8.848400 0.000000
-316.291382 339.324799 -8.848400 0.000000
-302.808105 339.324799 -8.848400 0.000000
-289.324799 339.324799 -8.848400 0.000000
-275.841492 339.324799 -8.848400 0.000000
-262.358185 339.324799 -8.848400 0.000000
-248.874893 339.324799 -8.848400 0.000000
-235.391602 339.324799 -8.848400 0.000000
-221.908295 339.324799 -8.848400 0.000000
-208.424988 339.324799 -8.848400 0.000000
-194.941696 339.324799 -8.848400 0.000000
-181.458389 339.324799 -8.848400 0.000000
-167.975098 339.324799 -8.848400 0.000000
-154.491791 339.324799 -8.848400 0.000000
-141.008499 339.324799 -8.848400 0.000000
-127.525192 339.324799 -8.848400 0.000000
-114.041885 339.324799 -8.848400 0.000000
-100.558594 339.324799 -8.848400 0.000000
-87.075287 339.324799 -8.848400 0.000000
-73.591980 339.324799 -8.848400 0.000000
-60.108704 339.324799 -8.848400 0.000000
-46.625397 339.324799 -8.848400 0.000000
-33.142090 339.324799 -8.848400 0.000000
-19.658783 339.324799 -8.848400 0.000000
-6.175476 339.324799 -8.848400 0.000000
7.307800 339.324799 -8.848400 0.000000
20.791107 339.324799 -8.848400 0.000000
34.274414 339.324799 -8.848400 0.000000
47.757721 339.324799 -8.848400 0.000000
61.240997 339.324799 -8.848400 0.000000
74.724304 339.324799 -8.848400 0.000000
88.207611 339.324799 -8.848400 0.000000
101.690918 339.324799 -8.848400 0.000000
115.174225 339.324799 -8.848400 0.000000
128.657501 339.324799 -8.848400 0.000000
142.140808 339.324799 -8.848400 0.000000
155.624115 339.324799 -8.848400 0.000000
169.107422 339.324799 -8.848400 0.000000
182.590698 339.324799 -8.848400 0.000000
196.074036 339.324799 -8.848400 0.000000
209.557312 339.324799 -8.848400 0.000000
223.040588 339.324799 -8.848400 0.000000
236.523926 339.324799 -8.848400 0.000000
250.007202 339.324799 -8.848400 0.000000
263.490540 339.324799 -8.848400 0.000000
276.973816 339.324799 -8.848400 0.000000
290.457092 339.324799 -8.848400 0.000000
303.940430 339.324799 -8.848400 0.000000
317.423706 339.324799 -8.848400 0.000000
330.907043 339.324799 -8.848400 0.000000
344.390320 339.324799 -8.848400 0.000000
-343.257996 325.841492 -8.848400 0.000000
-329.774689 325.841492 -8.848400 0.000000
-316.291382 325.841492 -8.848400 0.000000
-302.808105 325.841492 -8.848400 0.000000
-289.324799 325.841492 -8.848400 0.000000
-275.841492 325.841492 -8.848400 0.000000
-262.358185 325.841492 -8.848400 0.000000
-248.874893 325.841492 -8.848400 0.000000
-235.391602 325.841492 -8.848400 0.000000
-221.908295 325.841492 -8.848400 0.000000
-208.424988 325.841492 -8.848400 0.000000
-194.941696 325.841492 -8.848400 0.000000
-181.458389 325.841492 -8.848400 0.000000
-167.975098 325.841492 -8.848400 0.000000
-154.491791 325.841492 -8.848400 0.000000
-141.008499 325.841492 -8.848400 0.000000
-127.525192 325.841492 -8.848400 -1.133665
-114.041885 325.841492 -8.848400 -1.692279
-100.558594 325.841492 -8.848400 -2.109729
-87.075287 325.841492 -8.848400 -2.186873
-73.591980 325.841492 -8.848400 -2.056114
-60.108704 325.841492 -8.848400 -1.353750
-46.625397 325.841492 -8.848400 -1.792990
-33.142090 325.841492 -8.848400 0.000000
-19.658783 325.841492 -8.848400 0.000000
-6.175476 325.841492 -8.848400 0.000000
7.307800 325.841492 -8.848400 0.000000
20.791107 325.841492 -8.848400 0.000000
34.274414 325.841492 -8.848400 0.000000
47.757721 325.841492 -8.848400 0.000000
61.240997 325.841492 -8.848400 0.000000
74.724304 325.841492 -8.848400 0.000000
88.207611 325.841492 -8.848400 0.000000
101.690918 325.841492 -8.848400 0.000000
115.174225 325.841492 -8.848400 0.000000
128.657501 325.841492 -8.848400 0.000000
142.140808 325.841492 -8.848400 0.000000
155.624115 325.841492 -8.848400 0.000000
169.107422 325.841492 -8.848400 0.000000
182.590698 325.841492 -8.848400 0.000000
196.074036 325.841492 -8.848400 0.000000
209.557312 325.841492 -8.848400 0.000000
223.040588 325.841492 -8.848400 0.000000
236.523926 325.841492 -8.848400 0.000000
250.007202 325.841492 -8.848400 0.000000
263.490540 325.841492 -8.848400 0.000000
276.973816 325.841492 -8.848400 0.000000
290.457092 325.841492 -8.848400 0.000000
303.940430 325.841492 -8.848400 0.000000
317.423706 325.841492 -8.848400 0.000000
330.907043 325.841492 -8.848400 0.000000
344.390320 325.841492 -8.848400 0.000000
-343.257996 312.358185 -8.848400 0.000000
-329.774689 312.358185 -8.848400 0.000000
-316.291382 312.358185 -8.848400 0.000000
-302.808105 312.358185 -8.848400 0.000000
-289.324799 312.358185 -8.848400 0.000000
-275.841492 312.358185 -8.848400 0.000000
-262.358185 312.358185 -8.848400 0.000000
-248.874893 312.358185 -8.848400 0.000000
-235.391602 312.358185 -8.848400 0.000000
-221.908295 312.358185 -8.848400 0.000000
-208.424988 312.358185 -8.848400 0.000000
-194.941696 312.358185 -8.848400 0.000000
-181.458389 312.358185 -8.848400 0.000000
-167.975098 312.358185 -8.848400 0.000000
-154.491791 312.358185 -8.848400 0.000000
-141.008499 312.358185 -8.848400 -0.779706
-127.525192 312.358185 -8.848400 -1.090042
-114.041885 312.358185 -8.848400 -1.581783
-100.558594 312.358185 -8.848400 -1.855291
-87.075287 312.358185 -8.848400 -1.970436
-73.591980 312.358185 -8.848400 -2.195110
-60.108704 312.358185 -8.848400 -2.153978
-46.625397 312.358185 -8.848400 -1.870241
-33.142090 312.358185 -8.848400 -1.397373
-19.658783 312.358185 -8.848400 0.000000
-6.175476 312.358185 -8.848400 0.000000
7.307800 312.358185 -8.848400 0.000000
20.791107 312.358185 -8.848400 0.000000
34.274414 312.358185 -8.848400 0.000000
47.757721 312.358185 -8.848400 0.000000
61.240997 312.358185 -8.848400 0.000000
74.724304 312.358185 -8.848400 0.000000
88.207611 312.358185 -8.848400 0.000000
101.690918 312.358185 -8.848400 0.000000
115.174225 312.358185 -8.848400 0.000000
128.657501 312.358185 -8.848400 0.000000
142.140808 312.358185 -8.848400 0.000000
155.624115 312.358185 -8.848400 0.000000
169.107422 312.358185 -8.848400 0.000000
182.590698 312.358185 -8.848400 0.000000
196.074036 312.358185 -8.848400 0.000000
209.557312 312.358185 -8.848400 0.000000
223.040588 312.358185 -8.848400 0.000000
236.523926 312.358185 -8.848400 0.000000
250.007202 312.358185 -8.848400 0.000000
263.490540 312.358185 -8.848400 0.000000
276.973816 312.358185 -8.848400 0.000000
290.457092 312.358185 -8.848400 0.000000
303.940430 312.358185 -8.848400 0.000000
317.423706 312.358185 -8.848400 0.000000
330.907043 312.358185 -8.848400 0.000000
344.390320 312.358185 -8.848400 0.000000
-343.257996 298.874878 -8.848400 0.000000
-329.774689 298.874878 -8.848400 0.000000
-316.291382 298.874878 -8.848400 0.000000
-302.808105 298.874878 -8.848400 0.000000
-289.324799 298.874878 -8.848400 0.000000
-275.841492 298.874878 -8.848400 0.000000
-262.358185 298.874878 -8.848400 0.000000
-248.874893 298.874878 -8.848400 0.000000
-235.391602 298.874878 -8.848400 0.000000
-221.908295 298.874878 -8.848400 0.000000
-208.424988 298.874878 -8.848400 0.000000
-194.941696 298.874878 -8.848400 0.000000
-181.458389 298.874878 -8.848400 0.000000
-167.975098 298.874878 -8.848400 0.000000
-154.491791 298.874878 -8.848400 0.000000
-141.008499 298.874878 -8.848400 -0.588232
-127.525192 298.874878 -8.848400 -1.210639
-114.041885 298.874878 -8.848400 -1.274239
-100.558594 298.874878 -8.848400 -1.527711
-87.075287 298.874878 -8.848400 -1.733410
-73.591980 298.874878 -8.848400 -1.603688
-60.108704 298.874878 -8.848400 -1.918311
-46.625397 298.874878 -8.848400 -2.273768
-33.142090 298.874878 -8.848400 -1.721030
-19.658783 298.874878 -8.848400 -1.633852
-6.175476 298.874878 -8.848400 0.000000
7.307800 298.874878 -8.848400 0.000000
20.791107 298.874878 -8.848400 0.000000
34.274414 298.874878 -8.848400 0.000000
47.757721 298.874878 -8.848400 0.000000
61.240997 298.874878 -8.848400 0.000000
74.724304 298.874878 -8.848400 0.000000
88.207611 298.874878 -8.848400 0.000000
101.690918 298.874878 -8.848400 0.000000
115.174225 298.874878 -8.848400 0.000000
128.657501 298.874878 -8.848400 0.000000
142.140808 298.874878 -8.848400 0.000000
155.624115 298.874878 -8.848400 0.000000
169.107422 298.874878 -8.848400 0.000000
182.590698 298.874878 -8.848400 0.000000
196.074036 298.874878 -8.848400 0.000000
209.557312 298.874878 -8.848400 0.000000
223.040588 298.874878 -8.848400 0.000000
236.523926 298.874878 -8.848400 0.000000
250.007202 298.874878 -8.848400 0.000000
263.490540 298.874878 -8.848400 0.000000
276.973816 298.874878 -8.848400 0.000000
290.457092 298.874878 -8.848400 0.000000
303.940430 298.874878 -8.848400 0.000000
317.423706 298.874878 -8.848400 0.000000
330.907043 298.874878 -8.848400 0.000000
344.390320 298.874878 -8.848400 0.000000
-343.257996 285.391602 -8.848400 0.000000
-329.774689 285.391602 -8.848400 0.000000
-316.291382 285.391602 -8.848400 0.000000
-302.808105 285.391602 -8.848400 0.000000
-289.324799 285.391602 -8.848400 0.000000
-275.841492 285.391602 -8.848400 0.000000
-262.358185 285.391602 -8.848400 0.000000
-248.874893 285.391602 -8.848400 0.000000
-235.391602 285.391602 -8.848400 0.000000
-221.908295 285.391602 -8.848400 0.000000
-208.424988 285.391602 -8.848400 0.000000
-194.941696 285.391602 -8.848400 0.000000
-181.458389 285.391602 -8.848400 0.000000
-167.975098 285.391602 -8.848400 0.000000
-154.491791 285.391602 -8.848400 0.000000
-141.008499 285.391602 -8.848400 -0.974218
-127.525192 285.391602 -8.848400 -1.152949
-114.041885 285.391602 -8.848400 -1.027518
-100.558594 285.391602 -8.848400 -1.027245
-87.075287 285.391602 -8.848400 -1.113416
-73.591980 285.391602 -8.848400 -0.940156
-60.108704 285.391602 -8.848400 -1.611159
-46.625397 285.391602 -8.848400 -1.731059
-33.142090 285.391602 -8.848400 -1.713137
-19.658783 285.391602 -8.848400 -1.515123
-6.175476 285.391602 -8.848400 -1.015878
7.307800 285.391602 -8.848400 -0.825001
20.791107 285.391602 -8.848400 -0.730794
34.274414 285.391602 -8.848400 0.000000
47.757721 285.391602 -8.848400 0.000000
61.240997 285.391602 -8.848400 0.000000
74.724304 285.391602 -8.848400 0.000000
88.207611 285.391602 -8.848400 0.000000
101.690918 285.391602 -8.848400 0.000000
115.174225 285.391602 -8.848400 0.000000
128.657501 285.391602 -8.848400 0.000000
142.140808 285.391602 -8.848400 0.000000
155.624115 285.391602 -8.848400 0.000000
169.107422 285.391602 -8.848400 0.000000
182.590698 285.391602 -8.848400 0.000000
196.074036 285.391602 -8.848400 0.000000
209.557312 285.391602 -8.848400 0.000000
223.040588 285.391602 -8.848400 0.000000
236.523926 285.391602 -8.848400 0.000000
250.007202 285.391602 -8.848400 0.000000
263.490540 285.391602 -8.848400 0.000000
276.973816 285.391602 -8.848400 0.000000
290.457092 285.391602 -8.848400 0.000000
303.940430 285.391602 -8.848400 0.000000
317.423706 285.391602 -8.848400 0.000000
330.907043 285.391602 -8.848400 0.000000
344.390320 285.391602 -8.848400 0.000000
-343.257996 271.908295 -8.848400 0.000000
-329.774689 271.908295 -8.848400 0.000000
-316.291382 271.908295 -8.848400 0.000000
-302.808105 271.908295 -8.848400 0.000000
-289.324799 271.908295 -8.848400 0.000000
-275.841492 271.908295 -8.848400 0.000000
-262.358185 271.908295 -8.848400 0.000000
-248.874893 271.908295 -8.848400 0.000000
-235.391602 271.908295 -8.848400 0.000000
-221.908295 271.908295 -8.848400 0.000000
-208.424988 271.908295 -8.848400 0.000000
-194.941696 271.908295 -8.848400 0.000000
-181.458389 271.908295 -8.848400 0.000000
-167.975098 271.908295 -8.848400 0.000000
-154.491791 271.908295 -8.848400 0.000000
-141.008499 271.908295 -8.848400 -0.748056
-127.525192 271.908295 -8.848400 -1.041127
-114.041885 271.908295 -8.848400 -1.212239
-100.558594 271.908295 -8.848400 -0.989895
-87.075287 271.908295 -8.848400 -0.743733
-73.591980 271.908295 -8.848400 -0.936523
-60.108704 271.908295 -8.848400 -1.049951
-46.625397 271.908295 -8.848400 -1.416124
-33.142090 271.908295 -8.848400 -1.526256
-19.658783 271.908295 -8.848400 -1.649073
-6.175476 271.908295 -8.848400 -1.460540
7.307800 271.908295 -8.848400 -1.083622
20.791107 271.908295 -8.848400 -0.969004
34.274414 271.908295 -8.848400 -0.778853
47.757721 271.908295 -8.848400 -0.893047
61.240997 271.908295 -8.848400 0.000000
74.724304 271.908295 -8.848400 0.000000
88.207611 271.908295 -8.848400 -1.963864
101.690918 271.908295 -8.848400 -2.045893
115.174225 271.908295 -8.848400 -1.659795
128.657501 271.908295 -8.848400 -1.456361
142.140808 271.908295 -8.848400 -0.996986
155.624115 271.908295 -8.848400 0.000000
169.107422 271.908295 -8.848400 0.000000
182.590698 271.908295 -8.848400 0.000000
196.074036 271.908295 -8.848400 0.000000
209.557312 271.908295 -8.848400 0.000000
223.040588 271.908295 -8.848400 0.000000
236.523926 271.908295 -8.848400 0.000000
250.007202 271.908295 -8.848400 0.000000
263.490540 271.908295 -8.848400 0.000000
276.973816 271.908295 -8.848400 0.000000
290.457092 271.908295 -8.848400 0.000000
303.940430 271.908295 -8.848400 0.000000
317.423706 271.908295 -8.848400 0.000000
330.907043 271.908295 -8.848400 0.000000
344.390320 271.908295 -8.848400 0.000000
-343.257996 258.424988 -8.848400 0.000000
-329.774689 258.424988 -8.848400 0.000000
-316.291382 258.424988 -8.848400 0.000000
-302.808105 258.424988 -8.848400 0.000000
-289.324799 258.424988 -8.848400 0.000000
-275.841492 258.424988 -8.848400 0.000000
-262.358185 258.424988 -8.848400 0.000000
-248.874893 258.424988 -8.848400 0.000000
-235.391602 258.424988 -8.848400 0.000000
-221.908295 258.424988 -8.848400 0.000000
-208.424988 258.424988 -8.848400 0.000000
-194.941696 258.424988 -8.848400 0.000000
-181.458389 258.424988 -8.848400 0.000000
-167.975098 258.424988 -8.848400 0.000000
-154.491791 258.424988 -8.848400 0.000000
-141.008499 258.424988 -8.848400 -0.512750
-127.525192 258.424988 -8.848400 -1.032817
-114.041885 258.424988 -8.848400 -0.962670
-100.558594 258.424988 -8.848400 -0.744369
-87.075287 258.424988 -8.848400 -0.665211
-73.591980 258.424988 -8.848400 -0.789690
-60.108704 258.424988 -8.848400 -0.831551
-46.625397 258.424988 -8.848400 -1.162643
-33.142090 258.424988 -8.848400 -1.527813
-19.658783 258.424988 -8.848400 -1.644816
-6.175476 258.424988 -8.848400 -1.524085
7.307800 258.424988 -8.848400 -1.539412
20.791107 258.424988 -8.848400 -1.512441
34.274414 258.424988 -8.848400 -1.192607
47.757721 258.424988 -8.848400 -1.163329
61.240997 258.424988 -8.848400 -1.685105
74.724304 258.424988 -8.848400 -1.875404
88.207611 258.424988 -8.848400 -1.888031
101.690918 258.424988 -8.848400 -1.881736
115.174225 258.424988 -8.848400 -1.064814
128.657501 258.424988 -8.848400 -0.796603
142.140808 258.424988 -8.848400 -0.687353
155.624115 258.424988 -8.848400 -0.520929
169.107422 258.424988 -8.848400 0.000000
182.590698 258.424988 -8.848400 0.000000
196.074036 258.424988 -8.848400 0.000000
209.557312 258.424988 -8.848400 0.000000
223.040588 258.424988 -8.848400 0.000000
236.523926 258.424988 -8.848400 0.000000
250.007202 258.424988 -8.848400 0.000000
263.490540 258.424988 -8.848400 0.000000
276.973816 258.424988 -8.848400 0.000000
290.457092 258.424988 -8.848400 0.000000
303.940430 258.424988 -8.848400 0.000000
317.423706 258.424988 -8.848400 0.000000
330.907043 258.424988 -8.848400 0.000000
344.390320 258.424988 -8.848400 0.000000
-343.257996 244.941696 -8.848400 0.000000
-329.774689 244.941696 -8.848400 0.000000
-316.291382 244.941696 -8.848400 0.000000
-302.808105 244.941696 -8.848400 0.000000
-289.324799 244.941696 -8.848400 0.000000
-275.841492 244.941696 -8.848400 0.000000
-262.358185 244.941696 -8.848400 0.000000
-248.874893 244.941696 -8.848400 0.000000
-235.391602 244.941696 -8.848400 0.000000
-221.908295 244.941696 -8.848400 0.000000
-208.424988 244.941696 -8.848400 0.000000
-194.941696 244.941696 -8.848400 0.000000
-181.458389 244.941696 -8.848400 0.000000
-167.975098 244.941696 -8.848400 0.000000
-154.491791 244.941696 -8.848400 -0.464051
-141.008499 244.941696 -8.848400 -0.236692
-127.525192 244.941696 -8.848400 -0.825969
-114.041885 244.941696 -8.848400 -0.915618
-100.558594 244.941696 -8.848400 -0.796097
-87.075287 244.941696 -8.848400 -0.577695
-73.591980 244.941696 -8.848400 -0.699937
-60.108704 244.941696 -8.848400 -0.565094
-46.625397 244.941696 -8.848400 -0.725989
-33.142090 244.941696 -8.848400 -1.159364
-19.658783 244.941696 -8.848400 -1.523464
-6.175476 244.941696 -8.848400 -1.740190
7.307800 244.941696 -8.848400 -1.498728
20.791107 244.941696 -8.848400 -1.634504
34.274414 244.941696 -8.848400 -1.364074
47.757721 244.941696 -8.848400 -1.737580
61.240997 244.941696 -8.848400 -1.762205
74.724304 244.941696 -8.848400 -1.394243
88.207611 244.941696 -8.848400 -1.361660
101.690918 244.941696 -8.848400 -1.103464
115.174225 244.941696 -8.848400 -0.805049
128.657501 244.941696 -8.848400 -0.586404
142.140808 244.941696 -8.848400 -0.252772
155.624115 244.941696 -8.848400 -0.332711
169.107422 244.941696 -8.848400 -0.134669
182.590698 244.941696 -8.848400 0.000000
196.074036 244.941696 -8.848400 0.000000
209.557312 244.941696 -8.848400 0.000000
223.040588 244.941696 -8.848400 0.000000
236.523926 244.941696 -8.848400 0.000000
250.007202 244.941696 -8.848400 0.000000
263.490540 244.941696 -8.848400 0.000000
276.973816 244.941696 -8.848400 0.000000
290.457092 244.941696 -8.848400 0.000000
303.940430 244.941696 -8.848400 0.000000
317.423706 244.941696 -8.848400 0.000000
330.907043 244.941696 -8.848400 0.000000
344.390320 244.941696 -8.848400 0.000000
-343.257996 231.458389 -8.848400 0.000000
-329.774689 231.458389 -8.848400 0.000000
-316.291382 231.458389 -8.848400 0.000000
-302.808105 231.458389 -8.848400 0.000000
-289.324799 231.458389 -8.848400 0.000000
-275.841492 231.458389 -8.848400 0.000000
-262.358185 231.458389 -8.848400 0.000000
-248.874893 231.458389 -8.848400 0.000000
-235.391602 231.458389 -8.848400 0.000000
-221.908295 231.458389 -8.848400 0.000000
-208.424988 231.458389 -8.848400 0.000000
-194.941696 231.458389 -8.848400 0.000000
-181.458389 231.458389 -8.848400 0.000000
-167.975098 231.458389 -8.848400 0.000000
-154.491791 231.458389 -8.848400 0.000000
-141.008499 231.458389 -8.848400 -0.203662
-127.525192 231.458389 -8.848400 -0.520924
-114.041885 231.458389 -8.848400 -0.778761
-100.558594 231.458389 -8.848400 -0.819550
-87.075287 231.458389 -8.848400 -0.477060
-73.591980 231.458389 -8.848400 -0.508827
-60.108704 231.458389 -8.848400 -0.308873
-46.625397 231.458389 -8.848400 -0.451143
-33.142090 231.458389 -8.848400 -0.799148
-19.658783 231.458389 -8.848400 -1.306447
-6.175476 231.458389 -8.848400 -1.394909
7.307800 231.458389 -8.848400 -1.177610
20.791107 231.458389 -8.848400 -1.162891
34.274414 231.458389 -8.848400 -1.456948
47.757721 231.458389 -8.848400 -1.385407
61.240997 231.458389 -8.848400 -1.198946
74.724304 231.458389 -8.848400 -0.739580
88.207611 231.458389 -8.848400 -0.591109
101.690918 231.458389 -8.848400 -0.453174
115.174225 231.458389 -8.848400 -0.215559
128.657501 231.458389 -8.848400 -0.028157
142.140808 231.458389 -8.848400 0.079035
155.624115 231.458389 -8.848400 0.012815
169.107422 231.458389 -8.848400 -0.094586
182.590698 231.458389 -8.848400 0.000000
196.074036 231.458389 -8.848400 0.000000
209.557312 231.458389 -8.848400 0.000000
223.040588 231.458389 -8.848400 0.000000
236.523926 231.458389 -8.848400 0.000000
250.007202 231.458389 -8.848400 0.000000
263.490540 231.458389 -8.848400 0.000000
276.973816 231.458389 -8.848400 0.000000
290.457092 231.458389 -8.848400 0.000000
303.940430 231.458389 -8.848400 0.000000
317.423706 231.458389 -8.848400 0.000000
330.907043 231.458389 -8.848400 0.000000
344.390320 231.458389 -8.848400 0.000000
-343.257996 217.975098 -8.848400 0.000000
-329.774689 217.975098 -8.848400 0.000000
-316.291382 217.975098 -8.848400 0.000000
-302.808105 217.975098 -8.848400 0.000000
-289.324799 217.975098 -8.848400 0.000000
-275.841492 217.975098 -8.848400 0.000000
-262.358185 217.975098 -8.848400 0.000000
-248.874893 217.975098 -8.848400 0.000000
-235.391602 217.975098 -8.848400 0.000000
-221.908295 217.975098 -8.848400 0.000000
-208.424988 217.975098 -8.848400 0.000000
-194.941696 217.975098 -8.848400 0.000000
-181.458389 217.975098 -8.848400 0.000000
-167.975098 217.975098 -8.848400 0.000000
-154.491791 217.975098 -8.848400 -0.369956
-141.008499 217.975098 -8.848400 -0.404932
-127.525192 217.975098 -8.848400 -0.540210
-114.041885 217.975098 -8.848400 -0.505535
-100.558594 217.975098 -8.848400 -0.388643
-87.075287 217.975098 -8.848400 -0.288492
-73.591980 217.975098 -8.848400 -0.037206
-60.108704 217.975098 -8.848400 -0.213700
-46.625397 217.975098 -8.848400 -0.372987
-33.142090 217.975098 -8.848400 -0.554778
-19.658783 217.975098 -8.848400 -0.883247
-6.175476 217.975098 -8.848400 -1.153957
7.307800 217.975098 -8.848400 -1.197208
20.791107 217.975098 -8.848400 -1.278031
34.274414 217.975098 -8.848400 -1.279268
47.757721 217.975098 -8.848400 -0.979991
61.240997 217.975098 -8.848400 -0.235578
74.724304 217.975098 -8.848400 -0.207557
88.207611 217.975098 -8.848400 0.325851
101.690918 217.975098 -8.848400 0.547324
115.174225 217.975098 -8.848400 0.590749
128.657501 217.975098 -8.848400 0.588766
142.140808 217.975098 -8.848400 0.430697
155.624115 217.975098 -8.848400 0.296371
169.107422 217.975098 -8.848400 0.115661
182.590698 217.975098 -8.848400 0.000000
196.074036 217.975098 -8.848400 0.000000
209.557312 217.975098 -8.848400 0.000000
223.040588 217.975098 -8.848400 0.000000
236.523926 217.975098 -8.848400 0.000000
250.007202 217.975098 -8.848400 0.000000
263.490540 217.975098 -8.848400 0.000000
276.973816 217.975098 -8.848400 0.000000
290.457092 217.975098 -8.848400 0.000000
303.940430 217.975098 -8.848400 0.000000
317.423706 217.975098 -8.848400 0.000000
330.907043 217.975098 -8.848400 0.000000
344.390320 217.975098 -8.848400 0.000000
-343.257996 204.491791 -8.848400 0.000000
-329.774689 204.491791 -8.848400 0.000000
-316.291382 204.491791 -8.848400 0.000000
-302.808105 204.491791 -8.848400 0.000000
-289.324799 204.491791 -8.848400 0.000000
-275.841492 204.491791 -8.848400 0.000000
-262.358185 204.491791 -8.848400 0.000000
-248.874893 204.491791 -8.848400 0.000000
-235.391602 204.491791 -8.848400 0.000000
-221.908295 204.491791 -8.848400 0.000000
-208.424988 204.491791 -8.848400 0.000000
-194.941696 204.491791 -8.848400 0.000000
-181.458389 204.491791 -8.848400 0.000000
-167.975098 204.491791 -8.848400 0.000000
-154.491791 204.491791 -8.848400 -0.305969
-141.008499 204.491791 -8.848400 -0.435344
-127.525192 204.491791 -8.848400 -0.579974
-114.041885 204.491791 -8.848400 -0.380200
-100.558594 204.491791 -8.848400 -0.342179
-87.075287 204.491791 -8.848400 0.030997
-73.591980 204.491791 -8.848400 0.251833
-60.108704 204.491791 -8.848400 -0.034101
-46.625397 204.491791 -8.848400 -0.365324
-33.142090 204.491791 -8.848400 -0.341002
-19.658783 204.491791 -8.848400 -0.775406
-6.175476 204.491791 -8.848400 -0.518667
7.307800 204.491791 -8.848400 -0.781327
20.791107 204.491791 -8.848400 -1.119367
34.274414 204.491791 -8.848400 -0.797431
47.757721 204.491791 -8.848400 -0.759021
61.240997 204.491791 -8.848400 -0.021128
74.724304 204.491791 -8.848400 0.550800
88.207611 204.491791 -8.848400 1.047088
101.690918 204.491791 -8.848400 0.994301
115.174225 204.491791 -8.848400 0.858103
128.657501 204.491791 -8.848400 0.889773
142.140808 204.491791 -8.848400 0.590146
155.624115 204.491791 -8.848400 0.295417
169.107422 204.491791 -8.848400 0.283581
182.590698 204.491791 -8.848400 0.000000
196.074036 204.491791 -8.848400 0.000000
209.557312 204.491791 -8.848400 0.000000
223.040588 204.491791 -8.848400 0.000000
236.523926 204.491791 -8.848400 0.000000
250.007202 204.491791 -8.848400 0.000000
263.490540 204.491791 -8.848400 0.000000
276.973816 204.491791 -8.848400 0.000000
290.457092 204.491791 -8.848400 0.000000
303.940430 204.491791 -8.848400 0.000000
317.423706 204.491791 -8.848400 0.000000
330.907043 204.491791 -8.848400 0.000000
344.390320 204.491791 -8.848400 0.000000
-343.257996 191.008499 -8.848400 0.000000
-329.774689 191.008499 -8.848400 0.000000
-316.291382 191.008499 -8.848400 0.000000
-302.808105 191.008499 -8.848400 0.000000
-289.324799 191.008499 -8.848400 0.000000
-275.841492 191.008499 -8.848400 0.000000
-262.358185 191.008499 -8.848400 0.000000
-248.874893 191.008499 -8.848400 0.000000
-235.391602 191.008499 -8.848400 0.000000
-221.908295 191.008499 -8.848400 0.000000
-208.424988 191.008499 -8.848400 0.000000
-194.941696 191.008499 -8.848400 0.000000
-181.458389 191.008499 -8.848400 0.000000
-167.975098 191.008499 -8.848400 0.000000
-154.491791 191.008499 -8.848400 -0.167488
-141.008499 191.008499 -8.848400 -0.322892
-127.525192 191.008499 -8.848400 -0.473536
-114.041885 191.008499 -8.848400 -0.446370
-100.558594 191.008499 -8.848400 -0.368221
-87.075287 191.008499 -8.848400 -0.137559
-73.591980 191.008499 -8.848400 0.150515
-60.108704 191.008499 -8.848400 -0.106206
-46.625397 191.008499 -8.848400 -0.144355
-33.142090 191.008499 -8.848400 -0.202293
-19.658783 191.008499 -8.848400 -0.593348
-6.175476 191.008499 -8.848400 -0.534077
7.307800 191.008499 -8.848400 -0.243293
20.791107 191.008499 -8.848400 -0.519150
34.274414 191.008499 -8.848400 -0.277976
47.757721 191.008499 -8.848400 -0.161905
61.240997 191.008499 -8.848400 0.573592
74.724304 191.008499 -8.848400 0.975097
88.207611 191.008499 -8.848400 1.271679
101.690918 191.008499 -8.848400 1.121608
115.174225 191.008499 -8.848400 0.942627
128.657501 191.008499 -8.848400 0.758555
142.140808 191.008499 -8.848400 0.449652
155.624115 191.008499 -8.848400 0.404390
169.107422 191.008499 -8.848400 0.000000
182.590698 191.008499 -8.848400 0.000000
196.074036 191.008499 -8.848400 0.000000
209.557312 191.008499 -8.848400 0.000000
223.040588 191.008499 -8.848400 0.000000
236.523926 191.008499 -8.848400 0.000000
250.007202 191.008499 -8.848400 0.000000
263.490540 191.008499 -8.848400 0.000000
276.973816 191.008499 -8.848400 0.000000
290.457092 191.008499 -8.848400 0.000000
303.940430 191.008499 -8.848400 0.000000
317.423706 191.008499 -8.848400 0.000000
330.907043 191.008499 -8.848400 0.000000
344.390320 191.008499 -8.848400 0.000000
-343.257996 177.525192 -8.848400 0.000000
-329.774689 177.525192 -8.848400 0.000000
-316.291382 177.525192 -8.848400 0.000000
-302.808105 177.525192 -8.848400 0.000000
-289.324799 177.525192 -8.848400 0.000000
-275.841492 177.525192 -8.848400 0.000000
-262.358185 177.525192 -8.848400 0.000000
-248.874893 177.525192 -8.848400 0.000000
-235.391602 177.525192 -8.848400 0.000000
-221.908295 177.525192 -8.848400 0.000000
-208.424988 177.525192 -8.848400 0.000000
-194.941696 177.525192 -8.848400 0.000000
-181.458389 177.525192 -8.848400 0.000000
-167.975098 177.525192 -8.848400 0.000000
-154.491791 177.525192 -8.848400 -0.271984
-141.008499 177.525192 -8.848400 -0.339520
-127.525192 177.525192 -8.848400 -0.112264
-114.041885 177.525192 -8.848400 -0.127817
-100.558594 177.525192 -8.848400 -0.233977
-87.075287 177.525192 -8.848400 -0.296727
-73.591980 177.525192 -8.848400 0.048033
-60.108704 177.525192 -8.848400 0.188194
-46.625397 177.525192 -8.848400 0.242266
-33.142090 177.525192 -8.848400 -0.151804
-19.658783 177.525192 -8.848400 -0.488287
-6.175476 177.525192 -8.848400 -0.324561
7.307800 177.525192 -8.848400 -0.193967
20.791107 177.525192 -8.848400 0.121660
34.274414 177.525192 -8.848400 0.405591
47.757721 177.525192 -8.848400 0.149543
61.240997 177.525192 -8.848400 0.780671
74.724304 177.525192 -8.848400 1.327455
88.207611 177.525192 -8.848400 1.319665
101.690918 177.525192 -8.848400 0.909213
115.174225 177.525192 -8.848400 0.759739
128.657501 177.525192 -8.848400 0.492373
142.140808 177.525192 -8.848400 0.345542
155.624115 177.525192 -8.848400 0.000000
169.107422 177.525192 -8.848400 0.000000
182.590698 177.525192 -8.848400 0.000000
196.074036 177.525192 -8.848400 0.000000
209.557312 177.525192 -8.848400 0.000000
223.040588 177.525192 -8.848400 0.000000
236.523926 177.525192 -8.848400 0.000000
250.007202 177.525192 -8.848400 0.000000
263.490540 177.525192 -8.848400 0.000000
276.973816 177.525192 -8.848400 0.000000
290.457092 177.525192 -8.848400 0.000000
303.940430 177.525192 -8.848400 0.000000
317.423706 177.525192 -8.848400 0.000000
330.907043 177.525192 -8.848400 0.000000
344.390320 177.525192 -8.848400 0.000000
-343.257996 164.041885 -8.848400 0.000000
-329.774689 164.041885 -8.848400 0.000000
-316.291382 164.041885 -8.848400 0.000000
-302.808105 164.041885 -8.848400 0.000000
-289.324799 164.041885 -8.848400 0.000000
-275.841492 164.041885 -8.848400 0.000000
-262.358185 164.041885 -8.848400 0.000000
-248.874893 164.041885 -8.848400 0.000000
-235.391602 164.041885 -8.848400 0.000000
-221.908295 164.041885 -8.848400 0.000000
-208.424988 164.041885 -8.848400 0.000000
-194.941696 164.041885 -8.848400 0.000000
-181.458389 164.041885 -8.848400 0.000000
-167.975098 164.041885 -8.848400 0.000000
-154.491791 164.041885 -8.848400 -0.534035
-141.008499 164.041885 -8.848400 -0.596043
-127.525192 164.041885 -8.848400 -0.312067
-114.041885 164.041885 -8.848400 -0.014552
-100.558594 164.041885 -8.848400 -0.041660
-87.075287 164.041885 -8.848400 -0.038395
-73.591980 164.041885 -8.848400 0.077682
-60.108704 164.041885 -8.848400 0.584481
-46.625397 164.041885 -8.848400 0.366296
-33.142090 164.041885 -8.848400 0.110025
-19.658783 164.041885 -8.848400 -0.187514
-6.175476 164.041885 -8.848400 -0.381089
7.307800 164.041885 -8.848400 -0.306172
20.791107 164.041885 -8.848400 0.204465
34.274414 164.041885 -8.848400 0.744371
47.757721 164.041885 -8.848400 0.790408
61.240997 164.041885 -8.848400 1.196172
74.724304 164.041885 -8.848400 1.265504
88.207611 164.041885 -8.848400 1.275164
101.690918 164.041885 -8.848400 0.824605
115.174225 164.041885 -8.848400 0.589763
128.657501 164.041885 -8.848400 0.000000
142.140808 164.041885 -8.848400 0.000000
155.624115 164.041885 -8.848400 0.000000
169.107422 164.041885 -8.848400 0.000000
182.590698 164.041885 -8.848400 0.000000
196.074036 164.041885 -8.848400 0.000000
209.557312 164.041885 -8.848400 0.000000
223.040588 164.041885 -8.848400 0.000000
236.523926 164.041885 -8.848400 0.000000
250.007202 164.041885 -8.848400 0.000000
263.490540 164.041885 -8.848400 0.000000
276.973816 164.041885 -8.848400 0.000000
290.457092 164.041885 -8.848400 0.000000
303.940430 164.041885 -8.848400 0.000000
317.423706 164.041885 -8.848400 0.000000
330.907043 164.041885 -8.848400 0.000000
344.390320 164.041885 -8.848400 0.000000
-343.257996 150.558594 -8.848400 0.000000
-329.774689 150.558594 -8.848400 0.000000
-316.291382 150.558594 -8.848400 0.000000
-302.808105 150.558594 -8.848400 0.000000
-289.324799 150.558594 -8.848400 0.000000
-275.841492 150.558594 -8.848400 0.000000
-262.358185 150.558594 -8.848400 0.000000
-248.874893 150.558594 -8.848400 0.000000
-235.391602 150.558594 -8.848400 0.000000
-221.908295 150.558594 -8.848400 0.000000
-208.424988 150.558594 -8.848400 0.000000
-194.941696 150.558594 -8.848400 0.000000
-181.458389 150.558594 -8.848400 0.000000
-167.975098 150.558594 -8.848400 0.000000
-154.491791 150.558594 -8.848400 -0.819021
-141.008499 150.558594 -8.848400 -0.672950
-127.525192 150.558594 -8.848400 -0.336510
-114.041885 150.558594 -8.848400 0.014541
-100.558594 150.558594 -8.848400 0.054799
-87.075287 150.558594 -8.848400 0.163413
-73.591980 150.558594 -8.848400 0.246074
-60.108704 150.558594 -8.848400 0.625555
-46.625397 150.558594 -8.848400 0.408764
-33.142090 150.558594 -8.848400 0.216031
-19.658783 150.558594 -8.848400 -0.095540
-6.175476 150.558594 -8.848400 -0.088846
7.307800 150.558594 -8.848400 0.002923
20.791107 150.558594 -8.848400 0.486270
34.274414 150.558594 -8.848400 0.838572
47.757721 150.558594 -8.848400 0.996203
61.240997 150.558594 -8.848400 1.340588
74.724304 150.558594 -8.848400 1.387898
88.207611 150.558594 -8.848400 1.376368
101.690918 150.558594 -8.848400 0.854158
115.174225 150.558594 -8.848400 0.000000
128.657501 150.558594 -8.848400 0.000000
142.140808 150.558594 -8.848400 0.000000
155.624115 150.558594 -8.848400 0.000000
169.107422 150.558594 -8.848400 0.000000
182.590698 150.558594 -8.848400 0.000000
196.074036 150.558594 -8.848400 0.000000
209.557312 150.558594 -8.848400 0.000000
223.040588 150.558594 -8.848400 0.000000
236.523926 150.558594 -8.848400 0.000000
250.007202 150.558594 -8.848400 0.000000
263.490540 150.558594 -8.848400 0.000000
276.973816 150.558594 -8.848400 0.000000
290.457092 150.558594 -8.848400 0.000000
303.940430 150.558594 -8.848400 0.000000
317.423706 150.558594 -8.848400 0.000000
330.907043 150.558594 -8.848400 0.000000
344.390320 150.558594 -8.848400 0.000000
-343.257996 137.075287 -8.848400 0.000000
-329.774689 137.075287 -8.848400 0.000000
-316.291382 137.075287 -8.848400 0.000000
-302.808105 137.075287 -8.848400 0.000000
-289.324799 137.075287 -8.848400 0.000000
-275.841492 137.075287 -8.848400 0.000000
-262.358185 137.075287 -8.848400 0.000000
-248.874893 137.075287 -8.848400 0.000000
-235.391602 137.075287 -8.848400 0.000000
-221.908295 137.075287 -8.848400 0.000000
-208.424988 137.075287 -8.848400 0.000000
-194.941696 137.075287 -8.848400 0.000000
-181.458389 137.075287 -8.848400 0.000000
-167.975098 137.075287 -8.848400 0.000000
-154.491791 137.075287 -8.848400 -0.940129
-141.008499 137.075287 -8.848400 -0.579891
-127.525192 137.075287 -8.848400 -0.511927
-114.041885 137.075287 -8.848400 0.001680
-100.558594 137.075287 -8.848400 0.305124
-87.075287 137.075287 -8.848400 0.562122
-73.591980 137.075287 -8.848400 0.763779
-60.108704 137.075287 -8.848400 0.664257
-46.625397 137.075287 -8.848400 0.505563
-33.142090 137.075287 -8.848400 0.313658
-19.658783 137.075287 -8.848400 0.031951
-6.175476 137.075287 -8.848400 0.091199
7.307800 137.075287 -8.848400 0.200142
20.791107 137.075287 -8.848400 0.543224
34.274414 137.075287 -8.848400 0.718240
47.757721 137.075287 -8.848400 1.114747
61.240997 137.075287 -8.848400 1.374964
74.724304 137.075287 -8.848400 1.418624
88.207611 137.075287 -8.848400 1.104223
101.690918 137.075287 -8.848400 0.000000
115.174225 137.075287 -8.848400 0.000000
128.657501 137.075287 -8.848400 0.000000
142.140808 137.075287 -8.848400 0.000000
155.624115 137.075287 -8.848400 0.000000
169.107422 137.075287 -8.848400 0.000000
182.590698 137.075287 -8.848400 0.000000
196.074036 137.075287 -8.848400 0.000000
209.557312 137.075287 -8.848400 0.000000
223.040588 137.075287 -8.848400 0.000000
236.523926 137.075287 -8.848400 0.000000
250.007202 137.075287 -8.848400 0.000000
263.490540 137.075287 -8.848400 0.000000
276.973816 137.075287 -8.848400 0.000000
290.457092 137.075287 -8.848400 0.000000
303.940430 137.075287 -8.848400 0.000000
317.423706 137.075287 -8.848400 0.000000
330.907043 137.075287 -8.848400 0.000000
344.390320 137.075287 -8.848400 0.000000
-343.257996 123.591980 -8.848400 0.000000
-329.774689 123.591980 -8.848400 0.000000
-316.291382 123.591980 -8.848400 0.000000
-302.808105 123.591980 -8.848400 0.000000
-289.324799 123.591980 -8.848400 0.000000
-275.841492 123.591980 -8.848400 0.000000
-262.358185 123.591980 -8.848400 0.000000
-248.874893 123.591980 -8.848400 0.000000
-235.391602 123.591980 -8.848400 0.000000
-221.908295 123.591980 -8.848400 0.000000
-208.424988 123.591980 -8.848400 0.000000
-194.941696 123.591980 -8.848400 0.000000
-181.458389 123.591980 -8.848400 0.000000
-167.975098 123.591980 -8.848400 0.000000
-154.491791 123.591980 -8.848400 -0.747591
-141.008499 123.591980 -8.848400 -0.603002
-127.525192 123.591980 -8.848400 -0.264786
-114.041885 123.591980 -8.848400 0.239443
-100.558594 123.591980 -8.848400 0.600586
-87.075287 123.591980 -8.848400 0.771598
-73.591980 123.591980 -8.848400 1.187191
-60.108704 123.591980 -8.848400 0.916522
-46.625397 123.591980 -8.848400 0.520695
-33.142090 123.591980 -8.848400 0.337097
-19.658783 123.591980 -8.848400 0.170454
-6.175476 123.591980 -8.848400 0.135272
7.307800 123.591980 -8.848400 0.410727
20.791107 123.591980 -8.848400 0.359443
34.274414 123.591980 -8.848400 0.668464
47.757721 123.591980 -8.848400 1.236178
61.240997 123.591980 -8.848400 1.466009
74.724304 123.591980 -8.848400 1.135545
88.207611 123.591980 -8.848400 0.796376
101.690918 123.591980 -8.848400 0.000000
115.174225 123.591980 -8.848400 0.000000
128.657501 123.591980 -8.848400 0.000000
142.140808 123.591980 -8.848400 0.000000
155.624115 123.591980 -8.848400 0.000000
169.107422 123.591980 -8.848400 0.000000
182.590698 123.591980 -8.848400 0.000000
196.074036 123.591980 -8.848400 0.000000
209.557312 123.591980 -8.848400 0.000000
223.040588 123.591980 -8.848400 0.000000
236.523926 123.591980 -8.848400 0.000000
250.007202 123.591980 -8.848400 0.000000
263.490540 123.591980 -8.848400 0.000000
276.973816 123.591980 -8.848400 0.000000
290.457092 123.591980 -8.848400 0.000000
303.940430 123.591980 -8.848400 0.000000
317.423706 123.591980 -8.848400 0.000000
330.907043 123.591980 -8.848400 0.000000
344.390320 123.591980 -8.848400 0.000000
-343.257996 110.108704 -8.848400 0.000000
-329.774689 110.108704 -8.848400 0.000000
-316.291382 110.108704 -8.848400 0.000000
-302.808105 110.108704 -8.848400 0.000000
-289.324799 110.108704 -8.848400 0.000000
-275.841492 110.108704 -8.848400 0.000000
-262.358185 110.108704 -8.848400 0.000000
-248.874893 110.108704 -8.848400 0.000000
-235.391602 110.108704 -8.848400 0.000000
-221.908295 110.108704 -8.848400 0.000000
-208.424988 110.108704 -8.848400 0.000000
-194.941696 110.108704 -8.848400 0.000000
-181.458389 110.108704 -8.848400 0.000000
-167.975098 110.108704 -8.848400 0.000000
-154.491791 110.108704 -8.848400 -0.890137
-141.008499 110.108704 -8.848400 -0.766551
-127.525192 110.108704 -8.848400 -0.253984
-114.041885 110.108704 -8.848400 0.157899
-100.558594 110.108704 -8.848400 0.687324
-87.075287 110.108704 -8.848400 1.055936
-73.591980 110.108704 -8.848400 1.110051
-60.108704 110.108704 -8.848400 0.842304
-46.625397 110.108704 -8.848400 0.706181
-33.142090 110.108704 -8.848400 0.380876
-19.658783 110.108704 -8.848400 0.270067
-6.175476 110.108704 -8.848400 -0.102748
7.307800 110.108704 -8.848400 0.156792
20.791107 110.108704 -8.848400 0.468503
34.274414 110.108704 -8.848400 0.616002
47.757721 110.108704 -8.848400 0.933147
61.240997 110.108704 -8.848400 1.141162
74.724304 110.108704 -8.848400 0.742429
88.207611 110.108704 -8.848400 0.357456
101.690918 110.108704 -8.848400 0.000000
115.174225 110.108704 -8.848400 0.000000
128.657501 110.108704 -8.848400 0.000000
142.140808 110.108704 -8.848400 0.000000
155.624115 110.108704 -8.848400 0.000000
169.107422 110.108704 -8.848400 0.000000
182.590698 110.108704 -8.848400 0.000000
196.074036 110.108704 -8.848400 0.000000
209.557312 110.108704 -8.848400 0.000000
223.040588 110.108704 -8.848400 0.000000
236.523926 110.108704 -8.848400 0.000000
250.007202 110.108704 -8.848400 0.000000
263.490540 110.108704 -8.848400 0.000000
276.973816 110.108704 -8.848400 0.000000
290.457092 110.108704 -8.848400 0.000000
303.940430 110.108704 -8.848400 0.000000
317.423706 110.108704 -8.848400 0.000000
330.907043 110.108704 -8.848400 0.000000
344.390320 110.108704 -8.848400 0.000000
-343.257996 96.625397 -8.848400 0.000000
-329.774689 96.625397 -8.848400 0.000000
-316.291382 96.625397 -8.848400 0.000000
-302.808105 96.625397 -8.848400 0.000000
-289.324799 96.625397 -8.848400 0.000000
-275.841492 96.625397 -8.848400 0.000000
-262.358185 96.625397 -8.848400 0.000000
-248.874893 96.625397 -8.848400 0.000000
-235.391602 96.625397 -8.848400 0.000000
-221.908295 96.625397 -8.848400 0.000000
-208.424988 96.625397 -8.848400 0.000000
-194.941696 96.625397 -8.848400 0.000000
-181.458389 96.625397 -8.848400 0.000000
-167.975098 96.625397 -8.848400 0.000000
-154.491791 96.625397 -8.848400 -0.933644
-141.008499 96.625397 -8.848400 -0.488856
-127.525192 96.625397 -8.848400 -0.176688
-114.041885 96.625397 -8.848400 0.351072
-100.558594 96.625397 -8.848400 0.906335
-87.075287 96.625397 -8.848400 1.178625
-73.591980 96.625397 -8.848400 0.649835
-60.108704 96.625397 -8.848400 0.851619
-46.625397 96.625397 -8.848400 0.581357
-33.142090 96.625397 -8.848400 0.527357
-19.658783 96.625397 -8.848400 0.374336
-6.175476 96.625397 -8.848400 0.103063
7.307800 96.625397 -8.848400 0.078417
20.791107 96.625397 -8.848400 -0.075038
34.274414 96.625397 -8.848400 0.129222
47.757721 96.625397 -8.848400 0.582681
61.240997 96.625397 -8.848400 0.618495
74.724304 96.625397 -8.848400 0.439519
88.207611 96.625397 -8.848400 -0.038038
101.690918 96.625397 -8.848400 0.000000
115.174225 96.625397 -8.848400 0.000000
128.657501 96.625397 -8.848400 0.000000
142.140808 96.625397 -8.848400 0.000000
155.624115 96.625397 -8.848400 0.000000
169.107422 96.625397 -8.848400 0.000000
182.590698 96.625397 -8.848400 0.000000
196.074036 96.625397 -8.848400 0.000000
209.557312 96.625397 -8.848400 0.000000
223.040588 96.625397 -8.848400 0.000000
236.523926 96.625397 -8.848400 0.000000
250.007202 96.625397 -8.848400 0.000000
263.490540 96.625397 -8.848400 0.000000
276.973816 96.625397 -8.848400 0.000000
290.457092 96.625397 -8.848400 0.000000
303.940430 96.625397 -8.848400 0.000000
317.423706 96.625397 -8.848400 0.000000
330.907043 96.625397 -8.848400 0.000000
344.390320 96.625397 -8.848400 0.000000
-343.257996 83.142090 -8.848400 0.000000
-329.774689 83.142090 -8.848400 0.000000
-316.291382 83.142090 -8.848400 0.000000
-302.808105 83.142090 -8.848400 0.000000
-289.324799 83.142090 -8.848400 0.000000
-275.841492 83.142090 -8.848400 0.000000
-262.358185 83.142090 -8.848400 0.000000
-248.874893 83.142090 -8.848400 0.000000
-235.391602 83.142090 -8.848400 0.000000
-221.908295 83.142090 -8.848400 0.000000
-208.424988 83.142090 -8.848400 0.000000
-194.941696 83.142090 -8.848400 0.000000
-181.458389 83.142090 -8.848400 0.000000
-167.975098 83.142090 -8.848400 0.000000
-154.491791 83.142090 -8.848400 0.000000
-141.008499 83.142090 -8.848400 -0.198247
-127.525192 83.142090 -8.848400 0.000170
-114.041885 83.142090 -8.848400 0.578047
-100.558594 83.142090 -8.848400 1.268412
-87.075287 83.142090 -8.848400 1.301661
-73.591980 83.142090 -8.848400 1.064138
-60.108704 83.142090 -8.848400 0.852278
-46.625397 83.142090 -8.848400 0.949398
-33.142090 83.142090 -8.848400 0.591690
-19.658783 83.142090 -8.848400 0.208533
-6.175476 83.142090 -8.848400 -0.016534
7.307800 83.142090 -8.848400 -0.308376
20.791107 83.142090 -8.848400 -0.252854
34.274414 83.142090 -8.848400 0.077027
47.757721 83.142090 -8.848400 0.263723
61.240997 83.142090 -8.848400 0.370535
74.724304 83.142090 -8.848400 -0.057712
88.207611 83.142090 -8.848400 -0.191565
101.690918 83.142090 -8.848400 0.000000
115.174225 83.142090 -8.848400 0.000000
128.657501 83.142090 -8.848400 0.000000
142.140808 83.142090 -8.848400 0.000000
155.624115 83.142090 -8.848400 0.000000
169.107422 83.142090 -8.848400 0.000000
182.590698 83.142090 -8.848400 0.000000
196.074036 83.142090 -8.848400 0.000000
209.557312 83.142090 -8.848400 0.000000
223.040588 83.142090 -8.848400 0.000000
236.523926 83.142090 -8.848400 0.000000
250.007202 83.142090 -8.848400 0.000000
263.490540 83.142090 -8.848400 0.000000
276.973816 83.142090 -8.848400 0.000000
290.457092 83.142090 -8.848400 0.000000
303.940430 83.142090 -8.848400 0.000000
317.423706 83.142090 -8.848400 0.000000
330.907043 83.142090 -8.848400 0.000000
344.390320 83.142090 -8.848400 0.000000
-343.257996 69.658783 -8.848400 0.000000
-329.774689 69.658783 -8.848400 0.000000
-316.291382 69.658783 -8.848400 0.000000
-302.808105 69.658783 -8.848400 0.000000
-289.324799 69.658783 -8.848400 0.000000
-275.841492 69.658783 -8.848400 0.000000
-262.358185 69.658783 -8.848400 0.000000
-248.874893 69.658783 -8.848400 0.000000
-235.391602 69.658783 -8.848400 0.000000
-221.908295 69.658783 -8.848400 0.000000
-208.424988 69.658783 -8.848400 0.000000
-194.941696 69.658783 -8.848400 0.000000
-181.458389 69.658783 -8.848400 0.000000
-167.975098 69.658783 -8.848400 0.000000
-154.491791 69.658783 -8.848400 0.000000
-141.008499 69.658783 -8.848400 0.227624
-127.525192 69.658783 -8.848400 0.553075
-114.041885 69.658783 -8.848400 0.990468
-100.558594 69.658783 -8.848400 1.288317
-87.075287 69.658783 -8.848400 1.402200
-73.591980 69.658783 -8.848400 1.430537
-60.108704 69.658783 -8.848400 1.085617
-46.625397 69.658783 -8.848400 0.674377
-33.142090 69.658783 -8.848400 0.403951
-19.658783 69.658783 -8.848400 0.197827
-6.175476 69.658783 -8.848400 -0.085508
7.307800 69.658783 -8.848400 -0.382598
20.791107 69.658783 -8.848400 -0.347950
34.274414 69.658783 -8.848400 -0.032102
47.757721 69.658783 -8.848400 0.060489
61.240997 69.658783 -8.848400 0.073446
74.724304 69.658783 -8.848400 0.159332
88.207611 69.658783 -8.848400 0.104199
101.690918 69.658783 -8.848400 0.000000
115.174225 69.658783 -8.848400 0.000000
128.657501 69.658783 -8.848400 0.000000
142.140808 69.658783 -8.848400 0.000000
155.624115 69.658783 -8.848400 0.000000
169.107422 69.658783 -8.848400 0.000000
182.590698 69.658783 -8.848400 0.000000
196.074036 69.658783 -8.848400 0.000000
209.557312 69.658783 -8.848400 0.000000
223.040588 69.658783 -8.848400 0.000000
236.523926 69.658783 -8.848400 0.000000
250.007202 69.658783 -8.848400 0.000000
263.490540 69.658783 -8.848400 0.000000
276.973816 69.658783 -8.848400 0.000000
290.457092 69.658783 -8.848400 0.000000
303.940430 69.658783 -8.848400 0.000000
317.423706 69.658783 -8.848400 0.000000
330.907043 69.658783 -8.848400 0.000000
344.390320 69.658783 -8.848400 0.000000
-343.257996 56.175476 -8.848400 0.000000
-329.774689 56.175476 -8.848400 0.000000
-316.291382 56.175476 -8.848400 0.000000
-302.808105 56.175476 -8.848400 0.000000
-289.324799 56.175476 -8.848400 0.000000
-275.841492 56.175476 -8.848400 0.000000
-262.358185 56.175476 -8.848400 0.000000
-248.874893 56.175476 -8.848400 0.000000
-235.391602 56.175476 -8.848400 0.000000
-221.908295 56.175476 -8.848400 0.000000
-208.424988 56.175476 -8.848400 0.000000
-194.941696 56.175476 -8.848400 0.000000
-181.458389 56.175476 -8.848400 0.000000
-167.975098 56.175476 -8.848400 0.000000
-154.491791 56.175476 -8.848400 0.000000
-141.008499 56.175476 -8.848400 0.051899
-127.525192 56.175476 -8.848400 0.810442
-114.041885 56.175476 -8.848400 1.240186
-100.558594 56.175476 -8.848400 1.453288
-87.075287 56.175476 -8.848400 1.674473
-73.591980 56.175476 -8.848400 1.777379
-60.108704 56.175476 -8.848400 1.406501
-46.625397 56.175476 -8.848400 0.750470
-33.142090 56.175476 -8.848400 0.387676
-19.658783 56.175476 -8.848400 0.240172
-6.175476 56.175476 -8.848400 -0.021649
7.307800 56.175476 -8.848400 -0.343791
20.791107 56.175476 -8.848400 -0.152098
34.274414 56.175476 -8.848400 -0.080978
47.757721 56.175476 -8.848400 0.317885
61.240997 56.175476 -8.848400 0.362854
74.724304 56.175476 -8.848400 0.552017
88.207611 56.175476 -8.848400 0.393389
101.690918 56.175476 -8.848400 -0.079861
115.174225 56.175476 -8.848400 0.000000
128.657501 56.175476 -8.848400 0.000000
142.140808 56.175476 -8.848400 0.000000
155.624115 56.175476 -8.848400 0.000000
169.107422 56.175476 -8.848400 0.000000
182.590698 56.175476 -8.848400 0.000000
196.074036 56.175476 -8.848400 0.000000
209.557312 56.175476 -8.848400 0.000000
223.040588 56.175476 -8.848400 0.000000
236.523926 56.175476 -8.848400 0.000000
250.007202 56.175476 -8.848400 0.000000
263.490540 56.175476 -8.848400 0.000000
276.973816 56.175476 -8.848400 0.000000
290.457092 56.175476 -8.848400 0.000000
303.940430 56.175476 -8.848400 0.000000
317.423706 56.175476 -8.848400 0.000000
330.907043 56.175476 -8.848400 0.000000
344.390320 56.175476 -8.848400 0.000000
-343.257996 42.692200 -8.848400 0.000000
-329.774689 42.692200 -8.848400 0.000000
-316.291382 42.692200 -8.848400 0.000000
-302.808105 42.692200 -8.848400 0.000000
-289.324799 42.692200 -8.848400 0.000000
-275.841492 42.692200 -8.848400 0.000000
-262.358185 42.692200 -8.848400 0.000000
-248.874893 42.692200 -8.848400 0.000000
-235.391602 42.692200 -8.848400 0.000000
-221.908295 42.692200 -8.848400 0.000000
-208.424988 42.692200 -8.848400 0.000000
-194.941696 42.692200 -8.848400 0.000000
-181.458389 42.692200 -8.848400 0.000000
-167.975098 42.692200 -8.848400 0.000000
-154.491791 42.692200 -8.848400 0.000000
-141.008499 42.692200 -8.848400 0.312437
-127.525192 42.692200 -8.848400 1.121220
-114.041885 42.692200 -8.848400 1.604433
-100.558594 42.692200 -8.848400 2.013521
-87.075287 42.692200 -8.848400 1.960448
-73.591980 42.692200 -8.848400 1.897814
-60.108704 42.692200 -8.848400 1.499658
-46.625397 42.692200 -8.848400 0.978890
-33.142090 42.692200 -8.848400 0.439261
-19.658783 42.692200 -8.848400 0.288973
-6.175476 42.692200 -8.848400 0.044759
7.307800 42.692200 -8.848400 -0.463432
20.791107 42.692200 -8.848400 -0.358524
34.274414 42.692200 -8.848400 0.013995
47.757721 42.692200 -8.848400 0.216931
61.240997 42.692200 -8.848400 0.484382
74.724304 42.692200 -8.848400 0.452564
88.207611 42.692200 -8.848400 0.644296
101.690918 42.692200 -8.848400 0.211057
115.174225 42.692200 -8.848400 0.000000
128.657501 42.692200 -8.848400 0.000000
142.140808 42.692200 -8.848400 0.000000
155.624115 42.692200 -8.848400 0.000000
169.107422 42.692200 -8.848400 0.000000
182.590698 42.692200 -8.848400 0.000000
196.074036 42.692200 -8.848400 0.000000
209.557312 42.692200 -8.848400 0.000000
223.040588 42.692200 -8.848400 0.000000
236.523926 42.692200 -8.848400 0.000000
250.007202 42.692200 -8.848400 0.000000
263.490540 42.692200 -8.848400 0.000000
276.973816 42.692200 -8.848400 0.000000
290.457092 42.692200 -8.848400 0.000000
303.940430 42.692200 -8.848400 0.000000
317.423706 42.692200 -8.848400 0.000000
330.907043 42.692200 -8.848400 0.000000
344.390320 42.692200 -8.848400 0.000000
-343.257996 29.208893 -8.848400 0.000000
-329.774689 29.208893 -8.848400 0.000000
-316.291382 29.208893 -8.848400 0.000000
-302.808105 29.208893 -8.848400 0.000000
-289.324799 29.208893 -8.848400 0.000000
-275.841492 29.208893 -8.848400 0.000000
-262.358185 29.208893 -8.848400 0.000000
-248.874893 29.208893 -8.848400 0.000000
-235.391602 29.208893 -8.848400 0.000000
-221.908295 29.208893 -8.848400 0.000000
-208.424988 29.208893 -8.848400 0.000000
-194.941696 29.208893 -8.848400 0.000000
-181.458389 29.208893 -8.848400 0.000000
-167.975098 29.208893 -8.848400 0.000000
-154.491791 29.208893 -8.848400 0.000000
-141.008499 29.208893 -8.848400 0.000000
-127.525192 29.208893 -8.848400 1.413291
-114.041885 29.208893 -8.848400 1.644686
-100.558594 29.208893 -8.848400 1.871269
-87.075287 29.208893 -8.848400 1.853536
-73.591980 29.208893 -8.848400 2.232864
-60.108704 29.208893 -8.848400 1.697249
-46.625397 29.208893 -8.848400 1.392238
-33.142090 29.208893 -8.848400 0.794130
-19.658783 29.208893 -8.848400 0.359094
-6.175476 29.208893 -8.848400 0.269684
7.307800 29.208893 -8.848400 -0.157141
20.791107 29.208893 -8.848400 -0.200941
34.274414 29.208893 -8.848400 0.041894
47.757721 29.208893 -8.848400 0.234548
61.240997 29.208893 -8.848400 0.566231
74.724304 29.208893 -8.848400 0.532944
88.207611 29.208893 -8.848400 0.463862
101.690918 29.208893 -8.848400 0.236683
115.174225 29.208893 -8.848400 0.229622
128.657501 29.208893 -8.848400 0.000000
142.140808 29.208893 -8.848400 0.000000
155.624115 29.208893 -8.848400 0.000000
169.107422 29.208893 -8.848400 0.000000
182.590698 29.208893 -8.848400 0.000000
196.074036 29.208893 -8.848400 0.000000
209.557312 29.208893 -8.848400 0.000000
223.040588 29.208893 -8.848400 0.000000
236.523926 29.208893 -8.848400 0.000000
250.007202 29.208893 -8.848400 0.000000
263.490540 29.208893 -8.848400 0.000000
276.973816 29.208893 -8.848400 0.000000
290.457092 29.208893 -8.848400 0.000000
303.940430 29.208893 -8.848400 0.000000
317.423706 29.208893 -8.848400 0.000000
330.907043 29.208893 -8.848400 0.000000
344.390320 29.208893 -8.848400 0.000000
-343.257996 15.725586 -8.848400 0.000000
-329.774689 15.725586 -8.848400 0.000000
-316.291382 15.725586 -8.848400 0.000000
-302.808105 15.725586 -8.848400 0.000000
-289.324799 15.725586 -8.848400 0.000000
-275.841492 15.725586 -8.848400 0.000000
-262.358185 15.725586 -8.848400 0.000000
-248.874893 15.725586 -8.848400 0.000000
-235.391602 15.725586 -8.848400 0.000000
-221.908295 15.725586 -8.848400 0.000000
-208.424988 15.725586 -8.848400 0.000000
-194.941696 15.725586 -8.848400 0.000000
-181.458389 15.725586 -8.848400 0.000000
-167.975098 15.725586 -8.848400 0.000000
-154.491791 15.725586 -8.848400 0.000000
-141.008499 15.725586 -8.848400 0.000000
-127.525192 15.725586 -8.848400 1.479248
-114.041885 15.725586 -8.848400 2.147799
-100.558594 15.725586 -8.848400 2.088053
-87.075287 15.725586 -8.848400 2.537269
-73.591980 15.725586 -8.848400 2.858212
-60.108704 15.725586 -8.848400 2.308735
-46.625397 15.725586 -8.848400 1.844733
-33.142090 15.725586 -8.848400 1.089983
-19.658783 15.725586 -8.848400 0.661640
-6.175476 15.725586 -8.848400 0.304997
7.307800 15.725586 -8.848400 0.110108
20.791107 15.725586 -8.848400 0.139196
34.274414 15.725586 -8.848400 0.475060
47.757721 15.725586 -8.848400 0.726771
61.240997 15.725586 -8.848400 1.198266
74.724304 15.725586 -8.848400 1.138069
88.207611 15.725586 -8.848400 0.920537
101.690918 15.725586 -8.848400 0.506883
115.174225 15.725586 -8.848400 0.707227
128.657501 15.725586 -8.848400 0.000000
142.140808 15.725586 -8.848400 0.000000
155.624115 15.725586 -8.848400 0.000000
169.107422 15.725586 -8.848400 0.000000
182.590698 15.725586 -8.848400 0.000000
196.074036 15.725586 -8.848400 0.000000
209.557312 15.725586 -8.848400 0.000000
223.040588 15.725586 -8.848400 0.000000
236.523926 15.725586 -8.848400 0.000000
250.007202 15.725586 -8.848400 0.000000
263.490540 15.725586 -8.848400 0.000000
276.973816 15.725586 -8.848400 0.000000
290.457092 15.725586 -8.848400 0.000000
303.940430 15.725586 -8.848400 0.000000
317.423706 15.725586 -8.848400 0.000000
330.907043 15.725586 -8.848400 0.000000
344.390320 15.725586 -8.848400 0.000000
-343.257996 2.242279 -8.848400 0.000000
-329.774689 2.242279 -8.848400 0.000000
-316.291382 2.242279 -8.848400 0.000000
-302.808105 2.242279 -8.848400 0.000000
-289.324799 2.242279 -8.848400 0.000000
-275.841492 2.242279 -8.848400 0.000000
-262.358185 2.242279 -8.848400 0.000000
-248.874893 2.242279 -8.848400 0.000000
-235.391602 2.242279 -8.848400 0.000000
-221.908295 2.242279 -8.848400 0.000000
-208.424988 2.242279 -8.848400 0.000000
-194.941696 2.242279 -8.848400 0.000000
-181.458389 2.242279 -8.848400 0.000000
-167.975098 2.242279 -8.848400 0.000000
-154.491791 2.242279 -8.848400 0.000000
-141.008499 2.242279 -8.848400 0.000000
-127.525192 2.242279 -8.848400 0.000000
-114.041885 2.242279 -8.848400 2.477034
-100.558594 2.242279 -8.848400 2.408415
-87.075287 2.242279 -8.848400 3.053015
-73.591980 2.242279 -8.848400 2.532069
-60.108704 2.242279 -8.848400 2.160039
-46.625397 2.242279 -8.848400 2.307236
-33.142090 2.242279 -8.848400 1.480179
-19.658783 2.242279 -8.848400 0.785441
-6.175476 2.242279 -8.848400 0.420504
7.307800 2.242279 -8.848400 0.462067
20.791107 2.242279 -8.848400 0.360671
34.274414 2.242279 -8.848400 0.813019
47.757721 2.242279 -8.848400 1.225082
61.240997 2.242279 -8.848400 1.650005
74.724304 2.242279 -8.848400 1.848880
88.207611 2.242279 -8.848400 1.394492
101.690918 2.242279 -8.848400 1.036087
115.174225 2.242279 -8.848400 1.060623
128.657501 2.242279 -8.848400 0.000000
142.140808 2.242279 -8.848400 0.000000
155.624115 2.242279 -8.848400 0.000000
169.107422 2.242279 -8.848400 0.000000
182.590698 2.242279 -8.848400 0.000000
196.074036 2.242279 -8.848400 0.000000
209.557312 2.242279 -8.848400 0.000000
223.040588 2.242279 -8.848400 0.000000
236.523926 2.242279 -8.848400 0.000000
250.007202 2.242279 -8.848400 0.000000
263.490540 2.242279 -8.848400 0.000000
276.973816 2.242279 -8.848400 0.000000
290.457092 2.242279 -8.848400 0.000000
303.940430 2.242279 -8.848400 0.000000
317.423706 2.242279 -8.848400 0.000000
330.907043 2.242279 -8.848400 0.000000
344.390320 2.242279 -8.848400 0.000000
-343.257996 -11.240997 -8.848400 0.000000
-329.774689 -11.240997 -8.848400 0.000000
-316.291382 -11.240997 -8.848400 0.000000
-302.808105 -11.240997 -8.848400 0.000000
-289.324799 -11.240997 -8.848400 0.000000
-275.841492 -11.240997 -8.848400 0.000000
-262.358185 -11.240997 -8.848400 0.000000
-248.874893 -11.240997 -8.848400 0.000000
-235.391602 -11.240997 -8.848400 0.000000
-221.908295 -11.240997 -8.848400 0.000000
-208.424988 -11.240997 -8.848400 0.000000
-194.941696 -11.240997 -8.848400 0.000000
-181.458389 -11.240997 -8.848400 0.000000
-167.975098 -11.240997 -8.848400 0.000000
-154.491791 -11.240997 -8.848400 0.000000
-141.008499 -11.240997 -8.848400 0.000000
-127.525192 -11.240997 -8.848400 0.000000
-114.041885 -11.240997 -8.848400 0.000000
-100.558594 -11.240997 -8.848400 3.268225
-87.075287 -11.240997 -8.848400 3.283106
-73.591980 -11.240997 -8.848400 2.879848
-60.108704 -11.240997 -8.848400 2.666924
-46.625397 -11.240997 -8.848400 2.173368
-33.142090 -11.240997 -8.848400 1.727959
-19.658783 -11.240997 -8.848400 1.361122
-6.175476 -11.240997 -8.848400 1.055224
7.307800 -11.240997 -8.848400 1.012784
20.791107 -11.240997 -8.848400 1.278273
34.274414 -11.240997 -8.848400 1.569747
47.757721 -11.240997 -8.848400 1.892859
61.240997 -11.240997 -8.848400 2.515865
74.724304 -11.240997 -8.848400 2.292999
88.207611 -11.240997 -8.848400 1.795826
101.690918 -11.240997 -8.848400 1.452116
115.174225 -11.240997 -8.848400 0.000000
128.657501 -11.240997 -8.848400 0.000000
142.140808 -11.240997 -8.848400 0.000000
155.624115 -11.240997 -8.848400 0.000000
169.107422 -11.240997 -8.848400 0.000000
182.590698 -11.240997 -8.848400 0.000000
196.074036 -11.240997 -8.848400 0.000000
209.557312 -11.240997 -8.848400 0.000000
223.040588 -11.240997 -8.848400 0.000000
236.523926 -11.240997 -8.848400 0.000000
250.007202 -11.240997 -8.848400 0.000000
263.490540 -11.240997 -8.848400 0.000000
276.973816 -11.240997 -8.848400 0.000000
290.457092 -11.240997 -8.848400 0.000000
303.940430 -11.240997 -8.848400 0.000000
317.423706 -11.240997 -8.848400 0.000000
330.907043 -11.240997 -8.848400 0.000000
344.390320 -11.240997 -8.848400 0.000000
-343.257996 -24.724304 -8.848400 0.000000
-329.774689 -24.724304 -8.848400 0.000000
-316.291382 -24.724304 -8.848400 0.000000
-302.808105 -24.724304 -8.848400 0.000000
-289.324799 -24.724304 -8.848400 0.000000
-275.841492 -24.724304 -8.848400 0.000000
-262.358185 -24.724304 -8.848400 0.000000
-248.874893 -24.724304 -8.848400 0.000000
-235.391602 -24.724304 -8.848400 0.000000
-221.908295 -24.724304 -8.848400 0.000000
-208.424988 -24.724304 -8.848400 0.000000
-194.941696 -24.724304 -8.848400 0.000000
-181.458389 -24.724304 -8.848400 0.000000
-167.975098 -24.724304 -8.848400 0.000000
-154.491791 -24.724304 -8.848400 0.000000
-141.008499 -24.724304 -8.848400 0.000000
-127.525192 -24.724304 -8.848400 0.000000
-114.041885 -24.724304 -8.848400 0.000000
-100.558594 -24.724304 -8.848400 3.493679
-87.075287 -24.724304 -8.848400 3.655466
-73.591980 -24.724304 -8.848400 4.005788
-60.108704 -24.724304 -8.848400 3.460584
-46.625397 -24.724304 -8.848400 2.795999
-33.142090 -24.724304 -8.848400 2.521919
-19.658783 -24.724304 -8.848400 2.174109
-6.175476 -24.724304 -8.848400 1.805874
7.307800 -24.724304 -8.848400 1.914934
20.791107 -24.724304 -8.848400 2.130239
34.274414 -24.724304 -8.848400 2.770466
47.757721 -24.724304 -8.848400 3.031921
61.240997 -24.724304 -8.848400 3.110845
74.724304 -24.724304 -8.848400 2.812287
88.207611 -24.724304 -8.848400 1.992660
101.690918 -24.724304 -8.848400 1.575965
115.174225 -24.724304 -8.848400 0.000000
128.657501 -24.724304 -8.848400 0.000000
142.140808 -24.724304 -8.848400 0.000000
155.624115 -24.724304 -8.848400 0.000000
169.107422 -24.724304 -8.848400 0.000000
182.590698 -24.724304 -8.848400 0.000000
196.074036 -24.724304 -8.848400 0.000000
209.557312 -24.724304 -8.848400 0.000000
223.040588 -24.724304 -8.848400 0.000000
236.523926 -24.724304 -8.848400 0.000000
250.007202 -24.724304 -8.848400 0.000000
263.490540 -24.724304 -8.848400 0.000000
276.973816 -24.724304 -8.848400 0.000000
290.457092 -24.724304 -8.848400 0.000000
303.940430 -24.724304 -8.848400 0.000000
317.423706 -24.724304 -8.848400 0.000000
330.907043 -24.724304 -8.848400 0.000000
344.390320 -24.724304 -8.848400 0.000000
-343.257996 -38.207611 -8.848400 0.000000
-329.774689 -38.207611 -8.848400 0.000000
-316.291382 -38.207611 -8.848400 0.000000
-302.808105 -38.207611 -8.848400 0.000000
-289.324799 -38.207611 -8.848400 0.000000
-275.841492 -38.207611 -8.848400 0.000000
-262.358185 -38.207611 -8.848400 0.000000
-248.874893 -38.207611 -8.848400 0.000000
-235.391602 -38.207611 -8.848400 0.000000
-221.908295 -38.207611 -8.848400 0.000000
-208.424988 -38.207611 -8.848400 0.000000
-194.941696 -38.207611 -8.848400 0.000000
-181.458389 -38.207611 -8.848400 0.000000
-167.975098 -38.207611 -8.848400 0.000000
-154.491791 -38.207611 -8.848400 0.000000
-141.008499 -38.207611 -8.848400 0.000000
-127.525192 -38.207611 -8.848400 0.000000
-114.041885 -38.207611 -8.848400 0.000000
-100.558594 -38.207611 -8.848400 3.275037
-87.075287 -38.207611 -8.848400 3.980533
-73.591980 -38.207611 -8.848400 3.795033
-60.108704 -38.207611 -8.848400 3.334493
-46.625397 -38.207611 -8.848400 3.111845
-33.142090 -38.207611 -8.848400 2.928484
-19.658783 -38.207611 -8.848400 2.741132
-6.175476 -38.207611 -8.848400 2.666477
7.307800 -38.207611 -8.848400 2.673032
20.791107 -38.207611 -8.848400 2.878988
34.274414 -38.207611 -8.848400 3.122308
47.757721 -38.207611 -8.848400 3.254677
61.240997 -38.207611 -8.848400 3.176811
74.724304 -38.207611 -8.848400 2.581830
88.207611 -38.207611 -8.848400 2.095106
101.690918 -38.207611 -8.848400 0.000000
115.174225 -38.207611 -8.848400 0.000000
128.657501 -38.207611 -8.848400 0.000000
142.140808 -38.207611 -8.848400 0.000000
155.624115 -38.207611 -8.848400 0.000000
169.107422 -38.207611 -8.848400 0.000000
182.590698 -38.207611 -8.848400 0.000000
196.074036 -38.207611 -8.848400 0.000000
209.557312 -38.207611 -8.848400 0.000000
223.040588 -38.207611 -8.848400 0.000000
236.523926 -38.207611 -8.848400 0.000000
250.007202 -38.207611 -8.848400 0.000000
263.490540 -38.207611 -8.848400 0.000000
276.973816 -38.207611 -8.848400 0.000000
290.457092 -38.207611 -8.848400 0.000000
303.940430 -38.207611 -8.848400 0.000000
317.423706 -38.207611 -8.848400 0.000000
330.907043 -38.207611 -8.848400 0.000000
344.390320 -38.207611 -8.848400 0.000000
-343.257996 -51.690918 -8.848400 0.000000
-329.774689 -51.690918 -8.848400 0.000000
-316.291382 -51.690918 -8.848400 0.000000
-302.808105 -51.690918 -8.848400 0.000000
-289.324799 -51.690918 -8.848400 0.000000
-275.841492 -51.690918 -8.848400 0.000000
-262.358185 -51.690918 -8.848400 0.000000
-248.874893 -51.690918 -8.848400 0.000000
-235.391602 -51.690918 -8.848400 0.000000
-221.908295 -51.690918 -8.848400 0.000000
-208.424988 -51.690918 -8.848400 0.000000
-194.941696 -51.690918 -8.848400 0.000000
-181.458389 -51.690918 -8.848400 0.000000
-167.975098 -51.690918 -8.848400 0.000000
-154.491791 -51.690918 -8.848400 0.000000
-141.008499 -51.690918 -8.848400 0.000000
-127.525192 -51.690918 -8.848400 0.000000
-114.041885 -51.690918 -8.848400 0.000000
-100.558594 -51.690918 -8.848400 0.000000
-87.075287 -51.690918 -8.848400 3.361493
-73.591980 -51.690918 -8.848400 3.329904
-60.108704 -51.690918 -8.848400 2.985370
-46.625397 -51.690918 -8.848400 2.859759
-33.142090 -51.690918 -8.848400 3.038207
-19.658783 -51.690918 -8.848400 2.731943
-6.175476 -51.690918 -8.848400 3.248692
7.307800 -51.690918 -8.848400 3.384243
20.791107 -51.690918 -8.848400 3.014647
34.274414 -51.690918 -8.848400 3.395564
47.757721 -51.690918 -8.848400 3.024011
61.240997 -51.690918 -8.848400 2.588629
74.724304 -51.690918 -8.848400 2.426590
88.207611 -51.690918 -8.848400 0.000000
101.690918 -51.690918 -8.848400 0.000000
115.174225 -51.690918 -8.848400 0.000000
128.657501 -51.690918 -8.848400 0.000000
142.140808 -51.690918 -8.848400 0.000000
155.624115 -51.690918 -8.848400 0.000000
169.107422 -51.690918 -8.848400 0.000000
182.590698 -51.690918 -8.848400 0.000000
196.074036 -51.690918 -8.848400 0.000000
209.557312 -51.690918 -8.848400 0.000000
223.040588 -51.690918 -8.848400 0.000000
236.523926 -51.690918 -8.848400 0.000000
250.007202 -51.690918 -8.848400 0.000000
263.490540 -51.690918 -8.848400 0.000000
276.973816 -51.690918 -8.848400 0.000000
290.457092 -51.690918 -8.848400 0.000000
303.940430 -51.690918 -8.848400 0.000000
317.423706 -51.690918 -8.848400 0.000000
330.907043 -51.690918 -8.848400 0.000000
344.390320 -51.690918 -8.848400 0.000000
-343.257996 -65.174225 -8.848400 0.000000
-329.774689 -65.174225 -8.848400 0.000000
-316.291382 -65.174225 -8.848400 0.000000
-302.808105 -65.174225 -8.848400 0.000000
-289.324799 -65.174225 -8.848400 0.000000
-275.841492 -65.174225 -8.848400 0.000000
-262.358185 -65.174225 -8.848400 0.000000
-248.874893 -65.174225 -8.848400 0.000000
-235.391602 -65.174225 -8.848400 0.000000
-221.908295 -65.174225 -8.848400 0.000000
-208.424988 -65.174225 -8.848400 0.000000
-194.941696 -65.174225 -8.848400 0.000000
-181.458389 -65.174225 -8.848400 0.000000
-167.975098 -65.174225 -8.848400 0.000000
-154.491791 -65.174225 -8.848400 0.000000
-141.008499 -65.174225 -8.848400 0.000000
-127.525192 -65.174225 -8.848400 0.000000
-114.041885 -65.174225 -8.848400 0.000000
-100.558594 -65.174225 -8.848400 0.000000
-87.075287 -65.174225 -8.848400 3.147026
-73.591980 -65.174225 -8.848400 3.092207
-60.108704 -65.174225 -8.848400 2.984220
-46.625397 -65.174225 -8.848400 3.028635
-33.142090 -65.174225 -8.848400 3.020532
-19.658783 -65.174225 -8.848400 2.816853
-6.175476 -65.174225 -8.848400 2.945477
7.307800 -65.174225 -8.848400 3.346200
20.791107 -65.174225 -8.848400 3.375120
34.274414 -65.174225 -8.848400 3.460441
47.757721 -65.174225 -8.848400 3.415933
61.240997 -65.174225 -8.848400 0.000000
74.724304 -65.174225 -8.848400 0.000000
88.207611 -65.174225 -8.848400 0.000000
101.690918 -65.174225 -8.848400 0.000000
115.174225 -65.174225 -8.848400 0.000000
128.657501 -65.174225 -8.848400 0.000000
142.140808 -65.174225 -8.848400 0.000000
155.624115 -65.174225 -8.848400 0.000000
169.107422 -65.174225 -8.848400 0.000000
182.590698 -65.174225 -8.848400 0.000000
196.074036 -65.174225 -8.848400 0.000000
209.557312 -65.174225 -8.848400 0.000000
223.040588 -65.174225 -8.848400 0.000000
236.523926 -65.174225 -8.848400 0.000000
250.007202 -65.174225 -8.848400 0.000000
263.490540 -65.174225 -8.848400 0.000000
276.973816 -65.174225 -8.848400 0.000000
290.457092 -65.174225 -8.848400 0.000000
303.940430 -65.174225 -8.848400 0.000000
317.423706 -65.174225 -8.848400 0.000000
330.907043 -65.174225 -8.848400 0.000000
344.390320 -65.174225 -8.848400 0.000000
-343.257996 -78.657501 -8.848400 0.000000
-329.774689 -78.657501 -8.848400 0.000000
-316.291382 -78.657501 -8.848400 0.000000
-302.808105 -78.657501 -8.848400 0.000000
-289.324799 -78.657501 -8.848400 0.000000
-275.841492 -78.657501 -8.848400 0.000000
-262.358185 -78.657501 -8.848400 0.000000
-248.874893 -78.657501 -8.848400 0.000000
-235.391602 -78.657501 -8.848400 0.000000
-221.908295 -78.657501 -8.848400 0.000000
-208.424988 -78.657501 -8.848400 0.000000
-194.941696 -78.657501 -8.848400 0.000000
-181.458389 -78.657501 -8.848400 0.000000
-167.975098 -78.657501 -8.848400 0.000000
-154.491791 -78.657501 -8.848400 0.000000
-141.008499 -78.657501 -8.848400 0.000000
-127.525192 -78.657501 -8.848400 0.000000
-114.041885 -78.657501 -8.848400 0.000000
-100.558594 -78.657501 -8.848400 0.000000
-87.075287 -78.657501 -8.848400 0.000000
-73.591980 -78.657501 -8.848400 2.480607
-60.108704 -78.657501 -8.848400 2.559387
-46.625397 -78.657501 -8.848400 2.769853
-33.142090 -78.657501 -8.848400 2.665977
-19.658783 -78.657501 -8.848400 2.520795
-6.175476 -78.657501 -8.848400 2.752318
7.307800 -78.657501 -8.848400 2.824944
20.791107 -78.657501 -8.848400 2.775770
34.274414 -78.657501 -8.848400 2.504746
47.757721 -78.657501 -8.848400 0.000000
61.240997 -78.657501 -8.848400 0.000000
74.724304 -78.657501 -8.848400 0.000000
88.207611 -78.657501 -8.848400 0.000000
101.690918 -78.657501 -8.848400 0.000000
115.174225 -78.657501 -8.848400 0.000000
128.657501 -78.657501 -8.848400 0.000000
142.140808 -78.657501 -8.848400 0.000000
155.624115 -78.657501 -8.848400 0.000000
169.107422 -78.657501 -8.848400 0.000000
182.590698 -78.657501 -8.848400 0.000000
196.074036 -78.657501 -8.848400 0.000000
209.557312 -78.657501 -8.848400 0.000000
223.040588 -78.657501 -8.848400 0.000000
236.523926 -78.657501 -8.848400 0.000000
250.007202 -78.657501 -8.848400 0.000000
263.490540 -78.657501 -8.848400 0.000000
276.973816 -78.657501 -8.848400 0.000000
290.457092 -78.657501 -8.848400 0.000000
303.940430 -78.657501 -8.848400 0.000000
317.423706 -78.657501 -8.848400 0.000000
330.907043 -78.657501 -8.848400 0.000000
344.390320 -78.657501 -8.848400 0.000000
-343.257996 -92.140808 -8.848400 0.000000
-329.774689 -92.140808 -8.848400 0.000000
-316.291382 -92.140808 -8.848400 0.000000
-302.808105 -92.140808 -8.848400 0.000000
-289.324799 -92.140808 -8.848400 0.000000
-275.841492 -92.140808 -8.848400 0.000000
-262.358185 -92.140808 -8.848400 0.000000
-248.874893 -92.140808 -8.848400 0.000000
-235.391602 -92.140808 -8.848400 0.000000
-221.908295 -92.140808 -8.848400 0.000000
-208.424988 -92.140808 -8.848400 0.000000
-194.941696 -92.140808 -8.848400 0.000000
-181.458389 -92.140808 -8.848400 0.000000
-167.975098 -92.140808 -8.848400 0.000000
-154.491791 -92.140808 -8.848400 0.000000
-141.008499 -92.140808 -8.848400 0.000000
-127.525192 -92.140808 -8.848400 0.000000
-114.041885 -92.140808 -8.848400 0.000000
-100.558594 -92.140808 -8.848400 0.000000
-87.075287 -92.140808 -8.848400 0.000000
-73.591980 -92.140808 -8.848400 1.767178
-60.108704 -92.140808 -8.848400 1.817982
-46.625397 -92.140808 -8.848400 2.278885
-33.142090 -92.140808 -8.848400 2.445057
-19.658783 -92.140808 -8.848400 2.237506
-6.175476 -92.140808 -8.848400 2.231781
7.307800 -92.140808 -8.848400 0.000000
20.791107 -92.140808 -8.848400 0.000000
34.274414 -92.140808 -8.848400 0.000000
47.757721 -92.140808 -8.848400 0.000000
61.240997 -92.140808 -8.848400 0.000000
74.724304 -92.140808 -8.848400 0.000000
88.207611 -92.140808 -8.848400 0.000000
101.690918 -92.140808 -8.848400 0.000000
115.174225 -92.140808 -8.848400 0.000000
128.657501 -92.140808 -8.848400 0.000000
142.140808 -92.140808 -8.848400 0.000000
155.624115 -92.140808 -8.848400 0.000000
169.107422 -92.140808 -8.848400 0.000000
182.590698 -92.140808 -8.848400 0.000000
196.074036 -92.140808 -8.848400 0.000000
209.557312 -92.140808 -8.848400 0.000000
223.040588 -92.140808 -8.848400 0.000000
236.523926 -92.140808 -8.848400 0.000000
250.007202 -92.140808 -8.848400 0.000000
263.490540 -92.140808 -8.848400 0.000000
276.973816 -92.140808 -8.848400 0.000000
290.457092 -92.140808 -8.848400 0.000000
303.940430 -92.140808 -8.848400 0.000000
317.423706 -92.140808 -8.848400 0.000000
330.907043 -92.140808 -8.848400 0.000000
344.390320 -92.140808 -8.848400 0.000000
-343.257996 -105.624115 -8.848400 0.000000
-329.774689 -105.624115 -8.848400 0.000000
-316.291382 -105.624115 -8.848400 0.000000
-302.808105 -105.624115 -8.848400 0.000000
-289.324799 -105.624115 -8.848400 0.000000
-275.841492 -105.624115 -8.848400 0.000000
-262.358185 -105.624115 -8.848400 0.000000
-248.874893 -105.624115 -8.848400 0.000000
-235.391602 -105.624115 -8.848400 0.000000
-221.908295 -105.624115 -8.848400 0.000000
-208.424988 -105.624115 -8.848400 0.000000
-194.941696 -105.624115 -8.848400 0.000000
-181.458389 -105.624115 -8.848400 0.000000
-167.975098 -105.624115 -8.848400 0.000000
-154.491791 -105.624115 -8.848400 0.000000
-141.008499 -105.624115 -8.848400 0.000000
-127.525192 -105.624115 -8.848400 0.000000
-114.041885 -105.624115 -8.848400 0.000000
-100.558594 -105.624115 -8.848400 0.000000
-87.075287 -105.624115 -8.848400 0.000000
-73.591980 -105.624115 -8.848400 0.000000
-60.108704 -105.624115 -8.848400 0.000000
-46.625397 -105.624115 -8.848400 0.000000
-33.142090 -105.624115 -8.848400 0.000000
-19.658783 -105.624115 -8.848400 0.000000
-6.175476 -105.624115 -8.848400 0.000000
7.307800 -105.624115 -8.848400 0.000000
20.791107 -105.624115 -8.848400 0.000000
34.274414 -105.624115 -8.848400 0.000000
47.757721 -105.624115 -8.848400 0.000000
61.240997 -105.624115 -8.848400 0.000000
74.724304 -105.624115 -8.848400 0.000000
88.207611 -105.624115 -8.848400 0.000000
101.690918 -105.624115 -8.848400 0.000000
115.174225 -105.624115 -8.848400 0.000000
128.657501 -105.624115 -8.848400 0.000000
142.140808 -105.624115 -8.848400 0.000000
155.624115 -105.624115 -8.848400 0.000000
169.107422 -105.624115 -8.848400 0.000000
182.590698 -105.624115 -8.848400 0.000000
196.074036 -105.624115 -8.848400 0.000000
209.557312 -105.624115 -8.848400 0.000000
223.040588 -105.624115 -8.848400 0.000000
236.523926 -105.624115 -8.848400 0.000000
250.007202 -105.624115 -8.848400 0.000000
263.490540 -105.624115 -8.848400 0.000000
276.973816 -105.624115 -8.848400 0.000000
290.457092 -105.624115 -8.848400 0.000000
303.940430 -105.624115 -8.848400 0.000000
317.423706 -105.624115 -8.848400 0.000000
330.907043 -105.624115 -8.848400 0.000000
344.390320 -105.624115 -8.848400 0.000000
-343.257996 -119.107422 -8.848400 0.000000
-329.774689 -119.107422 -8.848400 0.000000
-316.291382 -119.107422 -8.848400 0.000000
-302.808105 -119.107422 -8.848400 0.000000
-289.324799 -119.107422 -8.848400 0.000000
-275.841492 -119.107422 -8.848400 0.000000
-262.358185 -119.107422 -8.848400 0.000000
-248.874893 -119.107422 -8.848400 0.000000
-235.391602 -119.107422 -8.848400 0.000000
-221.908295 -119.107422 -8.848400 0.000000
-208.424988 -119.107422 -8.848400 0.000000
-194.941696 -119.107422 -8.848400 0.000000
-181.458389 -119.107422 -8.848400 0.000000
-167.975098 -119.107422 -8.848400 0.000000
-154.491791 -119.107422 -8.848400 0.000000
-141.008499 -119.107422 -8.848400 0.000000
-127.525192 -119.107422 -8.848400 0.000000
-114.041885 -119.107422 -8.848400 0.000000
-100.558594 -119.107422 -8.848400 0.000000
-87.075287 -119.107422 -8.848400 0.000000
-73.591980 -119.107422 -8.848400 0.000000
-60.108704 -119.107422 -8.848400 0.000000
-46.625397 -119.107422 -8.848400 0.000000
-33.142090 -119.107422 -8.848400 0.000000
-19.658783 -119.107422 -8.848400 0.000000
-6.175476 -119.107422 -8.848400 0.000000
7.307800 -119.107422 -8.848400 0.000000
20.791107 -119.107422 -8.848400 0.000000
34.274414 -119.107422 -8.848400 0.000000
47.757721 -119.107422 -8.848400 0.000000
61.240997 -119.107422 -8.848400 0.000000
74.724304 -119.107422 -8.848400 0.000000
88.207611 -119.107422 -8.848400 0.000000
101.690918 -119.107422 -8.848400 0.000000
115.174225 -119.107422 -8.848400 0.000000
128.657501 -119.107422 -8.848400 0.000000
142.140808 -119.107422 -8.848400 0.000000
155.624115 -119.107422 -8.848400 0.000000
169.107422 -119.107422 -8.848400 0.000000
182.590698 -119.107422 -8.848400 0.000000
196.074036 -119.107422 -8.848400 0.000000
209.557312 -119.107422 -8.848400 0.000000
223.040588 -119.107422 -8.848400 0.000000
236.523926 -119.107422 -8.848400 0.000000
250.007202 -119.107422 -8.848400 0.000000
263.490540 -119.107422 -8.848400 0.000000
276.973816 -119.107422 -8.848400 0.000000
290.457092 -119.107422 -8.848400 0.000000
303.940430 -119.107422 -8.848400 0.000000
317.423706 -119.107422 -8.848400 0.000000
330.907043 -119.107422 -8.848400 0.000000
344.390320 -119.107422 -8.848400 0.000000
-343.257996 -132.590698 -8.848400 0.000000
-329.774689 -132.590698 -8.848400 0.000000
-316.291382 -132.590698 -8.848400 0.000000
-302.808105 -132.590698 -8.848400 0.000000
-289.324799 -132.590698 -8.848400 0.000000
-275.841492 -132.590698 -8.848400 0.000000
-262.358185 -132.590698 -8.848400 0.000000
-248.874893 -132.590698 -8.848400 0.000000
-235.391602 -132.590698 -8.848400 0.000000
-221.908295 -132.590698 -8.848400 0.000000
-208.424988 -132.590698 -8.848400 0.000000
-194.941696 -132.590698 -8.848400 0.000000
-181.458389 -132.590698 -8.848400 0.000000
-167.975098 -132.590698 -8.848400 0.000000
-154.491791 -132.590698 -8.848400 0.000000
-141.008499 -132.590698 -8.848400 0.000000
-127.525192 -132.590698 -8.848400 0.000000
-114.041885 -132.590698 -8.848400 0.000000
-100.558594 -132.590698 -8.848400 0.000000
-87.075287 -132.590698 -8.848400 0.000000
-73.591980 -132.590698 -8.848400 0.000000
-60.108704 -132.590698 -8.848400 0.000000
-46.625397 -132.590698 -8.848400 0.000000
-33.142090 -132.590698 -8.848400 0.000000
-19.658783 -132.590698 -8.848400 0.000000
-6.175476 -132.590698 -8.848400 0.000000
7.307800 -132.590698 -8.848400 0.000000
20.791107 -132.590698 -8.848400 0.000000
34.274414 -132.590698 -8.848400 0.000000
47.757721 -132.590698 -8.848400 0.000000
61.240997 -132.590698 -8.848400 0.000000
74.724304 -132.590698 -8.848400 0.000000
88.207611 -132.590698 -8.848400 0.000000
101.690918 -132.590698 -8.848400 0.000000
115.174225 -132.590698 -8.848400 0.000000
128.657501 -132.590698 -8.848400 0.000000
142.140808 -132.590698 -8.848400 0.000000
155.624115 -132.590698 -8.848400 0.000000
169.107422 -132.590698 -8.848400 0.000000
182.590698 -132.590698 -8.848400 0.000000
196.074036 -132.590698 -8.848400 0.000000
209.557312 -132.590698 -8.848400 0.000000
223.040588 -132.590698 -8.848400 0.000000
236.523926 -132.590698 -8.848400 0.000000
250.007202 -132.590698 -8.848400 0.000000
263.490540 -132.590698 -8.848400 0.000000
276.973816 -132.590698 -8.848400 0.000000
290.457092 -132.590698 -8.848400 0.000000
303.940430 -132.590698 -8.848400 0.000000
317.423706 -132.590698 -8.848400 0.000000
330.907043 -132.590698 -8.848400 0.000000
344.390320 -132.590698 -8.848400 0.000000
-343.257996 -146.074036 -8.848400 0.000000
-329.774689 -146.074036 -8.848400 0.000000
-316.291382 -146.074036 -8.848400 0.000000
-302.808105 -146.074036 -8.848400 0.000000
-289.324799 -146.074036 -8.848400 0.000000
-275.841492 -146.074036 -8.848400 0.000000
-262.358185 -146.074036 -8.848400 0.000000
-248.874893 -146.074036 -8.848400 0.000000
-235.391602 -146.074036 -8.848400 0.000000
-221.908295 -146.074036 -8.848400 0.000000
-208.424988 -146.074036 -8.848400 0.000000
-194.941696 -146.074036 -8.848400 0.000000
-181.458389 -146.074036 -8.848400 0.000000
-167.975098 -146.074036 -8.848400 0.000000
-154.491791 -146.074036 -8.848400 0.000000
-141.008499 -146.074036 -8.848400 0.000000
-127.525192 -146.074036 -8.848400 0.000000
-114.041885 -146.074036 -8.848400 0.000000
-100.558594 -146.074036 -8.848400 0.000000
-87.075287 -146.074036 -8.848400 0.000000
-73.591980 -146.074036 -8.848400 0.000000
-60.108704 -146.074036 -8.848400 0.000000
-46.625397 -146.074036 -8.848400 0.000000
-33.142090 -146.074036 -8.848400 0.000000
-19.658783 -146.074036 -8.848400 0.000000
-6.175476 -146.074036 -8.848400 0.000000
7.307800 -146.074036 -8.848400 0.000000
20.791107 -146.074036 -8.848400 0.000000
34.274414 -146.074036 -8.848400 0.000000
47.757721 -146.074036 -8.848400 0.000000
61.240997 -146.074036 -8.848400 0.000000
74.724304 -146.074036 -8.848400 0.000000
88.207611 -146.074036 -8.848400 0.000000
101.690918 -146.074036 -8.848400 0.000000
115.174225 -146.074036 -8.848400 0.000000
128.657501 -146.074036 -8.848400 0.000000
142.140808 -146.074036 -8.848400 0.000000
155.624115 -146.074036 -8.848400 0.000000
169.107422 -146.074036 -8.848400 0.000000
182.590698 -146.074036 -8.848400 0.000000
196.074036 -146.074036 -8.848400 0.000000
209.557312 -146.074036 -8.848400 0.000000
223.040588 -146.074036 -8.848400 0.000000
236.523926 -146.074036 -8.848400 0.000000
250.007202 -146.074036 -8.848400 0.000000
263.490540 -146.074036 -8.848400 0.000000
276.973816 -146.074036 -8.848400 0.000000
290.457092 -146.074036 -8.848400 0.000000
303.940430 -146.074036 -8.848400 0.000000
317.423706 -146.074036 -8.848400 0.000000
330.907043 -146.074036 -8.848400 0.000000
344.390320 -146.074036 -8.848400 0.000000
-343.257996 -159.557312 -8.848400 0.000000
-329.774689 -159.557312 -8.848400 0.000000
-316.291382 -159.557312 -8.848400 0.000000
-302.808105 -159.557312 -8.848400 0.000000
-289.324799 -159.557312 -8.848400 0.000000
-275.841492 -159.557312 -8.848400 0.000000
-262.358185 -159.557312 -8.848400 0.000000
-248.874893 -159.557312 -8.848400 0.000000
-235.391602 -159.557312 -8.848400 0.000000
-221.908295 -159.557312 -8.848400 0.000000
-208.424988 -159.557312 -8.848400 0.000000
-194.941696 -159.557312 -8.848400 0.000000
-181.458389 -159.557312 -8.848400 0.000000
-167.975098 -159.557312 -8.848400 0.000000
-154.491791 -159.557312 -8.848400 0.000000
-141.008499 -159.557312 -8.848400 0.000000
-127.525192 -159.557312 -8.848400 0.000000
-114.041885 -159.557312 -8.848400 0.000000
-100.558594 -159.557312 -8.848400 0.000000
-87.075287 -159.557312 -8.848400 0.000000
-73.591980 -159.557312 -8.848400 0.000000
-60.108704 -159.557312 -8.848400 0.000000
-46.625397 -159.557312 -8.848400 0.000000
-33.142090 -159.557312 -8.848400 0.000000
-19.658783 -159.557312 -8.848400 0.000000
-6.175476 -159.557312 -8.848400 0.000000
7.307800 -159.557312 -8.848400 0.000000
20.791107 -159.557312 -8.848400 0.000000
34.274414 -159.557312 -8.848400 0.000000
47.757721 -159.557312 -8.848400 0.000000
61.240997 -159.557312 -8.848400 0.000000
74.724304 -159.557312 -8.848400 0.000000
88.207611 -159.557312 -8.848400 0.000000
101.690918 -159.557312 -8.848400 0.000000
115.174225 -159.557312 -8.848400 0.000000
128.657501 -159.557312 -8.848400 0.000000
142.140808 -159.557312 -8.848400 0.000000
155.624115 -159.557312 -8.848400 0.000000
169.107422 -159.557312 -8.848400 0.000000
182.590698 -159.557312 -8.848400 0.000000
196.074036 -159.557312 -8.848400 0.000000
209.557312 -159.557312 -8.848400 0.000000
223.040588 -159.557312 -8.848400 0.000000
236.523926 -159.557312 -8.848400 0.000000
250.007202 -159.557312 -8.848400 0.000000
263.490540 -159.557312 -8.848400 0.000000
276.973816 -159.557312 -8.848400 0.000000
290.457092 -159.557312 -8.848400 0.000000
303.940430 -159.557312 -8.848400 0.000000
317.423706 -159.557312 -8.848400 0.000000
330.907043 -159.557312 -8.848400 0.000000
344.390320 -159.557312 -8.848400 0.000000
-343.257996 -173.040588 -8.848400 0.000000
-329.774689 -173.040588 -8.848400 0.000000
-316.291382 -173.040588 -8.848400 0.000000
-302.808105 -173.040588 -8.848400 0.000000
-289.324799 -173.040588 -8.848400 0.000000
-275.841492 -173.040588 -8.848400 0.000000
-262.358185 -173.040588 -8.848400 0.000000
-248.874893 -173.040588 -8.848400 0.000000
-235.391602 -173.040588 -8.848400 0.000000
-221.908295 -173.040588 -8.848400 0.000000
-208.424988 -173.040588 -8.848400 0.000000
-194.941696 -173.040588 -8.848400 0.000000
-181.458389 -173.040588 -8.848400 0.000000
-167.975098 -173.040588 -8.848400 0.000000
-154.491791 -173.040588 -8.848400 0.000000
-141.008499 -173.040588 -8.848400 0.000000
-127.525192 -173.040588 -8.848400 0.000000
-114.041885 -173.040588 -8.848400 0.000000
-100.558594 -173.040588 -8.848400 0.000000
-87.075287 -173.040588 -8.848400 0.000000
-73.591980 -173.040588 -8.848400 0.000000
-60.108704 -173.040588 -8.848400 0.000000
-46.625397 -173.040588 -8.848400 0.000000
-33.142090 -173.040588 -8.848400 0.000000
-19.658783 -173.040588 -8.848400 0.000000
-6.175476 -173.040588 -8.848400 0.000000
7.307800 -173.040588 -8.848400 0.000000
20.791107 -173.040588 -8.848400 0.000000
34.274414 -173.040588 -8.848400 0.000000
47.757721 -173.040588 -8.848400 0.000000
61.240997 -173.040588 -8.848400 0.000000
74.724304 -173.040588 -8.848400 0.000000
88.207611 -173.040588 -8.848400 0.000000
101.690918 -173.040588 -8.848400 0.000000
115.174225 -173.040588 -8.848400 0.000000
128.657501 -173.040588 -8.848400 0.000000
142.140808 -173.040588 -8.848400 0.000000
155.624115 -173.040588 -8.848400 0.000000
169.107422 -173.040588 -8.848400 0.000000
182.590698 -173.040588 -8.848400 0.000000
196.074036 -173.040588 -8.848400 0.000000
209.557312 -173.040588 -8.848400 0.000000
223.040588 -173.040588 -8.848400 0.000000
236.523926 -173.040588 -8.848400 0.000000
250.007202 -173.040588 -8.848400 0.000000
263.490540 -173.040588 -8.848400 0.000000
276.973816 -173.040588 -8.848400 0.000000
290.457092 -173.040588 -8.848400 0.000000
303.940430 -173.040588 -8.848400 0.000000
317.423706 -173.040588 -8.848400 0.000000
330.907043 -173.040588 -8.848400 0.000000
344.390320 -173.040588 -8.848400 0.000000
-343.257996 -186.523926 -8.848400 0.000000
-329.774689 -186.523926 -8.848400 0.000000
-316.291382 -186.523926 -8.848400 0.000000
-302.808105 -186.523926 -8.848400 0.000000
-289.324799 -186.523926 -8.848400 0.000000
-275.841492 -186.523926 -8.848400 0.000000
-262.358185 -186.523926 -8.848400 0.000000
-248.874893 -186.523926 -8.848400 0.000000
-235.391602 -186.523926 -8.848400 0.000000
-221.908295 -186.523926 -8.848400 0.000000
-208.424988 -186.523926 -8.848400 0.000000
-194.941696 -186.523926 -8.848400 0.000000
-181.458389 -186.523926 -8.848400 0.000000
-167.975098 -186.523926 -8.848400 0.000000
-154.491791 -186.523926 -8.848400 0.000000
-141.008499 -186.523926 -8.848400 0.000000
-127.525192 -186.523926 -8.848400 0.000000
-114.041885 -186.523926 -8.848400 0.000000
-100.558594 -186.523926 -8.848400 0.000000
-87.075287 -186.523926 -8.848400 0.000000
-73.591980 -186.523926 -8.848400 0.000000
-60.108704 -186.523926 -8.848400 0.000000
-46.625397 -186.523926 -8.848400 0.000000
-33.142090 -186.523926 -8.848400 0.000000
-19.658783 -186.523926 -8.848400 0.000000
-6.175476 -186.523926 -8.848400 0.000000
7.307800 -186.523926 -8.848400 0.000000
20.791107 -186.523926 -8.848400 0.000000
34.274414 -186.523926 -8.848400 0.000000
47.757721 -186.523926 -8.848400 0.000000
61.240997 -186.523926 -8.848400 0.000000
74.724304 -186.523926 -8.848400 0.000000
88.207611 -186.523926 -8.848400 0.000000
101.690918 -186.523926 -8.848400 0.000000
115.174225 -186.523926 -8.848400 0.000000
128.657501 -186.523926 -8.848400 0.000000
142.140808 -186.523926 -8.848400 0.000000
155.624115 -186.523926 -8.848400 0.000000
169.107422 -186.523926 -8.848400 0.000000
182.590698 -186.523926 -8.848400 0.000000
196.074036 -186.523926 -8.848400 0.000000
209.557312 -186.523926 -8.848400 0.000000
223.040588 -186.523926 -8.848400 0.000000
236.523926 -186.523926 -8.848400 0.000000
250.007202 -186.523926 -8.848400 0.000000
263.490540 -186.523926 -8.848400 0.000000
276.973816 -186.523926 -8.848400 0.000000
290.457092 -186.523926 -8.848400 0.000000
303.940430 -186.523926 -8.848400 0.000000
317.423706 -186.523926 -8.848400 0.000000
330.907043 -186.523926 -8.848400 0.000000
344.390320 -186.523926 -8.848400 0.000000
-343.257996 -200.007202 -8.848400 0.000000
-329.774689 -200.007202 -8.848400 0.000000
-316.291382 -200.007202 -8.848400 0.000000
-302.808105 -200.007202 -8.848400 0.000000
-289.324799 -200.007202 -8.848400 0.000000
-275.841492 -200.007202 -8.848400 0.000000
-262.358185 -200.007202 -8.848400 0.000000
-248.874893 -200.007202 -8.848400 0.000000
-235.391602 -200.007202 -8.848400 0.000000
-221.908295 -200.007202 -8.848400 0.000000
-208.424988 -200.007202 -8.848400 0.000000
-194.941696 -200.007202 -8.848400 0.000000
-181.458389 -200.007202 -8.848400 0.000000
-167.975098 -200.007202 -8.848400 0.000000
-154.491791 -200.007202 -8.848400 0.000000
-141.008499 -200.007202 -8.848400 0.000000
-127.525192 -200.007202 -8.848400 0.000000
-114.041885 -200.007202 -8.848400 0.000000
-100.558594 -200.007202 -8.848400 0.000000
-87.075287 -200.007202 -8.848400 0.000000
-73.591980 -200.007202 -8.848400 0.000000
-60.108704 -200.007202 -8.848400 0.000000
-46.625397 -200.007202 -8.848400 0.000000
-33.142090 -200.007202 -8.848400 0.000000
-19.658783 -200.007202 -8.848400 0.000000
-6.175476 -200.007202 -8.848400 0.000000
7.307800 -200.007202 -8.848400 0.000000
20.791107 -200.007202 -8.848400 0.000000
34.274414 -200.007202 -8.848400 0.000000
47.757721 -200.007202 -8.848400 0.000000
61.240997 -200.007202 -8.848400 0.000000
74.724304 -200.007202 -8.848400 0.000000
88.207611 -200.007202 -8.848400 0.000000
101.690918 -200.007202 -8.848400 0.000000
115.174225 -200.007202 -8.848400 0.000000
128.657501 -200.007202 -8.848400 0.000000
142.140808 -200.007202 -8.848400 0.000000
155.624115 -200.007202 -8.848400 0.000000
169.107422 -200.007202 -8.848400 0.000000
182.590698 -200.007202 -8.848400 0.000000
196.074036 -200.007202 -8.848400 0.000000
209.557312 -200.007202 -8.848400 0.000000
223.040588 -200.007202 -8.848400 0.000000
236.523926 -200.007202 -8.848400 0.000000
250.007202 -200.007202 -8.848400 0.000000
263.490540 -200.007202 -8.848400 0.000000
276.973816 -200.007202 -8.848400 0.000000
290.457092 -200.007202 -8.848400 0.000000
303.940430 -200.007202 -8.848400 0.000000
317.423706 -200.007202 -8.848400 0.000000
330.907043 -200.007202 -8.848400 0.000000
344.390320 -200.007202 -8.848400 0.000000
