TITLE = "B00005"
VARIABLES = "X", "Y", "Z", "Reynold stress YY"
ZONE T="Frame 1" I=52, J=45, K=4, F=POINT
-343.257996 393.257996 -49.298302 0.000000
-329.774689 393.257996 -49.298302 0.000000
-316.291382 393.257996 -49.298302 0.000000
-302.808105 393.257996 -49.298302 0.000000
-289.324799 393.257996 -49.298302 0.000000
-275.841492 393.257996 -49.298302 0.000000
-262.358185 393.257996 -49.298302 0.000000
-248.874893 393.257996 -49.298302 0.000000
-235.391602 393.257996 -49.298302 0.000000
-221.908295 393.257996 -49.298302 0.000000
-208.424988 393.257996 -49.298302 0.000000
-194.941696 393.257996 -49.298302 0.000000
-181.458389 393.257996 -49.298302 0.000000
-167.975098 393.257996 -49.298302 0.000000
-154.491791 393.257996 -49.298302 0.000000
-141.008499 393.257996 -49.298302 0.000000
-127.525192 393.257996 -49.298302 0.000000
-114.041885 393.257996 -49.298302 0.000000
-100.558594 393.257996 -49.298302 0.000000
-87.075287 393.257996 -49.298302 0.000000
-73.591980 393.257996 -49.298302 0.000000
-60.108704 393.257996 -49.298302 0.000000
-46.625397 393.257996 -49.298302 0.000000
-33.142090 393.257996 -49.298302 0.000000
-19.658783 393.257996 -49.298302 0.000000
-6.175476 393.257996 -49.298302 0.000000
7.307800 393.257996 -49.298302 0.000000
20.791107 393.257996 -49.298302 0.000000
34.274414 393.257996 -49.298302 0.000000
47.757721 393.257996 -49.298302 0.000000
61.240997 393.257996 -49.298302 0.000000
74.724304 393.257996 -49.298302 0.000000
88.207611 393.257996 -49.298302 0.000000
101.690918 393.257996 -49.298302 0.000000
115.174225 393.257996 -49.298302 0.000000
128.657501 393.257996 -49.298302 0.000000
142.140808 393.257996 -49.298302 0.000000
155.624115 393.257996 -49.298302 0.000000
169.107422 393.257996 -49.298302 0.000000
182.590698 393.257996 -49.298302 0.000000
196.074036 393.257996 -49.298302 0.000000
209.557312 393.257996 -49.298302 0.000000
223.040588 393.257996 -49.298302 0.000000
236.523926 393.257996 -49.298302 0.000000
250.007202 393.257996 -49.298302 0.000000
263.490540 393.257996 -49.298302 0.000000
276.973816 393.257996 -49.298302 0.000000
290.457092 393.257996 -49.298302 0.000000
303.940430 393.257996 -49.298302 0.000000
317.423706 393.257996 -49.298302 0.000000
330.907043 393.257996 -49.298302 0.000000
344.390320 393.257996 -49.298302 0.000000
-343.257996 379.774689 -49.298302 0.000000
-329.774689 379.774689 -49.298302 0.000000
-316.291382 379.774689 -49.298302 0.000000
-302.808105 379.774689 -49.298302 0.000000
-289.324799 379.774689 -49.298302 0.000000
-275.841492 379.774689 -49.298302 0.000000
-262.358185 379.774689 -49.298302 0.000000
-248.874893 379.774689 -49.298302 0.000000
-235.391602 379.774689 -49.298302 0.000000
-221.908295 379.774689 -49.298302 0.000000
-208.424988 379.774689 -49.298302 0.000000
-194.941696 379.774689 -49.298302 0.000000
-181.458389 379.774689 -49.298302 0.000000
-167.975098 379.774689 -49.298302 0.000000
-154.491791 379.774689 -49.298302 0.000000
-141.008499 379.774689 -49.298302 0.000000
-127.525192 379.774689 -49.298302 0.000000
-114.041885 379.774689 -49.298302 0.000000
-100.558594 379.774689 -49.298302 0.000000
-87.075287 379.774689 -49.298302 0.000000
-73.591980 379.774689 -49.298302 0.000000
-60.108704 379.774689 -49.298302 0.000000
-46.625397 379.774689 -49.298302 0.000000
-33.142090 379.774689 -49.298302 0.000000
-19.658783 379.774689 -49.298302 0.000000
-6.175476 379.774689 -49.298302 0.000000
7.307800 379.774689 -49.298302 0.000000
20.791107 379.774689 -49.298302 0.000000
34.274414 379.774689 -49.298302 0.000000
47.757721 379.774689 -49.298302 0.000000
61.240997 379.774689 -49.298302 0.000000
74.724304 379.774689 -49.298302 0.000000
88.207611 379.774689 -49.298302 0.000000
101.690918 379.774689 -49.298302 0.000000
115.174225 379.774689 -49.298302 0.000000
128.657501 379.774689 -49.298302 0.000000
142.140808 379.774689 -49.298302 0.000000
155.624115 379.774689 -49.298302 0.000000
169.107422 379.774689 -49.298302 0.000000
182.590698 379.774689 -49.298302 0.000000
196.074036 379.774689 -49.298302 0.000000
209.557312 379.774689 -49.298302 0.000000
223.040588 379.774689 -49.298302 0.000000
236.523926 379.774689 -49.298302 0.000000
250.007202 379.774689 -49.298302 0.000000
263.490540 379.774689 -49.298302 0.000000
276.973816 379.774689 -49.298302 0.000000
290.457092 379.774689 -49.298302 0.000000
303.940430 379.774689 -49.298302 0.000000
317.423706 379.774689 -49.298302 0.000000
330.907043 379.774689 -49.298302 0.000000
344.390320 379.774689 -49.298302 0.000000
-343.257996 366.291382 -49.298302 0.000000
-329.774689 366.291382 -49.298302 0.000000
-316.291382 366.291382 -49.298302 0.000000
-302.808105 366.291382 -49.298302 0.000000
-289.324799 366.291382 -49.298302 0.000000
-275.841492 366.291382 -49.298302 0.000000
-262.358185 366.291382 -49.298302 0.000000
-248.874893 366.291382 -49.298302 0.000000
-235.391602 366.291382 -49.298302 0.000000
-221.908295 366.291382 -49.298302 0.000000
-208.424988 366.291382 -49.298302 0.000000
-194.941696 366.291382 -49.298302 0.000000
-181.458389 366.291382 -49.298302 0.000000
-167.975098 366.291382 -49.298302 0.000000
-154.491791 366.291382 -49.298302 0.000000
-141.008499 366.291382 -49.298302 0.000000
-127.525192 366.291382 -49.298302 0.000000
-114.041885 366.291382 -49.298302 0.000000
-100.558594 366.291382 -49.298302 0.000000
-87.075287 366.291382 -49.298302 0.000000
-73.591980 366.291382 -49.298302 0.000000
-60.108704 366.291382 -49.298302 0.000000
-46.625397 366.291382 -49.298302 0.000000
-33.142090 366.291382 -49.298302 0.000000
-19.658783 366.291382 -49.298302 0.000000
-6.175476 366.291382 -49.298302 0.000000
7.307800 366.291382 -49.298302 0.000000
20.791107 366.291382 -49.298302 0.000000
34.274414 366.291382 -49.298302 0.000000
47.757721 366.291382 -49.298302 0.000000
61.240997 366.291382 -49.298302 0.000000
74.724304 366.291382 -49.298302 0.000000
88.207611 366.291382 -49.298302 0.000000
101.690918 366.291382 -49.298302 0.000000
115.174225 366.291382 -49.298302 0.000000
128.657501 366.291382 -49.298302 0.000000
142.140808 366.291382 -49.298302 0.000000
155.624115 366.291382 -49.298302 0.000000
169.107422 366.291382 -49.298302 0.000000
182.590698 366.291382 -49.298302 0.000000
196.074036 366.291382 -49.298302 0.000000
209.557312 366.291382 -49.298302 0.000000
223.040588 366.291382 -49.298302 0.000000
236.523926 366.291382 -49.298302 0.000000
250.007202 366.291382 -49.298302 0.000000
263.490540 366.291382 -49.298302 0.000000
276.973816 366.291382 -49.298302 0.000000
290.457092 366.291382 -49.298302 0.000000
303.940430 366.291382 -49.298302 0.000000
317.423706 366.291382 -49.298302 0.000000
330.907043 366.291382 -49.298302 0.000000
344.390320 366.291382 -49.298302 0.000000
-343.257996 352.808105 -49.298302 0.000000
-329.774689 352.808105 -49.298302 0.000000
-316.291382 352.808105 -49.298302 0.000000
-302.808105 352.808105 -49.298302 0.000000
-289.324799 352.808105 -49.298302 0.000000
-275.841492 352.808105 -49.298302 0.000000
-262.358185 352.808105 -49.298302 0.000000
-248.874893 352.808105 -49.298302 0.000000
-235.391602 352.808105 -49.298302 0.000000
-221.908295 352.808105 -49.298302 0.000000
-208.424988 352.808105 -49.298302 0.000000
-194.941696 352.808105 -49.298302 0.000000
-181.458389 352.808105 -49.298302 4.886068
-167.975098 352.808105 -49.298302 5.223188
-154.491791 352.808105 -49.298302 5.617398
-141.008499 352.808105 -49.298302 6.290180
-127.525192 352.808105 -49.298302 6.709991
-114.041885 352.808105 -49.298302 7.362111
-100.558594 352.808105 -49.298302 7.489547
-87.075287 352.808105 -49.298302 7.060550
-73.591980 352.808105 -49.298302 6.646690
-60.108704 352.808105 -49.298302 5.567610
-46.625397 352.808105 -49.298302 4.639076
-33.142090 352.808105 -49.298302 3.418442
-19.658783 352.808105 -49.298302 2.393641
-6.175476 352.808105 -49.298302 1.902896
7.307800 352.808105 -49.298302 1.789526
20.791107 352.808105 -49.298302 1.422722
34.274414 352.808105 -49.298302 1.228651
47.757721 352.808105 -49.298302 1.233427
61.240997 352.808105 -49.298302 1.206073
74.724304 352.808105 -49.298302 1.372811
88.207611 352.808105 -49.298302 1.612057
101.690918 352.808105 -49.298302 2.079118
115.174225 352.808105 -49.298302 2.482291
128.657501 352.808105 -49.298302 2.673177
142.140808 352.808105 -49.298302 0.000000
155.624115 352.808105 -49.298302 0.000000
169.107422 352.808105 -49.298302 0.000000
182.590698 352.808105 -49.298302 0.000000
196.074036 352.808105 -49.298302 0.000000
209.557312 352.808105 -49.298302 0.000000
223.040588 352.808105 -49.298302 0.000000
236.523926 352.808105 -49.298302 0.000000
250.007202 352.808105 -49.298302 0.000000
263.490540 352.808105 -49.298302 0.000000
276.973816 352.808105 -49.298302 0.000000
290.457092 352.808105 -49.298302 0.000000
303.940430 352.808105 -49.298302 0.000000
317.423706 352.808105 -49.298302 0.000000
330.907043 352.808105 -49.298302 0.000000
344.390320 352.808105 -49.298302 0.000000
-343.257996 339.324799 -49.298302 0.000000
-329.774689 339.324799 -49.298302 0.000000
-316.291382 339.324799 -49.298302 0.000000
-302.808105 339.324799 -49.298302 0.000000
-289.324799 339.324799 -49.298302 0.000000
-275.841492 339.324799 -49.298302 0.000000
-262.358185 339.324799 -49.298302 2.331752
-248.874893 339.324799 -49.298302 2.387484
-235.391602 339.324799 -49.298302 2.879913
-221.908295 339.324799 -49.298302 3.214607
-208.424988 339.324799 -49.298302 3.678016
-194.941696 339.324799 -49.298302 4.039389
-181.458389 339.324799 -49.298302 4.594430
-167.975098 339.324799 -49.298302 4.879028
-154.491791 339.324799 -49.298302 5.302308
-141.008499 339.324799 -49.298302 6.144047
-127.525192 339.324799 -49.298302 7.214138
-114.041885 339.324799 -49.298302 8.023947
-100.558594 339.324799 -49.298302 8.149267
-87.075287 339.324799 -49.298302 7.334620
-73.591980 339.324799 -49.298302 7.371486
-60.108704 339.324799 -49.298302 6.654157
-46.625397 339.324799 -49.298302 5.477302
-33.142090 339.324799 -49.298302 4.115357
-19.658783 339.324799 -49.298302 2.897510
-6.175476 339.324799 -49.298302 2.219547
7.307800 339.324799 -49.298302 1.933682
20.791107 339.324799 -49.298302 1.553480
34.274414 339.324799 -49.298302 1.472452
47.757721 339.324799 -49.298302 1.393715
61.240997 339.324799 -49.298302 1.471057
74.724304 339.324799 -49.298302 1.656903
88.207611 339.324799 -49.298302 2.033073
101.690918 339.324799 -49.298302 2.613302
115.174225 339.324799 -49.298302 2.958748
128.657501 339.324799 -49.298302 3.502783
142.140808 339.324799 -49.298302 3.332230
155.624115 339.324799 -49.298302 3.768015
169.107422 339.324799 -49.298302 3.969976
182.590698 339.324799 -49.298302 4.110745
196.074036 339.324799 -49.298302 3.696864
209.557312 339.324799 -49.298302 3.776127
223.040588 339.324799 -49.298302 3.682986
236.523926 339.324799 -49.298302 3.483989
250.007202 339.324799 -49.298302 2.922377
263.490540 339.324799 -49.298302 2.944314
276.973816 339.324799 -49.298302 0.000000
290.457092 339.324799 -49.298302 0.000000
303.940430 339.324799 -49.298302 0.000000
317.423706 339.324799 -49.298302 0.000000
330.907043 339.324799 -49.298302 0.000000
344.390320 339.324799 -49.298302 0.000000
-343.257996 325.841492 -49.298302 0.000000
-329.774689 325.841492 -49.298302 0.000000
-316.291382 325.841492 -49.298302 0.000000
-302.808105 325.841492 -49.298302 0.000000
-289.324799 325.841492 -49.298302 1.942248
-275.841492 325.841492 -49.298302 2.034572
-262.358185 325.841492 -49.298302 1.971166
-248.874893 325.841492 -49.298302 2.123731
-235.391602 325.841492 -49.298302 2.693229
-221.908295 325.841492 -49.298302 3.041262
-208.424988 325.841492 -49.298302 3.484510
-194.941696 325.841492 -49.298302 3.907291
-181.458389 325.841492 -49.298302 4.637934
-167.975098 325.841492 -49.298302 5.167361
-154.491791 325.841492 -49.298302 5.456769
-141.008499 325.841492 -49.298302 6.092129
-127.525192 325.841492 -49.298302 7.010594
-114.041885 325.841492 -49.298302 8.133982
-100.558594 325.841492 -49.298302 8.512607
-87.075287 325.841492 -49.298302 8.174344
-73.591980 325.841492 -49.298302 7.904194
-60.108704 325.841492 -49.298302 6.874902
-46.625397 325.841492 -49.298302 5.991464
-33.142090 325.841492 -49.298302 4.827914
-19.658783 325.841492 -49.298302 3.274508
-6.175476 325.841492 -49.298302 2.549758
7.307800 325.841492 -49.298302 2.258986
20.791107 325.841492 -49.298302 1.785073
34.274414 325.841492 -49.298302 1.591070
47.757721 325.841492 -49.298302 1.637805
61.240997 325.841492 -49.298302 1.810733
74.724304 325.841492 -49.298302 2.170108
88.207611 325.841492 -49.298302 2.733883
101.690918 325.841492 -49.298302 3.451302
115.174225 325.841492 -49.298302 3.771565
128.657501 325.841492 -49.298302 4.083462
142.140808 325.841492 -49.298302 4.146734
155.624115 325.841492 -49.298302 4.205370
169.107422 325.841492 -49.298302 4.378255
182.590698 325.841492 -49.298302 3.999389
196.074036 325.841492 -49.298302 3.679373
209.557312 325.841492 -49.298302 3.427607
223.040588 325.841492 -49.298302 3.076663
236.523926 325.841492 -49.298302 2.884839
250.007202 325.841492 -49.298302 2.516798
263.490540 325.841492 -49.298302 2.317499
276.973816 325.841492 -49.298302 2.458856
290.457092 325.841492 -49.298302 0.000000
303.940430 325.841492 -49.298302 0.000000
317.423706 325.841492 -49.298302 0.000000
330.907043 325.841492 -49.298302 0.000000
344.390320 325.841492 -49.298302 0.000000
-343.257996 312.358185 -49.298302 0.000000
-329.774689 312.358185 -49.298302 0.000000
-316.291382 312.358185 -49.298302 0.000000
-302.808105 312.358185 -49.298302 0.000000
-289.324799 312.358185 -49.298302 1.418768
-275.841492 312.358185 -49.298302 1.554755
-262.358185 312.358185 -49.298302 1.681568
-248.874893 312.358185 -49.298302 1.808571
-235.391602 312.358185 -49.298302 2.090838
-221.908295 312.358185 -49.298302 2.649845
-208.424988 312.358185 -49.298302 3.221282
-194.941696 312.358185 -49.298302 3.569277
-181.458389 312.358185 -49.298302 4.288117
-167.975098 312.358185 -49.298302 4.869400
-154.491791 312.358185 -49.298302 5.422100
-141.008499 312.358185 -49.298302 6.320061
-127.525192 312.358185 -49.298302 7.438056
-114.041885 312.358185 -49.298302 8.308165
-100.558594 312.358185 -49.298302 8.251836
-87.075287 312.358185 -49.298302 8.154341
-73.591980 312.358185 -49.298302 8.006350
-60.108704 312.358185 -49.298302 7.288465
-46.625397 312.358185 -49.298302 6.487541
-33.142090 312.358185 -49.298302 5.208500
-19.658783 312.358185 -49.298302 3.749651
-6.175476 312.358185 -49.298302 3.088615
7.307800 312.358185 -49.298302 2.519205
20.791107 312.358185 -49.298302 2.277232
34.274414 312.358185 -49.298302 1.919634
47.757721 312.358185 -49.298302 1.842101
61.240997 312.358185 -49.298302 2.143293
74.724304 312.358185 -49.298302 2.653600
88.207611 312.358185 -49.298302 3.629293
101.690918 312.358185 -49.298302 4.302751
115.174225 312.358185 -49.298302 4.927464
128.657501 312.358185 -49.298302 4.473151
142.140808 312.358185 -49.298302 4.259140
155.624115 312.358185 -49.298302 4.486350
169.107422 312.358185 -49.298302 4.556155
182.590698 312.358185 -49.298302 4.074342
196.074036 312.358185 -49.298302 3.634243
209.557312 312.358185 -49.298302 3.031625
223.040588 312.358185 -49.298302 2.641515
236.523926 312.358185 -49.298302 2.434000
250.007202 312.358185 -49.298302 1.916997
263.490540 312.358185 -49.298302 1.793383
276.973816 312.358185 -49.298302 1.945328
290.457092 312.358185 -49.298302 1.559851
303.940430 312.358185 -49.298302 0.000000
317.423706 312.358185 -49.298302 0.000000
330.907043 312.358185 -49.298302 0.000000
344.390320 312.358185 -49.298302 0.000000
-343.257996 298.874878 -49.298302 0.000000
-329.774689 298.874878 -49.298302 0.000000
-316.291382 298.874878 -49.298302 0.000000
-302.808105 298.874878 -49.298302 0.000000
-289.324799 298.874878 -49.298302 1.051024
-275.841492 298.874878 -49.298302 1.098822
-262.358185 298.874878 -49.298302 1.108546
-248.874893 298.874878 -49.298302 1.210034
-235.391602 298.874878 -49.298302 1.539363
-221.908295 298.874878 -49.298302 2.146974
-208.424988 298.874878 -49.298302 2.905972
-194.941696 298.874878 -49.298302 3.451632
-181.458389 298.874878 -49.298302 4.136029
-167.975098 298.874878 -49.298302 4.594368
-154.491791 298.874878 -49.298302 5.174428
-141.008499 298.874878 -49.298302 5.929296
-127.525192 298.874878 -49.298302 6.888602
-114.041885 298.874878 -49.298302 7.288064
-100.558594 298.874878 -49.298302 7.762465
-87.075287 298.874878 -49.298302 7.527653
-73.591980 298.874878 -49.298302 7.210536
-60.108704 298.874878 -49.298302 7.288512
-46.625397 298.874878 -49.298302 6.845914
-33.142090 298.874878 -49.298302 5.665904
-19.658783 298.874878 -49.298302 4.815753
-6.175476 298.874878 -49.298302 3.614206
7.307800 298.874878 -49.298302 2.999788
20.791107 298.874878 -49.298302 2.592611
34.274414 298.874878 -49.298302 2.358024
47.757721 298.874878 -49.298302 2.115247
61.240997 298.874878 -49.298302 2.457920
74.724304 298.874878 -49.298302 3.642214
88.207611 298.874878 -49.298302 4.901530
101.690918 298.874878 -49.298302 5.824806
115.174225 298.874878 -49.298302 5.572982
128.657501 298.874878 -49.298302 5.316857
142.140808 298.874878 -49.298302 4.819189
155.624115 298.874878 -49.298302 4.528363
169.107422 298.874878 -49.298302 4.338612
182.590698 298.874878 -49.298302 4.055710
196.074036 298.874878 -49.298302 3.199752
209.557312 298.874878 -49.298302 2.739327
223.040588 298.874878 -49.298302 2.311585
236.523926 298.874878 -49.298302 1.894578
250.007202 298.874878 -49.298302 1.595061
263.490540 298.874878 -49.298302 1.446089
276.973816 298.874878 -49.298302 1.336858
290.457092 298.874878 -49.298302 1.180289
303.940430 298.874878 -49.298302 0.000000
317.423706 298.874878 -49.298302 0.000000
330.907043 298.874878 -49.298302 0.000000
344.390320 298.874878 -49.298302 0.000000
-343.257996 285.391602 -49.298302 0.000000
-329.774689 285.391602 -49.298302 0.000000
-316.291382 285.391602 -49.298302 0.000000
-302.808105 285.391602 -49.298302 0.697874
-289.324799 285.391602 -49.298302 0.746600
-275.841492 285.391602 -49.298302 0.839048
-262.358185 285.391602 -49.298302 0.910026
-248.874893 285.391602 -49.298302 1.106347
-235.391602 285.391602 -49.298302 1.460836
-221.908295 285.391602 -49.298302 1.937814
-208.424988 285.391602 -49.298302 2.769757
-194.941696 285.391602 -49.298302 3.571850
-181.458389 285.391602 -49.298302 4.246015
-167.975098 285.391602 -49.298302 4.462466
-154.491791 285.391602 -49.298302 4.730813
-141.008499 285.391602 -49.298302 5.477423
-127.525192 285.391602 -49.298302 6.055562
-114.041885 285.391602 -49.298302 6.294966
-100.558594 285.391602 -49.298302 6.984338
-87.075287 285.391602 -49.298302 6.602427
-73.591980 285.391602 -49.298302 6.225717
-60.108704 285.391602 -49.298302 6.912926
-46.625397 285.391602 -49.298302 6.978586
-33.142090 285.391602 -49.298302 6.271056
-19.658783 285.391602 -49.298302 5.223889
-6.175476 285.391602 -49.298302 4.159459
7.307800 285.391602 -49.298302 3.302821
20.791107 285.391602 -49.298302 3.123024
34.274414 285.391602 -49.298302 2.941530
47.757721 285.391602 -49.298302 2.853558
61.240997 285.391602 -49.298302 3.428355
74.724304 285.391602 -49.298302 4.730435
88.207611 285.391602 -49.298302 6.296044
101.690918 285.391602 -49.298302 6.447300
115.174225 285.391602 -49.298302 6.317039
128.657501 285.391602 -49.298302 5.570974
142.140808 285.391602 -49.298302 5.094950
155.624115 285.391602 -49.298302 4.655407
169.107422 285.391602 -49.298302 4.399356
182.590698 285.391602 -49.298302 3.767924
196.074036 285.391602 -49.298302 3.269441
209.557312 285.391602 -49.298302 2.639345
223.040588 285.391602 -49.298302 2.111281
236.523926 285.391602 -49.298302 1.770753
250.007202 285.391602 -49.298302 1.467195
263.490540 285.391602 -49.298302 1.188275
276.973816 285.391602 -49.298302 0.971359
290.457092 285.391602 -49.298302 0.966715
303.940430 285.391602 -49.298302 0.000000
317.423706 285.391602 -49.298302 0.000000
330.907043 285.391602 -49.298302 0.000000
344.390320 285.391602 -49.298302 0.000000
-343.257996 271.908295 -49.298302 0.000000
-329.774689 271.908295 -49.298302 0.000000
-316.291382 271.908295 -49.298302 0.000000
-302.808105 271.908295 -49.298302 0.580993
-289.324799 271.908295 -49.298302 0.689660
-275.841492 271.908295 -49.298302 0.770176
-262.358185 271.908295 -49.298302 0.813122
-248.874893 271.908295 -49.298302 1.046572
-235.391602 271.908295 -49.298302 1.432364
-221.908295 271.908295 -49.298302 1.865652
-208.424988 271.908295 -49.298302 2.571298
-194.941696 271.908295 -49.298302 3.434126
-181.458389 271.908295 -49.298302 3.959333
-167.975098 271.908295 -49.298302 4.204901
-154.491791 271.908295 -49.298302 4.522584
-141.008499 271.908295 -49.298302 4.997729
-127.525192 271.908295 -49.298302 5.433626
-114.041885 271.908295 -49.298302 5.737242
-100.558594 271.908295 -49.298302 6.104099
-87.075287 271.908295 -49.298302 6.341166
-73.591980 271.908295 -49.298302 6.427158
-60.108704 271.908295 -49.298302 6.359028
-46.625397 271.908295 -49.298302 6.415341
-33.142090 271.908295 -49.298302 6.199472
-19.658783 271.908295 -49.298302 5.859311
-6.175476 271.908295 -49.298302 4.816059
7.307800 271.908295 -49.298302 4.028237
20.791107 271.908295 -49.298302 3.855523
34.274414 271.908295 -49.298302 3.469892
47.757721 271.908295 -49.298302 3.788519
61.240997 271.908295 -49.298302 4.778880
74.724304 271.908295 -49.298302 6.034257
88.207611 271.908295 -49.298302 7.227371
101.690918 271.908295 -49.298302 7.265179
115.174225 271.908295 -49.298302 6.308851
128.657501 271.908295 -49.298302 5.567167
142.140808 271.908295 -49.298302 4.893424
155.624115 271.908295 -49.298302 4.363050
169.107422 271.908295 -49.298302 4.248337
182.590698 271.908295 -49.298302 3.502697
196.074036 271.908295 -49.298302 3.086648
209.557312 271.908295 -49.298302 2.468122
223.040588 271.908295 -49.298302 2.024074
236.523926 271.908295 -49.298302 1.551146
250.007202 271.908295 -49.298302 1.226461
263.490540 271.908295 -49.298302 0.965274
276.973816 271.908295 -49.298302 0.815154
290.457092 271.908295 -49.298302 0.668583
303.940430 271.908295 -49.298302 0.000000
317.423706 271.908295 -49.298302 0.000000
330.907043 271.908295 -49.298302 0.000000
344.390320 271.908295 -49.298302 0.000000
-343.257996 258.424988 -49.298302 0.000000
-329.774689 258.424988 -49.298302 0.000000
-316.291382 258.424988 -49.298302 0.000000
-302.808105 258.424988 -49.298302 0.505589
-289.324799 258.424988 -49.298302 0.602888
-275.841492 258.424988 -49.298302 0.692277
-262.358185 258.424988 -49.298302 0.841883
-248.874893 258.424988 -49.298302 1.054662
-235.391602 258.424988 -49.298302 1.465785
-221.908295 258.424988 -49.298302 1.923782
-208.424988 258.424988 -49.298302 2.513244
-194.941696 258.424988 -49.298302 3.017586
-181.458389 258.424988 -49.298302 3.483725
-167.975098 258.424988 -49.298302 4.043869
-154.491791 258.424988 -49.298302 4.328663
-141.008499 258.424988 -49.298302 4.688036
-127.525192 258.424988 -49.298302 5.139877
-114.041885 258.424988 -49.298302 5.363595
-100.558594 258.424988 -49.298302 6.083169
-87.075287 258.424988 -49.298302 6.271548
-73.591980 258.424988 -49.298302 6.167856
-60.108704 258.424988 -49.298302 5.992239
-46.625397 258.424988 -49.298302 5.869647
-33.142090 258.424988 -49.298302 6.181552
-19.658783 258.424988 -49.298302 5.968493
-6.175476 258.424988 -49.298302 5.524885
7.307800 258.424988 -49.298302 4.750003
20.791107 258.424988 -49.298302 4.467361
34.274414 258.424988 -49.298302 4.548922
47.757721 258.424988 -49.298302 4.737940
61.240997 258.424988 -49.298302 5.675535
74.724304 258.424988 -49.298302 6.844055
88.207611 258.424988 -49.298302 7.907072
101.690918 258.424988 -49.298302 7.351632
115.174225 258.424988 -49.298302 6.465723
128.657501 258.424988 -49.298302 5.817618
142.140808 258.424988 -49.298302 5.131163
155.624115 258.424988 -49.298302 4.298569
169.107422 258.424988 -49.298302 3.948772
182.590698 258.424988 -49.298302 3.421399
196.074036 258.424988 -49.298302 3.095540
209.557312 258.424988 -49.298302 2.564116
223.040588 258.424988 -49.298302 2.027009
236.523926 258.424988 -49.298302 1.509640
250.007202 258.424988 -49.298302 1.160001
263.490540 258.424988 -49.298302 0.939038
276.973816 258.424988 -49.298302 0.632546
290.457092 258.424988 -49.298302 0.551270
303.940430 258.424988 -49.298302 0.000000
317.423706 258.424988 -49.298302 0.000000
330.907043 258.424988 -49.298302 0.000000
344.390320 258.424988 -49.298302 0.000000
-343.257996 244.941696 -49.298302 0.000000
-329.774689 244.941696 -49.298302 0.000000
-316.291382 244.941696 -49.298302 0.000000
-302.808105 244.941696 -49.298302 0.463710
-289.324799 244.941696 -49.298302 0.559202
-275.841492 244.941696 -49.298302 0.671391
-262.358185 244.941696 -49.298302 0.854663
-248.874893 244.941696 -49.298302 1.112730
-235.391602 244.941696 -49.298302 1.365076
-221.908295 244.941696 -49.298302 1.831019
-208.424988 244.941696 -49.298302 2.284285
-194.941696 244.941696 -49.298302 2.929488
-181.458389 244.941696 -49.298302 3.334055
-167.975098 244.941696 -49.298302 3.666601
-154.491791 244.941696 -49.298302 4.168800
-141.008499 244.941696 -49.298302 4.270612
-127.525192 244.941696 -49.298302 4.537945
-114.041885 244.941696 -49.298302 4.820381
-100.558594 244.941696 -49.298302 5.214825
-87.075287 244.941696 -49.298302 5.779144
-73.591980 244.941696 -49.298302 5.552909
-60.108704 244.941696 -49.298302 5.779656
-46.625397 244.941696 -49.298302 5.640638
-33.142090 244.941696 -49.298302 5.689178
-19.658783 244.941696 -49.298302 5.985024
-6.175476 244.941696 -49.298302 5.472880
7.307800 244.941696 -49.298302 5.145855
20.791107 244.941696 -49.298302 4.982487
34.274414 244.941696 -49.298302 5.358122
47.757721 244.941696 -49.298302 5.914210
61.240997 244.941696 -49.298302 6.867110
74.724304 244.941696 -49.298302 7.996634
88.207611 244.941696 -49.298302 7.779100
101.690918 244.941696 -49.298302 7.493641
115.174225 244.941696 -49.298302 6.506952
128.657501 244.941696 -49.298302 5.242127
142.140808 244.941696 -49.298302 4.657638
155.624115 244.941696 -49.298302 3.977541
169.107422 244.941696 -49.298302 4.012799
182.590698 244.941696 -49.298302 3.636104
196.074036 244.941696 -49.298302 3.171372
209.557312 244.941696 -49.298302 2.575272
223.040588 244.941696 -49.298302 2.017361
236.523926 244.941696 -49.298302 1.476673
250.007202 244.941696 -49.298302 1.000595
263.490540 244.941696 -49.298302 0.803888
276.973816 244.941696 -49.298302 0.589028
290.457092 244.941696 -49.298302 0.489620
303.940430 244.941696 -49.298302 0.000000
317.423706 244.941696 -49.298302 0.000000
330.907043 244.941696 -49.298302 0.000000
344.390320 244.941696 -49.298302 0.000000
-343.257996 231.458389 -49.298302 0.000000
-329.774689 231.458389 -49.298302 0.000000
-316.291382 231.458389 -49.298302 0.000000
-302.808105 231.458389 -49.298302 0.478841
-289.324799 231.458389 -49.298302 0.588994
-275.841492 231.458389 -49.298302 0.704306
-262.358185 231.458389 -49.298302 0.930124
-248.874893 231.458389 -49.298302 1.212499
-235.391602 231.458389 -49.298302 1.468269
-221.908295 231.458389 -49.298302 1.789504
-208.424988 231.458389 -49.298302 2.106001
-194.941696 231.458389 -49.298302 2.697216
-181.458389 231.458389 -49.298302 3.134523
-167.975098 231.458389 -49.298302 3.789077
-154.491791 231.458389 -49.298302 4.037241
-141.008499 231.458389 -49.298302 4.409395
-127.525192 231.458389 -49.298302 4.406028
-114.041885 231.458389 -49.298302 4.467963
-100.558594 231.458389 -49.298302 4.857949
-87.075287 231.458389 -49.298302 5.045135
-73.591980 231.458389 -49.298302 5.127808
-60.108704 231.458389 -49.298302 5.251123
-46.625397 231.458389 -49.298302 5.167600
-33.142090 231.458389 -49.298302 5.576255
-19.658783 231.458389 -49.298302 6.087829
-6.175476 231.458389 -49.298302 5.888720
7.307800 231.458389 -49.298302 5.491024
20.791107 231.458389 -49.298302 5.481411
34.274414 231.458389 -49.298302 6.117477
47.757721 231.458389 -49.298302 7.247519
61.240997 231.458389 -49.298302 7.698174
74.724304 231.458389 -49.298302 8.583510
88.207611 231.458389 -49.298302 7.619706
101.690918 231.458389 -49.298302 6.904319
115.174225 231.458389 -49.298302 5.613392
128.657501 231.458389 -49.298302 5.186814
142.140808 231.458389 -49.298302 4.369815
155.624115 231.458389 -49.298302 3.898365
169.107422 231.458389 -49.298302 3.496989
182.590698 231.458389 -49.298302 3.281920
196.074036 231.458389 -49.298302 2.925825
209.557312 231.458389 -49.298302 2.488705
223.040588 231.458389 -49.298302 1.927278
236.523926 231.458389 -49.298302 1.411610
250.007202 231.458389 -49.298302 1.001374
263.490540 231.458389 -49.298302 0.693620
276.973816 231.458389 -49.298302 0.502844
290.457092 231.458389 -49.298302 0.416779
303.940430 231.458389 -49.298302 0.000000
317.423706 231.458389 -49.298302 0.000000
330.907043 231.458389 -49.298302 0.000000
344.390320 231.458389 -49.298302 0.000000
-343.257996 217.975098 -49.298302 0.000000
-329.774689 217.975098 -49.298302 0.000000
-316.291382 217.975098 -49.298302 0.000000
-302.808105 217.975098 -49.298302 0.555771
-289.324799 217.975098 -49.298302 0.614155
-275.841492 217.975098 -49.298302 0.766165
-262.358185 217.975098 -49.298302 1.014072
-248.874893 217.975098 -49.298302 1.318272
-235.391602 217.975098 -49.298302 1.625920
-221.908295 217.975098 -49.298302 1.812810
-208.424988 217.975098 -49.298302 2.067903
-194.941696 217.975098 -49.298302 2.732047
-181.458389 217.975098 -49.298302 3.139880
-167.975098 217.975098 -49.298302 3.619699
-154.491791 217.975098 -49.298302 3.945417
-141.008499 217.975098 -49.298302 4.171639
-127.525192 217.975098 -49.298302 4.159996
-114.041885 217.975098 -49.298302 4.412794
-100.558594 217.975098 -49.298302 4.279084
-87.075287 217.975098 -49.298302 4.491209
-73.591980 217.975098 -49.298302 5.026391
-60.108704 217.975098 -49.298302 4.811910
-46.625397 217.975098 -49.298302 5.386402
-33.142090 217.975098 -49.298302 5.750554
-19.658783 217.975098 -49.298302 6.144923
-6.175476 217.975098 -49.298302 6.039053
7.307800 217.975098 -49.298302 5.563391
20.791107 217.975098 -49.298302 6.129491
34.274414 217.975098 -49.298302 6.655865
47.757721 217.975098 -49.298302 7.290539
61.240997 217.975098 -49.298302 7.858043
74.724304 217.975098 -49.298302 7.865022
88.207611 217.975098 -49.298302 6.593247
101.690918 217.975098 -49.298302 5.498402
115.174225 217.975098 -49.298302 4.880636
128.657501 217.975098 -49.298302 4.275216
142.140808 217.975098 -49.298302 3.657281
155.624115 217.975098 -49.298302 3.269053
169.107422 217.975098 -49.298302 3.061024
182.590698 217.975098 -49.298302 2.898861
196.074036 217.975098 -49.298302 2.545546
209.557312 217.975098 -49.298302 2.227700
223.040588 217.975098 -49.298302 1.789050
236.523926 217.975098 -49.298302 1.257087
250.007202 217.975098 -49.298302 0.902065
263.490540 217.975098 -49.298302 0.647903
276.973816 217.975098 -49.298302 0.463482
290.457092 217.975098 -49.298302 0.410064
303.940430 217.975098 -49.298302 0.000000
317.423706 217.975098 -49.298302 0.000000
330.907043 217.975098 -49.298302 0.000000
344.390320 217.975098 -49.298302 0.000000
-343.257996 204.491791 -49.298302 0.000000
-329.774689 204.491791 -49.298302 0.000000
-316.291382 204.491791 -49.298302 0.000000
-302.808105 204.491791 -49.298302 0.612972
-289.324799 204.491791 -49.298302 0.674558
-275.841492 204.491791 -49.298302 0.787801
-262.358185 204.491791 -49.298302 1.042508
-248.874893 204.491791 -49.298302 1.343874
-235.391602 204.491791 -49.298302 1.654417
-221.908295 204.491791 -49.298302 1.938573
-208.424988 204.491791 -49.298302 2.146736
-194.941696 204.491791 -49.298302 2.840352
-181.458389 204.491791 -49.298302 3.119565
-167.975098 204.491791 -49.298302 3.595675
-154.491791 204.491791 -49.298302 3.795613
-141.008499 204.491791 -49.298302 4.083199
-127.525192 204.491791 -49.298302 4.272787
-114.041885 204.491791 -49.298302 4.182443
-100.558594 204.491791 -49.298302 3.778122
-87.075287 204.491791 -49.298302 3.960200
-73.591980 204.491791 -49.298302 4.453210
-60.108704 204.491791 -49.298302 4.542227
-46.625397 204.491791 -49.298302 5.217385
-33.142090 204.491791 -49.298302 5.552839
-19.658783 204.491791 -49.298302 5.859120
-6.175476 204.491791 -49.298302 5.633221
7.307800 204.491791 -49.298302 5.378321
20.791107 204.491791 -49.298302 6.114770
34.274414 204.491791 -49.298302 7.081833
47.757721 204.491791 -49.298302 7.400274
61.240997 204.491791 -49.298302 7.956968
74.724304 204.491791 -49.298302 6.998221
88.207611 204.491791 -49.298302 5.599085
101.690918 204.491791 -49.298302 4.945198
115.174225 204.491791 -49.298302 4.287508
128.657501 204.491791 -49.298302 3.644868
142.140808 204.491791 -49.298302 3.159083
155.624115 204.491791 -49.298302 2.958214
169.107422 204.491791 -49.298302 2.633235
182.590698 204.491791 -49.298302 2.534349
196.074036 204.491791 -49.298302 2.199904
209.557312 204.491791 -49.298302 1.975400
223.040588 204.491791 -49.298302 1.604897
236.523926 204.491791 -49.298302 1.115023
250.007202 204.491791 -49.298302 0.817556
263.490540 204.491791 -49.298302 0.595950
276.973816 204.491791 -49.298302 0.458679
290.457092 204.491791 -49.298302 0.377619
303.940430 204.491791 -49.298302 0.000000
317.423706 204.491791 -49.298302 0.000000
330.907043 204.491791 -49.298302 0.000000
344.390320 204.491791 -49.298302 0.000000
-343.257996 191.008499 -49.298302 0.000000
-329.774689 191.008499 -49.298302 0.000000
-316.291382 191.008499 -49.298302 0.000000
-302.808105 191.008499 -49.298302 0.650114
-289.324799 191.008499 -49.298302 0.737644
-275.841492 191.008499 -49.298302 0.862711
-262.358185 191.008499 -49.298302 1.041719
-248.874893 191.008499 -49.298302 1.332719
-235.391602 191.008499 -49.298302 1.746468
-221.908295 191.008499 -49.298302 2.106302
-208.424988 191.008499 -49.298302 2.408202
-194.941696 191.008499 -49.298302 2.885724
-181.458389 191.008499 -49.298302 3.190419
-167.975098 191.008499 -49.298302 3.379955
-154.491791 191.008499 -49.298302 3.639014
-141.008499 191.008499 -49.298302 3.869671
-127.525192 191.008499 -49.298302 4.060556
-114.041885 191.008499 -49.298302 4.103808
-100.558594 191.008499 -49.298302 3.815312
-87.075287 191.008499 -49.298302 3.606549
-73.591980 191.008499 -49.298302 4.023346
-60.108704 191.008499 -49.298302 4.559718
-46.625397 191.008499 -49.298302 4.730594
-33.142090 191.008499 -49.298302 5.138178
-19.658783 191.008499 -49.298302 5.624764
-6.175476 191.008499 -49.298302 5.364800
7.307800 191.008499 -49.298302 5.811614
20.791107 191.008499 -49.298302 6.319777
34.274414 191.008499 -49.298302 6.417423
47.757721 191.008499 -49.298302 7.230628
61.240997 191.008499 -49.298302 6.944010
74.724304 191.008499 -49.298302 6.164471
88.207611 191.008499 -49.298302 5.028597
101.690918 191.008499 -49.298302 4.073354
115.174225 191.008499 -49.298302 3.701182
128.657501 191.008499 -49.298302 3.227476
142.140808 191.008499 -49.298302 2.754402
155.624115 191.008499 -49.298302 2.861901
169.107422 191.008499 -49.298302 2.404202
182.590698 191.008499 -49.298302 2.213706
196.074036 191.008499 -49.298302 2.003314
209.557312 191.008499 -49.298302 1.744474
223.040588 191.008499 -49.298302 1.408406
236.523926 191.008499 -49.298302 0.973559
250.007202 191.008499 -49.298302 0.684874
263.490540 191.008499 -49.298302 0.535742
276.973816 191.008499 -49.298302 0.416494
290.457092 191.008499 -49.298302 0.342122
303.940430 191.008499 -49.298302 0.000000
317.423706 191.008499 -49.298302 0.000000
330.907043 191.008499 -49.298302 0.000000
344.390320 191.008499 -49.298302 0.000000
-343.257996 177.525192 -49.298302 0.000000
-329.774689 177.525192 -49.298302 0.000000
-316.291382 177.525192 -49.298302 0.000000
-302.808105 177.525192 -49.298302 0.709158
-289.324799 177.525192 -49.298302 0.810192
-275.841492 177.525192 -49.298302 0.857517
-262.358185 177.525192 -49.298302 1.085789
-248.874893 177.525192 -49.298302 1.400316
-235.391602 177.525192 -49.298302 1.899674
-221.908295 177.525192 -49.298302 2.157923
-208.424988 177.525192 -49.298302 2.612593
-194.941696 177.525192 -49.298302 3.126839
-181.458389 177.525192 -49.298302 3.296799
-167.975098 177.525192 -49.298302 3.327780
-154.491791 177.525192 -49.298302 3.571903
-141.008499 177.525192 -49.298302 3.758135
-127.525192 177.525192 -49.298302 4.038580
-114.041885 177.525192 -49.298302 3.895495
-100.558594 177.525192 -49.298302 3.673362
-87.075287 177.525192 -49.298302 3.651693
-73.591980 177.525192 -49.298302 3.921853
-60.108704 177.525192 -49.298302 4.521675
-46.625397 177.525192 -49.298302 4.790093
-33.142090 177.525192 -49.298302 4.912837
-19.658783 177.525192 -49.298302 4.999377
-6.175476 177.525192 -49.298302 5.146870
7.307800 177.525192 -49.298302 5.868151
20.791107 177.525192 -49.298302 5.895730
34.274414 177.525192 -49.298302 5.943030
47.757721 177.525192 -49.298302 6.143116
61.240997 177.525192 -49.298302 5.815139
74.724304 177.525192 -49.298302 5.234766
88.207611 177.525192 -49.298302 4.314852
101.690918 177.525192 -49.298302 4.003500
115.174225 177.525192 -49.298302 3.470052
128.657501 177.525192 -49.298302 2.902145
142.140808 177.525192 -49.298302 2.461719
155.624115 177.525192 -49.298302 2.394691
169.107422 177.525192 -49.298302 2.183359
182.590698 177.525192 -49.298302 1.951579
196.074036 177.525192 -49.298302 1.735829
209.557312 177.525192 -49.298302 1.437027
223.040588 177.525192 -49.298302 1.157161
236.523926 177.525192 -49.298302 0.815333
250.007202 177.525192 -49.298302 0.595592
263.490540 177.525192 -49.298302 0.454188
276.973816 177.525192 -49.298302 0.348136
290.457092 177.525192 -49.298302 0.293689
303.940430 177.525192 -49.298302 0.000000
317.423706 177.525192 -49.298302 0.000000
330.907043 177.525192 -49.298302 0.000000
344.390320 177.525192 -49.298302 0.000000
-343.257996 164.041885 -49.298302 0.000000
-329.774689 164.041885 -49.298302 0.000000
-316.291382 164.041885 -49.298302 0.000000
-302.808105 164.041885 -49.298302 0.713692
-289.324799 164.041885 -49.298302 0.814522
-275.841492 164.041885 -49.298302 0.936577
-262.358185 164.041885 -49.298302 1.132557
-248.874893 164.041885 -49.298302 1.493979
-235.391602 164.041885 -49.298302 1.849498
-221.908295 164.041885 -49.298302 2.258551
-208.424988 164.041885 -49.298302 2.757343
-194.941696 164.041885 -49.298302 3.580620
-181.458389 164.041885 -49.298302 3.536293
-167.975098 164.041885 -49.298302 3.478925
-154.491791 164.041885 -49.298302 3.838055
-141.008499 164.041885 -49.298302 3.775011
-127.525192 164.041885 -49.298302 3.997049
-114.041885 164.041885 -49.298302 3.978693
-100.558594 164.041885 -49.298302 3.718600
-87.075287 164.041885 -49.298302 3.700637
-73.591980 164.041885 -49.298302 3.861198
-60.108704 164.041885 -49.298302 3.937289
-46.625397 164.041885 -49.298302 4.289064
-33.142090 164.041885 -49.298302 4.496392
-19.658783 164.041885 -49.298302 4.767479
-6.175476 164.041885 -49.298302 4.734661
7.307800 164.041885 -49.298302 5.640435
20.791107 164.041885 -49.298302 5.369040
34.274414 164.041885 -49.298302 5.309551
47.757721 164.041885 -49.298302 5.407103
61.240997 164.041885 -49.298302 5.394905
74.724304 164.041885 -49.298302 4.834069
88.207611 164.041885 -49.298302 4.355381
101.690918 164.041885 -49.298302 3.624964
115.174225 164.041885 -49.298302 3.294685
128.657501 164.041885 -49.298302 2.591193
142.140808 164.041885 -49.298302 2.176770
155.624115 164.041885 -49.298302 1.994566
169.107422 164.041885 -49.298302 2.000953
182.590698 164.041885 -49.298302 1.774719
196.074036 164.041885 -49.298302 1.540976
209.557312 164.041885 -49.298302 1.315061
223.040588 164.041885 -49.298302 1.012936
236.523926 164.041885 -49.298302 0.745064
250.007202 164.041885 -49.298302 0.510704
263.490540 164.041885 -49.298302 0.403227
276.973816 164.041885 -49.298302 0.291726
290.457092 164.041885 -49.298302 0.231418
303.940430 164.041885 -49.298302 0.000000
317.423706 164.041885 -49.298302 0.000000
330.907043 164.041885 -49.298302 0.000000
344.390320 164.041885 -49.298302 0.000000
-343.257996 150.558594 -49.298302 0.000000
-329.774689 150.558594 -49.298302 0.000000
-316.291382 150.558594 -49.298302 0.000000
-302.808105 150.558594 -49.298302 0.857434
-289.324799 150.558594 -49.298302 0.949012
-275.841492 150.558594 -49.298302 1.092101
-262.358185 150.558594 -49.298302 1.391008
-248.874893 150.558594 -49.298302 1.708386
-235.391602 150.558594 -49.298302 2.052593
-221.908295 150.558594 -49.298302 2.532097
-208.424988 150.558594 -49.298302 3.191295
-194.941696 150.558594 -49.298302 3.767572
-181.458389 150.558594 -49.298302 4.091089
-167.975098 150.558594 -49.298302 3.853384
-154.491791 150.558594 -49.298302 4.248511
-141.008499 150.558594 -49.298302 4.212918
-127.525192 150.558594 -49.298302 3.962994
-114.041885 150.558594 -49.298302 3.804052
-100.558594 150.558594 -49.298302 3.815085
-87.075287 150.558594 -49.298302 3.996590
-73.591980 150.558594 -49.298302 4.035887
-60.108704 150.558594 -49.298302 4.178743
-46.625397 150.558594 -49.298302 4.453326
-33.142090 150.558594 -49.298302 4.330497
-19.658783 150.558594 -49.298302 4.500674
-6.175476 150.558594 -49.298302 4.319509
7.307800 150.558594 -49.298302 5.424826
20.791107 150.558594 -49.298302 5.554414
34.274414 150.558594 -49.298302 5.431021
47.757721 150.558594 -49.298302 5.624880
61.240997 150.558594 -49.298302 5.670483
74.724304 150.558594 -49.298302 5.131194
88.207611 150.558594 -49.298302 4.251746
101.690918 150.558594 -49.298302 3.548157
115.174225 150.558594 -49.298302 3.061494
128.657501 150.558594 -49.298302 2.492123
142.140808 150.558594 -49.298302 2.287440
155.624115 150.558594 -49.298302 1.966992
169.107422 150.558594 -49.298302 1.851551
182.590698 150.558594 -49.298302 1.677893
196.074036 150.558594 -49.298302 1.357333
209.557312 150.558594 -49.298302 1.090727
223.040588 150.558594 -49.298302 0.891774
236.523926 150.558594 -49.298302 0.684178
250.007202 150.558594 -49.298302 0.472005
263.490540 150.558594 -49.298302 0.338439
276.973816 150.558594 -49.298302 0.260490
290.457092 150.558594 -49.298302 0.214004
303.940430 150.558594 -49.298302 0.000000
317.423706 150.558594 -49.298302 0.000000
330.907043 150.558594 -49.298302 0.000000
344.390320 150.558594 -49.298302 0.000000
-343.257996 137.075287 -49.298302 0.000000
-329.774689 137.075287 -49.298302 0.000000
-316.291382 137.075287 -49.298302 0.000000
-302.808105 137.075287 -49.298302 1.009610
-289.324799 137.075287 -49.298302 1.079885
-275.841492 137.075287 -49.298302 1.175108
-262.358185 137.075287 -49.298302 1.548988
-248.874893 137.075287 -49.298302 1.759359
-235.391602 137.075287 -49.298302 2.183826
-221.908295 137.075287 -49.298302 2.713642
-208.424988 137.075287 -49.298302 3.420434
-194.941696 137.075287 -49.298302 3.857503
-181.458389 137.075287 -49.298302 4.238818
-167.975098 137.075287 -49.298302 4.525751
-154.491791 137.075287 -49.298302 4.439270
-141.008499 137.075287 -49.298302 4.306360
-127.525192 137.075287 -49.298302 3.947271
-114.041885 137.075287 -49.298302 3.686125
-100.558594 137.075287 -49.298302 3.813321
-87.075287 137.075287 -49.298302 4.231330
-73.591980 137.075287 -49.298302 4.150526
-60.108704 137.075287 -49.298302 4.557278
-46.625397 137.075287 -49.298302 4.321897
-33.142090 137.075287 -49.298302 4.321125
-19.658783 137.075287 -49.298302 4.394732
-6.175476 137.075287 -49.298302 4.611326
7.307800 137.075287 -49.298302 5.168080
20.791107 137.075287 -49.298302 5.306773
34.274414 137.075287 -49.298302 6.084715
47.757721 137.075287 -49.298302 6.322859
61.240997 137.075287 -49.298302 5.698812
74.724304 137.075287 -49.298302 4.992399
88.207611 137.075287 -49.298302 4.158453
101.690918 137.075287 -49.298302 3.655761
115.174225 137.075287 -49.298302 3.018456
128.657501 137.075287 -49.298302 2.562246
142.140808 137.075287 -49.298302 2.335491
155.624115 137.075287 -49.298302 2.037980
169.107422 137.075287 -49.298302 1.855439
182.590698 137.075287 -49.298302 1.555430
196.074036 137.075287 -49.298302 1.241171
209.557312 137.075287 -49.298302 1.015340
223.040588 137.075287 -49.298302 0.773769
236.523926 137.075287 -49.298302 0.586298
250.007202 137.075287 -49.298302 0.427998
263.490540 137.075287 -49.298302 0.306381
276.973816 137.075287 -49.298302 0.232736
290.457092 137.075287 -49.298302 0.195288
303.940430 137.075287 -49.298302 0.000000
317.423706 137.075287 -49.298302 0.000000
330.907043 137.075287 -49.298302 0.000000
344.390320 137.075287 -49.298302 0.000000
-343.257996 123.591980 -49.298302 0.000000
-329.774689 123.591980 -49.298302 0.000000
-316.291382 123.591980 -49.298302 0.000000
-302.808105 123.591980 -49.298302 0.000000
-289.324799 123.591980 -49.298302 1.310253
-275.841492 123.591980 -49.298302 1.352695
-262.358185 123.591980 -49.298302 1.718388
-248.874893 123.591980 -49.298302 2.034889
-235.391602 123.591980 -49.298302 2.391265
-221.908295 123.591980 -49.298302 2.978762
-208.424988 123.591980 -49.298302 3.535745
-194.941696 123.591980 -49.298302 4.195324
-181.458389 123.591980 -49.298302 4.346716
-167.975098 123.591980 -49.298302 4.357814
-154.491791 123.591980 -49.298302 4.636770
-141.008499 123.591980 -49.298302 4.672678
-127.525192 123.591980 -49.298302 3.946591
-114.041885 123.591980 -49.298302 3.968313
-100.558594 123.591980 -49.298302 3.982075
-87.075287 123.591980 -49.298302 4.093199
-73.591980 123.591980 -49.298302 4.435604
-60.108704 123.591980 -49.298302 4.927642
-46.625397 123.591980 -49.298302 4.687216
-33.142090 123.591980 -49.298302 4.469272
-19.658783 123.591980 -49.298302 4.476003
-6.175476 123.591980 -49.298302 4.566120
7.307800 123.591980 -49.298302 5.180586
20.791107 123.591980 -49.298302 5.835882
34.274414 123.591980 -49.298302 5.904856
47.757721 123.591980 -49.298302 6.481424
61.240997 123.591980 -49.298302 6.425868
74.724304 123.591980 -49.298302 5.582408
88.207611 123.591980 -49.298302 4.057118
101.690918 123.591980 -49.298302 3.659852
115.174225 123.591980 -49.298302 3.062150
128.657501 123.591980 -49.298302 2.714825
142.140808 123.591980 -49.298302 2.468531
155.624115 123.591980 -49.298302 2.189215
169.107422 123.591980 -49.298302 1.826447
182.590698 123.591980 -49.298302 1.468095
196.074036 123.591980 -49.298302 1.169800
209.557312 123.591980 -49.298302 0.924991
223.040588 123.591980 -49.298302 0.713353
236.523926 123.591980 -49.298302 0.576432
250.007202 123.591980 -49.298302 0.412419
263.490540 123.591980 -49.298302 0.295197
276.973816 123.591980 -49.298302 0.224622
290.457092 123.591980 -49.298302 0.197248
303.940430 123.591980 -49.298302 0.000000
317.423706 123.591980 -49.298302 0.000000
330.907043 123.591980 -49.298302 0.000000
344.390320 123.591980 -49.298302 0.000000
-343.257996 110.108704 -49.298302 0.000000
-329.774689 110.108704 -49.298302 0.000000
-316.291382 110.108704 -49.298302 0.000000
-302.808105 110.108704 -49.298302 0.000000
-289.324799 110.108704 -49.298302 1.573004
-275.841492 110.108704 -49.298302 1.696326
-262.358185 110.108704 -49.298302 2.203046
-248.874893 110.108704 -49.298302 2.316849
-235.391602 110.108704 -49.298302 2.596282
-221.908295 110.108704 -49.298302 2.840149
-208.424988 110.108704 -49.298302 3.674582
-194.941696 110.108704 -49.298302 4.136788
-181.458389 110.108704 -49.298302 4.615157
-167.975098 110.108704 -49.298302 4.689984
-154.491791 110.108704 -49.298302 5.345781
-141.008499 110.108704 -49.298302 5.029678
-127.525192 110.108704 -49.298302 4.337729
-114.041885 110.108704 -49.298302 4.373676
-100.558594 110.108704 -49.298302 4.296629
-87.075287 110.108704 -49.298302 4.443346
-73.591980 110.108704 -49.298302 4.913778
-60.108704 110.108704 -49.298302 5.327187
-46.625397 110.108704 -49.298302 4.966491
-33.142090 110.108704 -49.298302 4.579515
-19.658783 110.108704 -49.298302 4.250418
-6.175476 110.108704 -49.298302 4.812720
7.307800 110.108704 -49.298302 5.234800
20.791107 110.108704 -49.298302 5.626919
34.274414 110.108704 -49.298302 6.350297
47.757721 110.108704 -49.298302 6.923419
61.240997 110.108704 -49.298302 6.671367
74.724304 110.108704 -49.298302 5.738778
88.207611 110.108704 -49.298302 4.359787
101.690918 110.108704 -49.298302 3.833078
115.174225 110.108704 -49.298302 3.259131
128.657501 110.108704 -49.298302 2.873158
142.140808 110.108704 -49.298302 2.566194
155.624115 110.108704 -49.298302 2.142773
169.107422 110.108704 -49.298302 1.807703
182.590698 110.108704 -49.298302 1.507748
196.074036 110.108704 -49.298302 1.176423
209.557312 110.108704 -49.298302 0.902657
223.040588 110.108704 -49.298302 0.699898
236.523926 110.108704 -49.298302 0.525394
250.007202 110.108704 -49.298302 0.373202
263.490540 110.108704 -49.298302 0.283974
276.973816 110.108704 -49.298302 0.227779
290.457092 110.108704 -49.298302 0.200871
303.940430 110.108704 -49.298302 0.000000
317.423706 110.108704 -49.298302 0.000000
330.907043 110.108704 -49.298302 0.000000
344.390320 110.108704 -49.298302 0.000000
-343.257996 96.625397 -49.298302 0.000000
-329.774689 96.625397 -49.298302 0.000000
-316.291382 96.625397 -49.298302 0.000000
-302.808105 96.625397 -49.298302 0.000000
-289.324799 96.625397 -49.298302 1.878462
-275.841492 96.625397 -49.298302 2.044566
-262.358185 96.625397 -49.298302 2.387235
-248.874893 96.625397 -49.298302 2.524820
-235.391602 96.625397 -49.298302 2.778482
-221.908295 96.625397 -49.298302 2.991587
-208.424988 96.625397 -49.298302 3.445654
-194.941696 96.625397 -49.298302 4.114268
-181.458389 96.625397 -49.298302 4.290702
-167.975098 96.625397 -49.298302 4.673593
-154.491791 96.625397 -49.298302 5.106387
-141.008499 96.625397 -49.298302 5.031898
-127.525192 96.625397 -49.298302 4.684355
-114.041885 96.625397 -49.298302 4.576122
-100.558594 96.625397 -49.298302 4.856164
-87.075287 96.625397 -49.298302 5.096192
-73.591980 96.625397 -49.298302 5.527903
-60.108704 96.625397 -49.298302 5.552408
-46.625397 96.625397 -49.298302 5.053635
-33.142090 96.625397 -49.298302 4.544497
-19.658783 96.625397 -49.298302 4.523597
-6.175476 96.625397 -49.298302 4.527069
7.307800 96.625397 -49.298302 4.733216
20.791107 96.625397 -49.298302 5.597760
34.274414 96.625397 -49.298302 7.144697
47.757721 96.625397 -49.298302 7.243203
61.240997 96.625397 -49.298302 6.648643
74.724304 96.625397 -49.298302 5.625977
88.207611 96.625397 -49.298302 4.512888
101.690918 96.625397 -49.298302 3.897612
115.174225 96.625397 -49.298302 3.517785
128.657501 96.625397 -49.298302 2.907611
142.140808 96.625397 -49.298302 2.617632
155.624115 96.625397 -49.298302 2.214468
169.107422 96.625397 -49.298302 2.017526
182.590698 96.625397 -49.298302 1.619070
196.074036 96.625397 -49.298302 1.254968
209.557312 96.625397 -49.298302 0.955020
223.040588 96.625397 -49.298302 0.691613
236.523926 96.625397 -49.298302 0.533173
250.007202 96.625397 -49.298302 0.362914
263.490540 96.625397 -49.298302 0.278795
276.973816 96.625397 -49.298302 0.236488
290.457092 96.625397 -49.298302 0.195230
303.940430 96.625397 -49.298302 0.000000
317.423706 96.625397 -49.298302 0.000000
330.907043 96.625397 -49.298302 0.000000
344.390320 96.625397 -49.298302 0.000000
-343.257996 83.142090 -49.298302 0.000000
-329.774689 83.142090 -49.298302 0.000000
-316.291382 83.142090 -49.298302 0.000000
-302.808105 83.142090 -49.298302 0.000000
-289.324799 83.142090 -49.298302 2.076662
-275.841492 83.142090 -49.298302 2.135958
-262.358185 83.142090 -49.298302 2.267179
-248.874893 83.142090 -49.298302 2.572474
-235.391602 83.142090 -49.298302 2.748043
-221.908295 83.142090 -49.298302 2.991877
-208.424988 83.142090 -49.298302 3.308003
-194.941696 83.142090 -49.298302 3.879757
-181.458389 83.142090 -49.298302 4.413417
-167.975098 83.142090 -49.298302 4.571762
-154.491791 83.142090 -49.298302 4.755382
-141.008499 83.142090 -49.298302 4.873988
-127.525192 83.142090 -49.298302 4.940488
-114.041885 83.142090 -49.298302 4.898131
-100.558594 83.142090 -49.298302 5.645579
-87.075287 83.142090 -49.298302 5.868226
-73.591980 83.142090 -49.298302 5.822217
-60.108704 83.142090 -49.298302 5.209841
-46.625397 83.142090 -49.298302 4.738787
-33.142090 83.142090 -49.298302 4.581012
-19.658783 83.142090 -49.298302 4.331656
-6.175476 83.142090 -49.298302 4.173488
7.307800 83.142090 -49.298302 4.659037
20.791107 83.142090 -49.298302 5.844378
34.274414 83.142090 -49.298302 6.742335
47.757721 83.142090 -49.298302 6.782999
61.240997 83.142090 -49.298302 6.013220
74.724304 83.142090 -49.298302 5.005857
88.207611 83.142090 -49.298302 4.423512
101.690918 83.142090 -49.298302 3.694277
115.174225 83.142090 -49.298302 3.533890
128.657501 83.142090 -49.298302 2.806046
142.140808 83.142090 -49.298302 2.548418
155.624115 83.142090 -49.298302 2.263985
169.107422 83.142090 -49.298302 2.092289
182.590698 83.142090 -49.298302 1.795507
196.074036 83.142090 -49.298302 1.367025
209.557312 83.142090 -49.298302 1.023551
223.040588 83.142090 -49.298302 0.750329
236.523926 83.142090 -49.298302 0.550054
250.007202 83.142090 -49.298302 0.384918
263.490540 83.142090 -49.298302 0.298182
276.973816 83.142090 -49.298302 0.246781
290.457092 83.142090 -49.298302 0.204267
303.940430 83.142090 -49.298302 0.000000
317.423706 83.142090 -49.298302 0.000000
330.907043 83.142090 -49.298302 0.000000
344.390320 83.142090 -49.298302 0.000000
-343.257996 69.658783 -49.298302 0.000000
-329.774689 69.658783 -49.298302 0.000000
-316.291382 69.658783 -49.298302 0.000000
-302.808105 69.658783 -49.298302 0.000000
-289.324799 69.658783 -49.298302 1.943135
-275.841492 69.658783 -49.298302 2.060750
-262.358185 69.658783 -49.298302 2.083018
-248.874893 69.658783 -49.298302 2.157595
-235.391602 69.658783 -49.298302 2.490870
-221.908295 69.658783 -49.298302 2.857195
-208.424988 69.658783 -49.298302 3.348064
-194.941696 69.658783 -49.298302 3.831009
-181.458389 69.658783 -49.298302 3.918024
-167.975098 69.658783 -49.298302 4.093909
-154.491791 69.658783 -49.298302 4.615872
-141.008499 69.658783 -49.298302 4.820217
-127.525192 69.658783 -49.298302 5.137935
-114.041885 69.658783 -49.298302 4.902133
-100.558594 69.658783 -49.298302 5.504097
-87.075287 69.658783 -49.298302 6.079156
-73.591980 69.658783 -49.298302 6.018525
-60.108704 69.658783 -49.298302 5.495473
-46.625397 69.658783 -49.298302 4.889713
-33.142090 69.658783 -49.298302 4.306479
-19.658783 69.658783 -49.298302 4.433619
-6.175476 69.658783 -49.298302 4.302017
7.307800 69.658783 -49.298302 4.837702
20.791107 69.658783 -49.298302 5.864658
34.274414 69.658783 -49.298302 6.165120
47.757721 69.658783 -49.298302 6.354686
61.240997 69.658783 -49.298302 5.369997
74.724304 69.658783 -49.298302 4.439195
88.207611 69.658783 -49.298302 4.021160
101.690918 69.658783 -49.298302 3.513713
115.174225 69.658783 -49.298302 3.264047
128.657501 69.658783 -49.298302 2.580532
142.140808 69.658783 -49.298302 2.330485
155.624115 69.658783 -49.298302 2.267873
169.107422 69.658783 -49.298302 2.065841
182.590698 69.658783 -49.298302 1.659209
196.074036 69.658783 -49.298302 1.327422
209.557312 69.658783 -49.298302 1.048733
223.040588 69.658783 -49.298302 0.768463
236.523926 69.658783 -49.298302 0.614052
250.007202 69.658783 -49.298302 0.435364
263.490540 69.658783 -49.298302 0.320775
276.973816 69.658783 -49.298302 0.260441
290.457092 69.658783 -49.298302 0.240304
303.940430 69.658783 -49.298302 0.000000
317.423706 69.658783 -49.298302 0.000000
330.907043 69.658783 -49.298302 0.000000
344.390320 69.658783 -49.298302 0.000000
-343.257996 56.175476 -49.298302 0.000000
-329.774689 56.175476 -49.298302 0.000000
-316.291382 56.175476 -49.298302 0.000000
-302.808105 56.175476 -49.298302 0.000000
-289.324799 56.175476 -49.298302 1.620179
-275.841492 56.175476 -49.298302 1.737364
-262.358185 56.175476 -49.298302 1.825902
-248.874893 56.175476 -49.298302 1.771290
-235.391602 56.175476 -49.298302 2.173868
-221.908295 56.175476 -49.298302 2.552638
-208.424988 56.175476 -49.298302 2.857419
-194.941696 56.175476 -49.298302 3.665301
-181.458389 56.175476 -49.298302 3.722573
-167.975098 56.175476 -49.298302 3.945207
-154.491791 56.175476 -49.298302 4.678216
-141.008499 56.175476 -49.298302 5.181656
-127.525192 56.175476 -49.298302 4.969367
-114.041885 56.175476 -49.298302 5.285717
-100.558594 56.175476 -49.298302 5.929984
-87.075287 56.175476 -49.298302 6.544286
-73.591980 56.175476 -49.298302 6.186872
-60.108704 56.175476 -49.298302 5.701835
-46.625397 56.175476 -49.298302 5.268221
-33.142090 56.175476 -49.298302 4.643314
-19.658783 56.175476 -49.298302 4.577936
-6.175476 56.175476 -49.298302 4.609667
7.307800 56.175476 -49.298302 4.823720
20.791107 56.175476 -49.298302 5.298428
34.274414 56.175476 -49.298302 5.915482
47.757721 56.175476 -49.298302 5.758647
61.240997 56.175476 -49.298302 4.572481
74.724304 56.175476 -49.298302 4.103421
88.207611 56.175476 -49.298302 3.776599
101.690918 56.175476 -49.298302 3.455163
115.174225 56.175476 -49.298302 3.046607
128.657501 56.175476 -49.298302 2.557952
142.140808 56.175476 -49.298302 2.082717
155.624115 56.175476 -49.298302 1.920842
169.107422 56.175476 -49.298302 1.813071
182.590698 56.175476 -49.298302 1.598860
196.074036 56.175476 -49.298302 1.333382
209.557312 56.175476 -49.298302 1.091209
223.040588 56.175476 -49.298302 0.845729
236.523926 56.175476 -49.298302 0.626030
250.007202 56.175476 -49.298302 0.449389
263.490540 56.175476 -49.298302 0.319626
276.973816 56.175476 -49.298302 0.269181
290.457092 56.175476 -49.298302 0.290572
303.940430 56.175476 -49.298302 0.000000
317.423706 56.175476 -49.298302 0.000000
330.907043 56.175476 -49.298302 0.000000
344.390320 56.175476 -49.298302 0.000000
-343.257996 42.692200 -49.298302 0.000000
-329.774689 42.692200 -49.298302 0.000000
-316.291382 42.692200 -49.298302 0.000000
-302.808105 42.692200 -49.298302 0.000000
-289.324799 42.692200 -49.298302 1.257023
-275.841492 42.692200 -49.298302 1.376719
-262.358185 42.692200 -49.298302 1.443963
-248.874893 42.692200 -49.298302 1.614901
-235.391602 42.692200 -49.298302 1.877817
-221.908295 42.692200 -49.298302 2.322201
-208.424988 42.692200 -49.298302 2.545763
-194.941696 42.692200 -49.298302 3.166413
-181.458389 42.692200 -49.298302 3.558026
-167.975098 42.692200 -49.298302 4.213489
-154.491791 42.692200 -49.298302 4.811205
-141.008499 42.692200 -49.298302 5.425553
-127.525192 42.692200 -49.298302 5.828841
-114.041885 42.692200 -49.298302 5.872061
-100.558594 42.692200 -49.298302 5.876378
-87.075287 42.692200 -49.298302 6.954172
-73.591980 42.692200 -49.298302 6.896452
-60.108704 42.692200 -49.298302 5.987901
-46.625397 42.692200 -49.298302 5.279259
-33.142090 42.692200 -49.298302 4.727785
-19.658783 42.692200 -49.298302 4.641483
-6.175476 42.692200 -49.298302 4.850022
7.307800 42.692200 -49.298302 5.093193
20.791107 42.692200 -49.298302 5.417918
34.274414 42.692200 -49.298302 5.562227
47.757721 42.692200 -49.298302 5.266135
61.240997 42.692200 -49.298302 4.680414
74.724304 42.692200 -49.298302 4.202429
88.207611 42.692200 -49.298302 3.821617
101.690918 42.692200 -49.298302 3.642086
115.174225 42.692200 -49.298302 3.114665
128.657501 42.692200 -49.298302 2.721467
142.140808 42.692200 -49.298302 2.298949
155.624115 42.692200 -49.298302 1.859251
169.107422 42.692200 -49.298302 1.748974
182.590698 42.692200 -49.298302 1.528261
196.074036 42.692200 -49.298302 1.241449
209.557312 42.692200 -49.298302 1.008991
223.040588 42.692200 -49.298302 0.802819
236.523926 42.692200 -49.298302 0.635110
250.007202 42.692200 -49.298302 0.377703
263.490540 42.692200 -49.298302 0.338245
276.973816 42.692200 -49.298302 0.302025
290.457092 42.692200 -49.298302 0.301839
303.940430 42.692200 -49.298302 0.000000
317.423706 42.692200 -49.298302 0.000000
330.907043 42.692200 -49.298302 0.000000
344.390320 42.692200 -49.298302 0.000000
-343.257996 29.208893 -49.298302 0.000000
-329.774689 29.208893 -49.298302 0.000000
-316.291382 29.208893 -49.298302 0.000000
-302.808105 29.208893 -49.298302 0.000000
-289.324799 29.208893 -49.298302 0.978319
-275.841492 29.208893 -49.298302 1.083018
-262.358185 29.208893 -49.298302 1.274375
-248.874893 29.208893 -49.298302 1.444185
-235.391602 29.208893 -49.298302 1.682304
-221.908295 29.208893 -49.298302 2.119901
-208.424988 29.208893 -49.298302 2.437607
-194.941696 29.208893 -49.298302 2.870143
-181.458389 29.208893 -49.298302 3.669635
-167.975098 29.208893 -49.298302 4.537692
-154.491791 29.208893 -49.298302 5.425556
-141.008499 29.208893 -49.298302 5.547481
-127.525192 29.208893 -49.298302 6.421887
-114.041885 29.208893 -49.298302 6.176229
-100.558594 29.208893 -49.298302 7.025517
-87.075287 29.208893 -49.298302 7.353995
-73.591980 29.208893 -49.298302 7.557948
-60.108704 29.208893 -49.298302 6.908884
-46.625397 29.208893 -49.298302 5.927924
-33.142090 29.208893 -49.298302 5.069146
-19.658783 29.208893 -49.298302 4.886448
-6.175476 29.208893 -49.298302 5.029746
7.307800 29.208893 -49.298302 4.773792
20.791107 29.208893 -49.298302 5.320082
34.274414 29.208893 -49.298302 5.587467
47.757721 29.208893 -49.298302 5.060603
61.240997 29.208893 -49.298302 4.674840
74.724304 29.208893 -49.298302 4.313844
88.207611 29.208893 -49.298302 4.020957
101.690918 29.208893 -49.298302 3.536589
115.174225 29.208893 -49.298302 3.133069
128.657501 29.208893 -49.298302 2.762473
142.140808 29.208893 -49.298302 2.377607
155.624115 29.208893 -49.298302 1.941686
169.107422 29.208893 -49.298302 1.700001
182.590698 29.208893 -49.298302 1.411944
196.074036 29.208893 -49.298302 1.158924
209.557312 29.208893 -49.298302 1.040586
223.040588 29.208893 -49.298302 0.889016
236.523926 29.208893 -49.298302 0.573710
250.007202 29.208893 -49.298302 0.403400
263.490540 29.208893 -49.298302 0.363848
276.973816 29.208893 -49.298302 0.271143
290.457092 29.208893 -49.298302 0.297288
303.940430 29.208893 -49.298302 0.000000
317.423706 29.208893 -49.298302 0.000000
330.907043 29.208893 -49.298302 0.000000
344.390320 29.208893 -49.298302 0.000000
-343.257996 15.725586 -49.298302 0.000000
-329.774689 15.725586 -49.298302 0.000000
-316.291382 15.725586 -49.298302 0.000000
-302.808105 15.725586 -49.298302 0.000000
-289.324799 15.725586 -49.298302 0.830927
-275.841492 15.725586 -49.298302 0.873858
-262.358185 15.725586 -49.298302 1.050831
-248.874893 15.725586 -49.298302 1.463686
-235.391602 15.725586 -49.298302 1.611082
-221.908295 15.725586 -49.298302 1.783563
-208.424988 15.725586 -49.298302 2.425216
-194.941696 15.725586 -49.298302 2.954115
-181.458389 15.725586 -49.298302 3.637362
-167.975098 15.725586 -49.298302 4.843129
-154.491791 15.725586 -49.298302 5.657032
-141.008499 15.725586 -49.298302 6.005124
-127.525192 15.725586 -49.298302 6.574089
-114.041885 15.725586 -49.298302 7.374210
-100.558594 15.725586 -49.298302 7.275139
-87.075287 15.725586 -49.298302 7.795229
-73.591980 15.725586 -49.298302 7.922642
-60.108704 15.725586 -49.298302 7.390006
-46.625397 15.725586 -49.298302 6.708721
-33.142090 15.725586 -49.298302 5.708672
-19.658783 15.725586 -49.298302 5.310401
-6.175476 15.725586 -49.298302 5.444548
7.307800 15.725586 -49.298302 5.523681
20.791107 15.725586 -49.298302 5.755189
34.274414 15.725586 -49.298302 5.609377
47.757721 15.725586 -49.298302 5.291447
61.240997 15.725586 -49.298302 5.136934
74.724304 15.725586 -49.298302 4.659580
88.207611 15.725586 -49.298302 4.177758
101.690918 15.725586 -49.298302 3.793422
115.174225 15.725586 -49.298302 3.252255
128.657501 15.725586 -49.298302 2.619695
142.140808 15.725586 -49.298302 2.317101
155.624115 15.725586 -49.298302 2.015487
169.107422 15.725586 -49.298302 1.661584
182.590698 15.725586 -49.298302 1.322168
196.074036 15.725586 -49.298302 1.137071
209.557312 15.725586 -49.298302 0.992506
223.040588 15.725586 -49.298302 0.755482
236.523926 15.725586 -49.298302 0.567175
250.007202 15.725586 -49.298302 0.455963
263.490540 15.725586 -49.298302 0.368003
276.973816 15.725586 -49.298302 0.308391
290.457092 15.725586 -49.298302 0.329163
303.940430 15.725586 -49.298302 0.000000
317.423706 15.725586 -49.298302 0.000000
330.907043 15.725586 -49.298302 0.000000
344.390320 15.725586 -49.298302 0.000000
-343.257996 2.242279 -49.298302 0.000000
-329.774689 2.242279 -49.298302 0.000000
-316.291382 2.242279 -49.298302 0.000000
-302.808105 2.242279 -49.298302 0.000000
-289.324799 2.242279 -49.298302 0.926005
-275.841492 2.242279 -49.298302 0.702833
-262.358185 2.242279 -49.298302 0.938552
-248.874893 2.242279 -49.298302 1.202884
-235.391602 2.242279 -49.298302 1.507980
-221.908295 2.242279 -49.298302 1.800352
-208.424988 2.242279 -49.298302 2.222446
-194.941696 2.242279 -49.298302 2.870628
-181.458389 2.242279 -49.298302 3.554407
-167.975098 2.242279 -49.298302 4.530184
-154.491791 2.242279 -49.298302 5.320958
-141.008499 2.242279 -49.298302 6.083107
-127.525192 2.242279 -49.298302 6.593545
-114.041885 2.242279 -49.298302 7.228405
-100.558594 2.242279 -49.298302 7.639071
-87.075287 2.242279 -49.298302 7.916578
-73.591980 2.242279 -49.298302 7.827959
-60.108704 2.242279 -49.298302 7.710861
-46.625397 2.242279 -49.298302 6.771082
-33.142090 2.242279 -49.298302 5.736470
-19.658783 2.242279 -49.298302 5.384152
-6.175476 2.242279 -49.298302 5.990678
7.307800 2.242279 -49.298302 6.036830
20.791107 2.242279 -49.298302 6.337095
34.274414 2.242279 -49.298302 6.094382
47.757721 2.242279 -49.298302 5.504412
61.240997 2.242279 -49.298302 5.056944
74.724304 2.242279 -49.298302 5.071749
88.207611 2.242279 -49.298302 4.253945
101.690918 2.242279 -49.298302 3.672417
115.174225 2.242279 -49.298302 3.071542
128.657501 2.242279 -49.298302 2.610803
142.140808 2.242279 -49.298302 2.142753
155.624115 2.242279 -49.298302 1.890014
169.107422 2.242279 -49.298302 1.468041
182.590698 2.242279 -49.298302 1.197954
196.074036 2.242279 -49.298302 1.101385
209.557312 2.242279 -49.298302 0.921469
223.040588 2.242279 -49.298302 0.811048
236.523926 2.242279 -49.298302 0.612284
250.007202 2.242279 -49.298302 0.555069
263.490540 2.242279 -49.298302 0.487148
276.973816 2.242279 -49.298302 0.407718
290.457092 2.242279 -49.298302 0.348471
303.940430 2.242279 -49.298302 0.000000
317.423706 2.242279 -49.298302 0.000000
330.907043 2.242279 -49.298302 0.000000
344.390320 2.242279 -49.298302 0.000000
-343.257996 -11.240997 -49.298302 0.000000
-329.774689 -11.240997 -49.298302 0.000000
-316.291382 -11.240997 -49.298302 0.000000
-302.808105 -11.240997 -49.298302 0.000000
-289.324799 -11.240997 -49.298302 0.635344
-275.841492 -11.240997 -49.298302 0.734904
-262.358185 -11.240997 -49.298302 0.829225
-248.874893 -11.240997 -49.298302 0.989342
-235.391602 -11.240997 -49.298302 1.432840
-221.908295 -11.240997 -49.298302 1.722707
-208.424988 -11.240997 -49.298302 2.321856
-194.941696 -11.240997 -49.298302 3.271089
-181.458389 -11.240997 -49.298302 3.887838
-167.975098 -11.240997 -49.298302 4.663027
-154.491791 -11.240997 -49.298302 5.782548
-141.008499 -11.240997 -49.298302 6.393134
-127.525192 -11.240997 -49.298302 6.554036
-114.041885 -11.240997 -49.298302 7.125131
-100.558594 -11.240997 -49.298302 7.997100
-87.075287 -11.240997 -49.298302 8.731315
-73.591980 -11.240997 -49.298302 8.102578
-60.108704 -11.240997 -49.298302 7.752851
-46.625397 -11.240997 -49.298302 7.449951
-33.142090 -11.240997 -49.298302 6.376178
-19.658783 -11.240997 -49.298302 5.896623
-6.175476 -11.240997 -49.298302 6.269666
7.307800 -11.240997 -49.298302 6.915964
20.791107 -11.240997 -49.298302 6.409667
34.274414 -11.240997 -49.298302 6.246243
47.757721 -11.240997 -49.298302 5.688885
61.240997 -11.240997 -49.298302 5.375331
74.724304 -11.240997 -49.298302 5.461131
88.207611 -11.240997 -49.298302 4.431112
101.690918 -11.240997 -49.298302 3.502115
115.174225 -11.240997 -49.298302 2.771917
128.657501 -11.240997 -49.298302 2.356654
142.140808 -11.240997 -49.298302 2.001462
155.624115 -11.240997 -49.298302 1.703830
169.107422 -11.240997 -49.298302 1.352770
182.590698 -11.240997 -49.298302 1.152249
196.074036 -11.240997 -49.298302 0.999570
209.557312 -11.240997 -49.298302 0.918794
223.040588 -11.240997 -49.298302 0.770695
236.523926 -11.240997 -49.298302 0.691778
250.007202 -11.240997 -49.298302 0.547063
263.490540 -11.240997 -49.298302 0.538055
276.973816 -11.240997 -49.298302 0.517895
290.457092 -11.240997 -49.298302 0.400932
303.940430 -11.240997 -49.298302 0.000000
317.423706 -11.240997 -49.298302 0.000000
330.907043 -11.240997 -49.298302 0.000000
344.390320 -11.240997 -49.298302 0.000000
-343.257996 -24.724304 -49.298302 0.000000
-329.774689 -24.724304 -49.298302 0.000000
-316.291382 -24.724304 -49.298302 0.000000
-302.808105 -24.724304 -49.298302 0.000000
-289.324799 -24.724304 -49.298302 0.511117
-275.841492 -24.724304 -49.298302 0.661374
-262.358185 -24.724304 -49.298302 0.826646
-248.874893 -24.724304 -49.298302 1.004920
-235.391602 -24.724304 -49.298302 1.253488
-221.908295 -24.724304 -49.298302 1.679419
-208.424988 -24.724304 -49.298302 2.622225
-194.941696 -24.724304 -49.298302 3.524502
-181.458389 -24.724304 -49.298302 4.099130
-167.975098 -24.724304 -49.298302 5.381790
-154.491791 -24.724304 -49.298302 5.960361
-141.008499 -24.724304 -49.298302 6.656582
-127.525192 -24.724304 -49.298302 7.281984
-114.041885 -24.724304 -49.298302 6.978842
-100.558594 -24.724304 -49.298302 7.795707
-87.075287 -24.724304 -49.298302 8.176593
-73.591980 -24.724304 -49.298302 8.250753
-60.108704 -24.724304 -49.298302 7.982117
-46.625397 -24.724304 -49.298302 7.481416
-33.142090 -24.724304 -49.298302 7.147473
-19.658783 -24.724304 -49.298302 6.818683
-6.175476 -24.724304 -49.298302 7.159724
7.307800 -24.724304 -49.298302 6.915593
20.791107 -24.724304 -49.298302 6.476770
34.274414 -24.724304 -49.298302 6.468784
47.757721 -24.724304 -49.298302 6.275018
61.240997 -24.724304 -49.298302 5.601171
74.724304 -24.724304 -49.298302 4.955473
88.207611 -24.724304 -49.298302 4.211264
101.690918 -24.724304 -49.298302 3.380085
115.174225 -24.724304 -49.298302 2.632149
128.657501 -24.724304 -49.298302 1.989606
142.140808 -24.724304 -49.298302 1.667223
155.624115 -24.724304 -49.298302 1.351343
169.107422 -24.724304 -49.298302 1.137210
182.590698 -24.724304 -49.298302 1.021438
196.074036 -24.724304 -49.298302 0.903595
209.557312 -24.724304 -49.298302 0.841951
223.040588 -24.724304 -49.298302 0.757950
236.523926 -24.724304 -49.298302 0.681635
250.007202 -24.724304 -49.298302 0.618475
263.490540 -24.724304 -49.298302 0.645981
276.973816 -24.724304 -49.298302 0.516939
290.457092 -24.724304 -49.298302 0.420768
303.940430 -24.724304 -49.298302 0.000000
317.423706 -24.724304 -49.298302 0.000000
330.907043 -24.724304 -49.298302 0.000000
344.390320 -24.724304 -49.298302 0.000000
-343.257996 -38.207611 -49.298302 0.000000
-329.774689 -38.207611 -49.298302 0.000000
-316.291382 -38.207611 -49.298302 0.000000
-302.808105 -38.207611 -49.298302 0.000000
-289.324799 -38.207611 -49.298302 0.735289
-275.841492 -38.207611 -49.298302 0.726493
-262.358185 -38.207611 -49.298302 0.784859
-248.874893 -38.207611 -49.298302 1.293473
-235.391602 -38.207611 -49.298302 1.368794
-221.908295 -38.207611 -49.298302 1.749363
-208.424988 -38.207611 -49.298302 2.746264
-194.941696 -38.207611 -49.298302 3.708577
-181.458389 -38.207611 -49.298302 5.063802
-167.975098 -38.207611 -49.298302 5.793679
-154.491791 -38.207611 -49.298302 6.429982
-141.008499 -38.207611 -49.298302 7.661091
-127.525192 -38.207611 -49.298302 8.079633
-114.041885 -38.207611 -49.298302 7.693800
-100.558594 -38.207611 -49.298302 7.598359
-87.075287 -38.207611 -49.298302 7.657018
-73.591980 -38.207611 -49.298302 7.796826
-60.108704 -38.207611 -49.298302 7.650946
-46.625397 -38.207611 -49.298302 7.460029
-33.142090 -38.207611 -49.298302 7.257650
-19.658783 -38.207611 -49.298302 6.755585
-6.175476 -38.207611 -49.298302 6.645436
7.307800 -38.207611 -49.298302 6.840242
20.791107 -38.207611 -49.298302 6.174157
34.274414 -38.207611 -49.298302 6.093428
47.757721 -38.207611 -49.298302 5.763081
61.240997 -38.207611 -49.298302 5.118578
74.724304 -38.207611 -49.298302 4.157502
88.207611 -38.207611 -49.298302 3.861688
101.690918 -38.207611 -49.298302 3.188067
115.174225 -38.207611 -49.298302 2.379865
128.657501 -38.207611 -49.298302 1.792245
142.140808 -38.207611 -49.298302 1.567005
155.624115 -38.207611 -49.298302 1.298326
169.107422 -38.207611 -49.298302 1.128206
182.590698 -38.207611 -49.298302 0.986117
196.074036 -38.207611 -49.298302 0.909690
209.557312 -38.207611 -49.298302 0.797909
223.040588 -38.207611 -49.298302 0.718289
236.523926 -38.207611 -49.298302 0.725339
250.007202 -38.207611 -49.298302 0.641951
263.490540 -38.207611 -49.298302 0.667478
276.973816 -38.207611 -49.298302 0.626549
290.457092 -38.207611 -49.298302 0.585265
303.940430 -38.207611 -49.298302 0.000000
317.423706 -38.207611 -49.298302 0.000000
330.907043 -38.207611 -49.298302 0.000000
344.390320 -38.207611 -49.298302 0.000000
-343.257996 -51.690918 -49.298302 0.000000
-329.774689 -51.690918 -49.298302 0.000000
-316.291382 -51.690918 -49.298302 0.000000
-302.808105 -51.690918 -49.298302 0.000000
-289.324799 -51.690918 -49.298302 0.973078
-275.841492 -51.690918 -49.298302 1.014434
-262.358185 -51.690918 -49.298302 0.966433
-248.874893 -51.690918 -49.298302 1.112991
-235.391602 -51.690918 -49.298302 1.537197
-221.908295 -51.690918 -49.298302 1.974555
-208.424988 -51.690918 -49.298302 3.197074
-194.941696 -51.690918 -49.298302 4.989095
-181.458389 -51.690918 -49.298302 5.897147
-167.975098 -51.690918 -49.298302 6.804763
-154.491791 -51.690918 -49.298302 8.541430
-141.008499 -51.690918 -49.298302 8.028913
-127.525192 -51.690918 -49.298302 8.227813
-114.041885 -51.690918 -49.298302 8.265818
-100.558594 -51.690918 -49.298302 7.337427
-87.075287 -51.690918 -49.298302 7.087752
-73.591980 -51.690918 -49.298302 7.005333
-60.108704 -51.690918 -49.298302 6.937370
-46.625397 -51.690918 -49.298302 6.981892
-33.142090 -51.690918 -49.298302 6.854605
-19.658783 -51.690918 -49.298302 6.640595
-6.175476 -51.690918 -49.298302 6.532179
7.307800 -51.690918 -49.298302 6.426255
20.791107 -51.690918 -49.298302 6.161191
34.274414 -51.690918 -49.298302 5.809513
47.757721 -51.690918 -49.298302 5.127697
61.240997 -51.690918 -49.298302 4.526865
74.724304 -51.690918 -49.298302 3.518726
88.207611 -51.690918 -49.298302 3.019076
101.690918 -51.690918 -49.298302 2.534485
115.174225 -51.690918 -49.298302 1.956935
128.657501 -51.690918 -49.298302 1.667416
142.140808 -51.690918 -49.298302 1.393744
155.624115 -51.690918 -49.298302 1.275472
169.107422 -51.690918 -49.298302 1.108354
182.590698 -51.690918 -49.298302 1.009056
196.074036 -51.690918 -49.298302 0.886545
209.557312 -51.690918 -49.298302 0.768791
223.040588 -51.690918 -49.298302 0.752606
236.523926 -51.690918 -49.298302 0.723933
250.007202 -51.690918 -49.298302 0.649750
263.490540 -51.690918 -49.298302 0.726393
276.973816 -51.690918 -49.298302 0.630802
290.457092 -51.690918 -49.298302 0.640506
303.940430 -51.690918 -49.298302 0.000000
317.423706 -51.690918 -49.298302 0.000000
330.907043 -51.690918 -49.298302 0.000000
344.390320 -51.690918 -49.298302 0.000000
-343.257996 -65.174225 -49.298302 0.000000
-329.774689 -65.174225 -49.298302 0.000000
-316.291382 -65.174225 -49.298302 0.000000
-302.808105 -65.174225 -49.298302 0.000000
-289.324799 -65.174225 -49.298302 1.214974
-275.841492 -65.174225 -49.298302 0.935354
-262.358185 -65.174225 -49.298302 1.107502
-248.874893 -65.174225 -49.298302 1.352543
-235.391602 -65.174225 -49.298302 2.318134
-221.908295 -65.174225 -49.298302 2.959660
-208.424988 -65.174225 -49.298302 4.370852
-194.941696 -65.174225 -49.298302 6.889276
-181.458389 -65.174225 -49.298302 0.000000
-167.975098 -65.174225 -49.298302 0.000000
-154.491791 -65.174225 -49.298302 0.000000
-141.008499 -65.174225 -49.298302 9.244476
-127.525192 -65.174225 -49.298302 9.532151
-114.041885 -65.174225 -49.298302 9.065424
-100.558594 -65.174225 -49.298302 7.602915
-87.075287 -65.174225 -49.298302 7.090553
-73.591980 -65.174225 -49.298302 6.569066
-60.108704 -65.174225 -49.298302 6.225952
-46.625397 -65.174225 -49.298302 6.373824
-33.142090 -65.174225 -49.298302 6.174744
-19.658783 -65.174225 -49.298302 6.016371
-6.175476 -65.174225 -49.298302 5.954816
7.307800 -65.174225 -49.298302 5.949154
20.791107 -65.174225 -49.298302 5.286723
34.274414 -65.174225 -49.298302 5.039913
47.757721 -65.174225 -49.298302 4.263319
61.240997 -65.174225 -49.298302 3.864302
74.724304 -65.174225 -49.298302 3.313031
88.207611 -65.174225 -49.298302 2.575314
101.690918 -65.174225 -49.298302 2.018351
115.174225 -65.174225 -49.298302 1.664827
128.657501 -65.174225 -49.298302 1.440713
142.140808 -65.174225 -49.298302 1.261788
155.624115 -65.174225 -49.298302 1.228736
169.107422 -65.174225 -49.298302 1.131143
182.590698 -65.174225 -49.298302 1.030794
196.074036 -65.174225 -49.298302 0.903604
209.557312 -65.174225 -49.298302 0.789134
223.040588 -65.174225 -49.298302 0.752091
236.523926 -65.174225 -49.298302 0.793452
250.007202 -65.174225 -49.298302 0.748515
263.490540 -65.174225 -49.298302 0.718097
276.973816 -65.174225 -49.298302 0.878390
290.457092 -65.174225 -49.298302 0.779544
303.940430 -65.174225 -49.298302 0.000000
317.423706 -65.174225 -49.298302 0.000000
330.907043 -65.174225 -49.298302 0.000000
344.390320 -65.174225 -49.298302 0.000000
-343.257996 -78.657501 -49.298302 0.000000
-329.774689 -78.657501 -49.298302 0.000000
-316.291382 -78.657501 -49.298302 0.000000
-302.808105 -78.657501 -49.298302 0.000000
-289.324799 -78.657501 -49.298302 1.213936
-275.841492 -78.657501 -49.298302 1.629471
-262.358185 -78.657501 -49.298302 1.902154
-248.874893 -78.657501 -49.298302 2.636726
-235.391602 -78.657501 -49.298302 0.000000
-221.908295 -78.657501 -49.298302 0.000000
-208.424988 -78.657501 -49.298302 0.000000
-194.941696 -78.657501 -49.298302 0.000000
-181.458389 -78.657501 -49.298302 0.000000
-167.975098 -78.657501 -49.298302 0.000000
-154.491791 -78.657501 -49.298302 0.000000
-141.008499 -78.657501 -49.298302 10.246872
-127.525192 -78.657501 -49.298302 9.273266
-114.041885 -78.657501 -49.298302 8.816253
-100.558594 -78.657501 -49.298302 7.619324
-87.075287 -78.657501 -49.298302 7.557995
-73.591980 -78.657501 -49.298302 6.439897
-60.108704 -78.657501 -49.298302 6.201866
-46.625397 -78.657501 -49.298302 5.805341
-33.142090 -78.657501 -49.298302 5.689221
-19.658783 -78.657501 -49.298302 5.474159
-6.175476 -78.657501 -49.298302 5.264131
7.307800 -78.657501 -49.298302 5.156174
20.791107 -78.657501 -49.298302 4.862103
34.274414 -78.657501 -49.298302 4.524880
47.757721 -78.657501 -49.298302 3.603929
61.240997 -78.657501 -49.298302 3.431886
74.724304 -78.657501 -49.298302 2.771207
88.207611 -78.657501 -49.298302 2.181537
101.690918 -78.657501 -49.298302 1.775814
115.174225 -78.657501 -49.298302 1.583329
128.657501 -78.657501 -49.298302 1.371287
142.140808 -78.657501 -49.298302 1.245320
155.624115 -78.657501 -49.298302 1.216611
169.107422 -78.657501 -49.298302 1.192771
182.590698 -78.657501 -49.298302 1.063894
196.074036 -78.657501 -49.298302 0.999102
209.557312 -78.657501 -49.298302 0.966472
223.040588 -78.657501 -49.298302 0.833991
236.523926 -78.657501 -49.298302 0.860795
250.007202 -78.657501 -49.298302 0.815479
263.490540 -78.657501 -49.298302 0.933271
276.973816 -78.657501 -49.298302 1.121776
290.457092 -78.657501 -49.298302 0.873968
303.940430 -78.657501 -49.298302 0.000000
317.423706 -78.657501 -49.298302 0.000000
330.907043 -78.657501 -49.298302 0.000000
344.390320 -78.657501 -49.298302 0.000000
-343.257996 -92.140808 -49.298302 0.000000
-329.774689 -92.140808 -49.298302 0.000000
-316.291382 -92.140808 -49.298302 0.000000
-302.808105 -92.140808 -49.298302 0.000000
-289.324799 -92.140808 -49.298302 2.123049
-275.841492 -92.140808 -49.298302 2.189858
-262.358185 -92.140808 -49.298302 3.779645
-248.874893 -92.140808 -49.298302 0.000000
-235.391602 -92.140808 -49.298302 0.000000
-221.908295 -92.140808 -49.298302 0.000000
-208.424988 -92.140808 -49.298302 0.000000
-194.941696 -92.140808 -49.298302 0.000000
-181.458389 -92.140808 -49.298302 0.000000
-167.975098 -92.140808 -49.298302 0.000000
-154.491791 -92.140808 -49.298302 0.000000
-141.008499 -92.140808 -49.298302 0.000000
-127.525192 -92.140808 -49.298302 8.225905
-114.041885 -92.140808 -49.298302 8.010942
-100.558594 -92.140808 -49.298302 7.450146
-87.075287 -92.140808 -49.298302 7.722570
-73.591980 -92.140808 -49.298302 6.894082
-60.108704 -92.140808 -49.298302 6.184711
-46.625397 -92.140808 -49.298302 5.654604
-33.142090 -92.140808 -49.298302 5.129097
-19.658783 -92.140808 -49.298302 4.691449
-6.175476 -92.140808 -49.298302 4.661839
7.307800 -92.140808 -49.298302 4.681984
20.791107 -92.140808 -49.298302 4.494613
34.274414 -92.140808 -49.298302 4.317726
47.757721 -92.140808 -49.298302 3.330259
61.240997 -92.140808 -49.298302 3.013434
74.724304 -92.140808 -49.298302 2.754994
88.207611 -92.140808 -49.298302 2.179033
101.690918 -92.140808 -49.298302 1.779345
115.174225 -92.140808 -49.298302 1.503669
128.657501 -92.140808 -49.298302 1.431153
142.140808 -92.140808 -49.298302 1.359770
155.624115 -92.140808 -49.298302 1.326836
169.107422 -92.140808 -49.298302 1.296243
182.590698 -92.140808 -49.298302 1.196560
196.074036 -92.140808 -49.298302 1.265367
209.557312 -92.140808 -49.298302 1.224301
223.040588 -92.140808 -49.298302 1.054216
236.523926 -92.140808 -49.298302 1.049756
250.007202 -92.140808 -49.298302 0.962387
263.490540 -92.140808 -49.298302 1.070389
276.973816 -92.140808 -49.298302 1.181083
290.457092 -92.140808 -49.298302 1.225732
303.940430 -92.140808 -49.298302 0.000000
317.423706 -92.140808 -49.298302 0.000000
330.907043 -92.140808 -49.298302 0.000000
344.390320 -92.140808 -49.298302 0.000000
-343.257996 -105.624115 -49.298302 0.000000
-329.774689 -105.624115 -49.298302 0.000000
-316.291382 -105.624115 -49.298302 0.000000
-302.808105 -105.624115 -49.298302 0.000000
-289.324799 -105.624115 -49.298302 4.812953
-275.841492 -105.624115 -49.298302 5.817954
-262.358185 -105.624115 -49.298302 0.000000
-248.874893 -105.624115 -49.298302 0.000000
-235.391602 -105.624115 -49.298302 0.000000
-221.908295 -105.624115 -49.298302 0.000000
-208.424988 -105.624115 -49.298302 0.000000
-194.941696 -105.624115 -49.298302 0.000000
-181.458389 -105.624115 -49.298302 0.000000
-167.975098 -105.624115 -49.298302 0.000000
-154.491791 -105.624115 -49.298302 0.000000
-141.008499 -105.624115 -49.298302 0.000000
-127.525192 -105.624115 -49.298302 8.915213
-114.041885 -105.624115 -49.298302 7.736568
-100.558594 -105.624115 -49.298302 7.276598
-87.075287 -105.624115 -49.298302 6.973789
-73.591980 -105.624115 -49.298302 6.477987
-60.108704 -105.624115 -49.298302 6.029350
-46.625397 -105.624115 -49.298302 5.542054
-33.142090 -105.624115 -49.298302 4.990964
-19.658783 -105.624115 -49.298302 4.606929
-6.175476 -105.624115 -49.298302 4.151850
7.307800 -105.624115 -49.298302 4.423887
20.791107 -105.624115 -49.298302 4.192492
34.274414 -105.624115 -49.298302 3.746123
47.757721 -105.624115 -49.298302 3.395685
61.240997 -105.624115 -49.298302 2.965646
74.724304 -105.624115 -49.298302 2.560482
88.207611 -105.624115 -49.298302 2.183640
101.690918 -105.624115 -49.298302 1.798887
115.174225 -105.624115 -49.298302 1.442085
128.657501 -105.624115 -49.298302 1.382630
142.140808 -105.624115 -49.298302 1.378778
155.624115 -105.624115 -49.298302 1.449638
169.107422 -105.624115 -49.298302 1.444703
182.590698 -105.624115 -49.298302 1.527241
196.074036 -105.624115 -49.298302 1.677544
209.557312 -105.624115 -49.298302 1.626941
223.040588 -105.624115 -49.298302 1.541899
236.523926 -105.624115 -49.298302 1.285457
250.007202 -105.624115 -49.298302 1.433893
263.490540 -105.624115 -49.298302 1.445300
276.973816 -105.624115 -49.298302 1.947648
290.457092 -105.624115 -49.298302 2.106554
303.940430 -105.624115 -49.298302 0.000000
317.423706 -105.624115 -49.298302 0.000000
330.907043 -105.624115 -49.298302 0.000000
344.390320 -105.624115 -49.298302 0.000000
-343.257996 -119.107422 -49.298302 0.000000
-329.774689 -119.107422 -49.298302 0.000000
-316.291382 -119.107422 -49.298302 0.000000
-302.808105 -119.107422 -49.298302 0.000000
-289.324799 -119.107422 -49.298302 0.000000
-275.841492 -119.107422 -49.298302 0.000000
-262.358185 -119.107422 -49.298302 0.000000
-248.874893 -119.107422 -49.298302 0.000000
-235.391602 -119.107422 -49.298302 0.000000
-221.908295 -119.107422 -49.298302 0.000000
-208.424988 -119.107422 -49.298302 0.000000
-194.941696 -119.107422 -49.298302 0.000000
-181.458389 -119.107422 -49.298302 0.000000
-167.975098 -119.107422 -49.298302 0.000000
-154.491791 -119.107422 -49.298302 0.000000
-141.008499 -119.107422 -49.298302 0.000000
-127.525192 -119.107422 -49.298302 0.000000
-114.041885 -119.107422 -49.298302 0.000000
-100.558594 -119.107422 -49.298302 8.064055
-87.075287 -119.107422 -49.298302 7.872946
-73.591980 -119.107422 -49.298302 7.324817
-60.108704 -119.107422 -49.298302 5.840161
-46.625397 -119.107422 -49.298302 4.968071
-33.142090 -119.107422 -49.298302 4.925329
-19.658783 -119.107422 -49.298302 4.241206
-6.175476 -119.107422 -49.298302 4.250594
7.307800 -119.107422 -49.298302 4.274288
20.791107 -119.107422 -49.298302 4.212926
34.274414 -119.107422 -49.298302 3.983829
47.757721 -119.107422 -49.298302 3.517489
61.240997 -119.107422 -49.298302 2.809037
74.724304 -119.107422 -49.298302 2.732081
88.207611 -119.107422 -49.298302 2.160981
101.690918 -119.107422 -49.298302 1.848470
115.174225 -119.107422 -49.298302 1.697790
128.657501 -119.107422 -49.298302 1.687640
142.140808 -119.107422 -49.298302 1.605159
155.624115 -119.107422 -49.298302 1.683190
169.107422 -119.107422 -49.298302 1.875891
182.590698 -119.107422 -49.298302 1.982801
196.074036 -119.107422 -49.298302 2.315689
209.557312 -119.107422 -49.298302 2.433477
223.040588 -119.107422 -49.298302 2.196719
236.523926 -119.107422 -49.298302 2.118422
250.007202 -119.107422 -49.298302 2.025875
263.490540 -119.107422 -49.298302 2.238305
276.973816 -119.107422 -49.298302 2.720199
290.457092 -119.107422 -49.298302 3.153250
303.940430 -119.107422 -49.298302 0.000000
317.423706 -119.107422 -49.298302 0.000000
330.907043 -119.107422 -49.298302 0.000000
344.390320 -119.107422 -49.298302 0.000000
-343.257996 -132.590698 -49.298302 0.000000
-329.774689 -132.590698 -49.298302 0.000000
-316.291382 -132.590698 -49.298302 0.000000
-302.808105 -132.590698 -49.298302 0.000000
-289.324799 -132.590698 -49.298302 0.000000
-275.841492 -132.590698 -49.298302 0.000000
-262.358185 -132.590698 -49.298302 0.000000
-248.874893 -132.590698 -49.298302 0.000000
-235.391602 -132.590698 -49.298302 0.000000
-221.908295 -132.590698 -49.298302 0.000000
-208.424988 -132.590698 -49.298302 0.000000
-194.941696 -132.590698 -49.298302 0.000000
-181.458389 -132.590698 -49.298302 0.000000
-167.975098 -132.590698 -49.298302 0.000000
-154.491791 -132.590698 -49.298302 0.000000
-141.008499 -132.590698 -49.298302 0.000000
-127.525192 -132.590698 -49.298302 0.000000
-114.041885 -132.590698 -49.298302 0.000000
-100.558594 -132.590698 -49.298302 0.000000
-87.075287 -132.590698 -49.298302 0.000000
-73.591980 -132.590698 -49.298302 0.000000
-60.108704 -132.590698 -49.298302 7.035607
-46.625397 -132.590698 -49.298302 5.848212
-33.142090 -132.590698 -49.298302 5.068725
-19.658783 -132.590698 -49.298302 4.378836
-6.175476 -132.590698 -49.298302 4.828432
7.307800 -132.590698 -49.298302 5.139440
20.791107 -132.590698 -49.298302 4.656042
34.274414 -132.590698 -49.298302 4.143558
47.757721 -132.590698 -49.298302 3.821470
61.240997 -132.590698 -49.298302 3.216950
74.724304 -132.590698 -49.298302 2.587255
88.207611 -132.590698 -49.298302 2.326046
101.690918 -132.590698 -49.298302 2.223650
115.174225 -132.590698 -49.298302 2.078877
128.657501 -132.590698 -49.298302 1.903377
142.140808 -132.590698 -49.298302 1.925966
155.624115 -132.590698 -49.298302 2.037209
169.107422 -132.590698 -49.298302 2.180697
182.590698 -132.590698 -49.298302 2.563560
196.074036 -132.590698 -49.298302 2.924210
209.557312 -132.590698 -49.298302 0.000000
223.040588 -132.590698 -49.298302 3.254921
236.523926 -132.590698 -49.298302 3.116142
250.007202 -132.590698 -49.298302 3.138871
263.490540 -132.590698 -49.298302 3.162979
276.973816 -132.590698 -49.298302 0.000000
290.457092 -132.590698 -49.298302 0.000000
303.940430 -132.590698 -49.298302 0.000000
317.423706 -132.590698 -49.298302 0.000000
330.907043 -132.590698 -49.298302 0.000000
344.390320 -132.590698 -49.298302 0.000000
-343.257996 -146.074036 -49.298302 0.000000
-329.774689 -146.074036 -49.298302 0.000000
-316.291382 -146.074036 -49.298302 0.000000
-302.808105 -146.074036 -49.298302 0.000000
-289.324799 -146.074036 -49.298302 0.000000
-275.841492 -146.074036 -49.298302 0.000000
-262.358185 -146.074036 -49.298302 0.000000
-248.874893 -146.074036 -49.298302 0.000000
-235.391602 -146.074036 -49.298302 0.000000
-221.908295 -146.074036 -49.298302 0.000000
-208.424988 -146.074036 -49.298302 0.000000
-194.941696 -146.074036 -49.298302 0.000000
-181.458389 -146.074036 -49.298302 0.000000
-167.975098 -146.074036 -49.298302 0.000000
-154.491791 -146.074036 -49.298302 0.000000
-141.008499 -146.074036 -49.298302 0.000000
-127.525192 -146.074036 -49.298302 0.000000
-114.041885 -146.074036 -49.298302 0.000000
-100.558594 -146.074036 -49.298302 0.000000
-87.075287 -146.074036 -49.298302 0.000000
-73.591980 -146.074036 -49.298302 0.000000
-60.108704 -146.074036 -49.298302 0.000000
-46.625397 -146.074036 -49.298302 0.000000
-33.142090 -146.074036 -49.298302 5.441028
-19.658783 -146.074036 -49.298302 5.205013
-6.175476 -146.074036 -49.298302 4.862540
7.307800 -146.074036 -49.298302 4.986159
20.791107 -146.074036 -49.298302 0.000000
34.274414 -146.074036 -49.298302 0.000000
47.757721 -146.074036 -49.298302 0.000000
61.240997 -146.074036 -49.298302 0.000000
74.724304 -146.074036 -49.298302 0.000000
88.207611 -146.074036 -49.298302 0.000000
101.690918 -146.074036 -49.298302 0.000000
115.174225 -146.074036 -49.298302 0.000000
128.657501 -146.074036 -49.298302 0.000000
142.140808 -146.074036 -49.298302 0.000000
155.624115 -146.074036 -49.298302 0.000000
169.107422 -146.074036 -49.298302 0.000000
182.590698 -146.074036 -49.298302 0.000000
196.074036 -146.074036 -49.298302 0.000000
209.557312 -146.074036 -49.298302 0.000000
223.040588 -146.074036 -49.298302 0.000000
236.523926 -146.074036 -49.298302 0.000000
250.007202 -146.074036 -49.298302 0.000000
263.490540 -146.074036 -49.298302 0.000000
276.973816 -146.074036 -49.298302 0.000000
290.457092 -146.074036 -49.298302 0.000000
303.940430 -146.074036 -49.298302 0.000000
317.423706 -146.074036 -49.298302 0.000000
330.907043 -146.074036 -49.298302 0.000000
344.390320 -146.074036 -49.298302 0.000000
-343.257996 -159.557312 -49.298302 0.000000
-329.774689 -159.557312 -49.298302 0.000000
-316.291382 -159.557312 -49.298302 0.000000
-302.808105 -159.557312 -49.298302 0.000000
-289.324799 -159.557312 -49.298302 0.000000
-275.841492 -159.557312 -49.298302 0.000000
-262.358185 -159.557312 -49.298302 0.000000
-248.874893 -159.557312 -49.298302 0.000000
-235.391602 -159.557312 -49.298302 0.000000
-221.908295 -159.557312 -49.298302 0.000000
-208.424988 -159.557312 -49.298302 0.000000
-194.941696 -159.557312 -49.298302 0.000000
-181.458389 -159.557312 -49.298302 0.000000
-167.975098 -159.557312 -49.298302 0.000000
-154.491791 -159.557312 -49.298302 0.000000
-141.008499 -159.557312 -49.298302 0.000000
-127.525192 -159.557312 -49.298302 0.000000
-114.041885 -159.557312 -49.298302 0.000000
-100.558594 -159.557312 -49.298302 0.000000
-87.075287 -159.557312 -49.298302 0.000000
-73.591980 -159.557312 -49.298302 0.000000
-60.108704 -159.557312 -49.298302 0.000000
-46.625397 -159.557312 -49.298302 0.000000
-33.142090 -159.557312 -49.298302 0.000000
-19.658783 -159.557312 -49.298302 0.000000
-6.175476 -159.557312 -49.298302 0.000000
7.307800 -159.557312 -49.298302 0.000000
20.791107 -159.557312 -49.298302 0.000000
34.274414 -159.557312 -49.298302 0.000000
47.757721 -159.557312 -49.298302 0.000000
61.240997 -159.557312 -49.298302 0.000000
74.724304 -159.557312 -49.298302 0.000000
88.207611 -159.557312 -49.298302 0.000000
101.690918 -159.557312 -49.298302 0.000000
115.174225 -159.557312 -49.298302 0.000000
128.657501 -159.557312 -49.298302 0.000000
142.140808 -159.557312 -49.298302 0.000000
155.624115 -159.557312 -49.298302 0.000000
169.107422 -159.557312 -49.298302 0.000000
182.590698 -159.557312 -49.298302 0.000000
196.074036 -159.557312 -49.298302 0.000000
209.557312 -159.557312 -49.298302 0.000000
223.040588 -159.557312 -49.298302 0.000000
236.523926 -159.557312 -49.298302 0.000000
250.007202 -159.557312 -49.298302 0.000000
263.490540 -159.557312 -49.298302 0.000000
276.973816 -159.557312 -49.298302 0.000000
290.457092 -159.557312 -49.298302 0.000000
303.940430 -159.557312 -49.298302 0.000000
317.423706 -159.557312 -49.298302 0.000000
330.907043 -159.557312 -49.298302 0.000000
344.390320 -159.557312 -49.298302 0.000000
-343.257996 -173.040588 -49.298302 0.000000
-329.774689 -173.040588 -49.298302 0.000000
-316.291382 -173.040588 -49.298302 0.000000
-302.808105 -173.040588 -49.298302 0.000000
-289.324799 -173.040588 -49.298302 0.000000
-275.841492 -173.040588 -49.298302 0.000000
-262.358185 -173.040588 -49.298302 0.000000
-248.874893 -173.040588 -49.298302 0.000000
-235.391602 -173.040588 -49.298302 0.000000
-221.908295 -173.040588 -49.298302 0.000000
-208.424988 -173.040588 -49.298302 0.000000
-194.941696 -173.040588 -49.298302 0.000000
-181.458389 -173.040588 -49.298302 0.000000
-167.975098 -173.040588 -49.298302 0.000000
-154.491791 -173.040588 -49.298302 0.000000
-141.008499 -173.040588 -49.298302 0.000000
-127.525192 -173.040588 -49.298302 0.000000
-114.041885 -173.040588 -49.298302 0.000000
-100.558594 -173.040588 -49.298302 0.000000
-87.075287 -173.040588 -49.298302 0.000000
-73.591980 -173.040588 -49.298302 0.000000
-60.108704 -173.040588 -49.298302 0.000000
-46.625397 -173.040588 -49.298302 0.000000
-33.142090 -173.040588 -49.298302 0.000000
-19.658783 -173.040588 -49.298302 0.000000
-6.175476 -173.040588 -49.298302 0.000000
7.307800 -173.040588 -49.298302 0.000000
20.791107 -173.040588 -49.298302 0.000000
34.274414 -173.040588 -49.298302 0.000000
47.757721 -173.040588 -49.298302 0.000000
61.240997 -173.040588 -49.298302 0.000000
74.724304 -173.040588 -49.298302 0.000000
88.207611 -173.040588 -49.298302 0.000000
101.690918 -173.040588 -49.298302 0.000000
115.174225 -173.040588 -49.298302 0.000000
128.657501 -173.040588 -49.298302 0.000000
142.140808 -173.040588 -49.298302 0.000000
155.624115 -173.040588 -49.298302 0.000000
169.107422 -173.040588 -49.298302 0.000000
182.590698 -173.040588 -49.298302 0.000000
196.074036 -173.040588 -49.298302 0.000000
209.557312 -173.040588 -49.298302 0.000000
223.040588 -173.040588 -49.298302 0.000000
236.523926 -173.040588 -49.298302 0.000000
250.007202 -173.040588 -49.298302 0.000000
263.490540 -173.040588 -49.298302 0.000000
276.973816 -173.040588 -49.298302 0.000000
290.457092 -173.040588 -49.298302 0.000000
303.940430 -173.040588 -49.298302 0.000000
317.423706 -173.040588 -49.298302 0.000000
330.907043 -173.040588 -49.298302 0.000000
344.390320 -173.040588 -49.298302 0.000000
-343.257996 -186.523926 -49.298302 0.000000
-329.774689 -186.523926 -49.298302 0.000000
-316.291382 -186.523926 -49.298302 0.000000
-302.808105 -186.523926 -49.298302 0.000000
-289.324799 -186.523926 -49.298302 0.000000
-275.841492 -186.523926 -49.298302 0.000000
-262.358185 -186.523926 -49.298302 0.000000
-248.874893 -186.523926 -49.298302 0.000000
-235.391602 -186.523926 -49.298302 0.000000
-221.908295 -186.523926 -49.298302 0.000000
-208.424988 -186.523926 -49.298302 0.000000
-194.941696 -186.523926 -49.298302 0.000000
-181.458389 -186.523926 -49.298302 0.000000
-167.975098 -186.523926 -49.298302 0.000000
-154.491791 -186.523926 -49.298302 0.000000
-141.008499 -186.523926 -49.298302 0.000000
-127.525192 -186.523926 -49.298302 0.000000
-114.041885 -186.523926 -49.298302 0.000000
-100.558594 -186.523926 -49.298302 0.000000
-87.075287 -186.523926 -49.298302 0.000000
-73.591980 -186.523926 -49.298302 0.000000
-60.108704 -186.523926 -49.298302 0.000000
-46.625397 -186.523926 -49.298302 0.000000
-33.142090 -186.523926 -49.298302 0.000000
-19.658783 -186.523926 -49.298302 0.000000
-6.175476 -186.523926 -49.298302 0.000000
7.307800 -186.523926 -49.298302 0.000000
20.791107 -186.523926 -49.298302 0.000000
34.274414 -186.523926 -49.298302 0.000000
47.757721 -186.523926 -49.298302 0.000000
61.240997 -186.523926 -49.298302 0.000000
74.724304 -186.523926 -49.298302 0.000000
88.207611 -186.523926 -49.298302 0.000000
101.690918 -186.523926 -49.298302 0.000000
115.174225 -186.523926 -49.298302 0.000000
128.657501 -186.523926 -49.298302 0.000000
142.140808 -186.523926 -49.298302 0.000000
155.624115 -186.523926 -49.298302 0.000000
169.107422 -186.523926 -49.298302 0.000000
182.590698 -186.523926 -49.298302 0.000000
196.074036 -186.523926 -49.298302 0.000000
209.557312 -186.523926 -49.298302 0.000000
223.040588 -186.523926 -49.298302 0.000000
236.523926 -186.523926 -49.298302 0.000000
250.007202 -186.523926 -49.298302 0.000000
263.490540 -186.523926 -49.298302 0.000000
276.973816 -186.523926 -49.298302 0.000000
290.457092 -186.523926 -49.298302 0.000000
303.940430 -186.523926 -49.298302 0.000000
317.423706 -186.523926 -49.298302 0.000000
330.907043 -186.523926 -49.298302 0.000000
344.390320 -186.523926 -49.298302 0.000000
-343.257996 -200.007202 -49.298302 0.000000
-329.774689 -200.007202 -49.298302 0.000000
-316.291382 -200.007202 -49.298302 0.000000
-302.808105 -200.007202 -49.298302 0.000000
-289.324799 -200.007202 -49.298302 0.000000
-275.841492 -200.007202 -49.298302 0.000000
-262.358185 -200.007202 -49.298302 0.000000
-248.874893 -200.007202 -49.298302 0.000000
-235.391602 -200.007202 -49.298302 0.000000
-221.908295 -200.007202 -49.298302 0.000000
-208.424988 -200.007202 -49.298302 0.000000
-194.941696 -200.007202 -49.298302 0.000000
-181.458389 -200.007202 -49.298302 0.000000
-167.975098 -200.007202 -49.298302 0.000000
-154.491791 -200.007202 -49.298302 0.000000
-141.008499 -200.007202 -49.298302 0.000000
-127.525192 -200.007202 -49.298302 0.000000
-114.041885 -200.007202 -49.298302 0.000000
-100.558594 -200.007202 -49.298302 0.000000
-87.075287 -200.007202 -49.298302 0.000000
-73.591980 -200.007202 -49.298302 0.000000
-60.108704 -200.007202 -49.298302 0.000000
-46.625397 -200.007202 -49.298302 0.000000
-33.142090 -200.007202 -49.298302 0.000000
-19.658783 -200.007202 -49.298302 0.000000
-6.175476 -200.007202 -49.298302 0.000000
7.307800 -200.007202 -49.298302 0.000000
20.791107 -200.007202 -49.298302 0.000000
34.274414 -200.007202 -49.298302 0.000000
47.757721 -200.007202 -49.298302 0.000000
61.240997 -200.007202 -49.298302 0.000000
74.724304 -200.007202 -49.298302 0.000000
88.207611 -200.007202 -49.298302 0.000000
101.690918 -200.007202 -49.298302 0.000000
115.174225 -200.007202 -49.298302 0.000000
128.657501 -200.007202 -49.298302 0.000000
142.140808 -200.007202 -49.298302 0.000000
155.624115 -200.007202 -49.298302 0.000000
169.107422 -200.007202 -49.298302 0.000000
182.590698 -200.007202 -49.298302 0.000000
196.074036 -200.007202 -49.298302 0.000000
209.557312 -200.007202 -49.298302 0.000000
223.040588 -200.007202 -49.298302 0.000000
236.523926 -200.007202 -49.298302 0.000000
250.007202 -200.007202 -49.298302 0.000000
263.490540 -200.007202 -49.298302 0.000000
276.973816 -200.007202 -49.298302 0.000000
290.457092 -200.007202 -49.298302 0.000000
303.940430 -200.007202 -49.298302 0.000000
317.423706 -200.007202 -49.298302 0.000000
330.907043 -200.007202 -49.298302 0.000000
344.390320 -200.007202 -49.298302 0.000000
-343.257996 393.257996 -35.815002 0.000000
-329.774689 393.257996 -35.815002 0.000000
-316.291382 393.257996 -35.815002 0.000000
-302.808105 393.257996 -35.815002 0.000000
-289.324799 393.257996 -35.815002 0.000000
-275.841492 393.257996 -35.815002 0.000000
-262.358185 393.257996 -35.815002 0.000000
-248.874893 393.257996 -35.815002 0.000000
-235.391602 393.257996 -35.815002 0.000000
-221.908295 393.257996 -35.815002 0.000000
-208.424988 393.257996 -35.815002 0.000000
-194.941696 393.257996 -35.815002 0.000000
-181.458389 393.257996 -35.815002 0.000000
-167.975098 393.257996 -35.815002 0.000000
-154.491791 393.257996 -35.815002 0.000000
-141.008499 393.257996 -35.815002 0.000000
-127.525192 393.257996 -35.815002 0.000000
-114.041885 393.257996 -35.815002 0.000000
-100.558594 393.257996 -35.815002 0.000000
-87.075287 393.257996 -35.815002 0.000000
-73.591980 393.257996 -35.815002 0.000000
-60.108704 393.257996 -35.815002 0.000000
-46.625397 393.257996 -35.815002 0.000000
-33.142090 393.257996 -35.815002 0.000000
-19.658783 393.257996 -35.815002 0.000000
-6.175476 393.257996 -35.815002 0.000000
7.307800 393.257996 -35.815002 0.000000
20.791107 393.257996 -35.815002 0.000000
34.274414 393.257996 -35.815002 0.000000
47.757721 393.257996 -35.815002 0.000000
61.240997 393.257996 -35.815002 0.000000
74.724304 393.257996 -35.815002 0.000000
88.207611 393.257996 -35.815002 0.000000
101.690918 393.257996 -35.815002 0.000000
115.174225 393.257996 -35.815002 0.000000
128.657501 393.257996 -35.815002 0.000000
142.140808 393.257996 -35.815002 0.000000
155.624115 393.257996 -35.815002 0.000000
169.107422 393.257996 -35.815002 0.000000
182.590698 393.257996 -35.815002 0.000000
196.074036 393.257996 -35.815002 0.000000
209.557312 393.257996 -35.815002 0.000000
223.040588 393.257996 -35.815002 0.000000
236.523926 393.257996 -35.815002 0.000000
250.007202 393.257996 -35.815002 0.000000
263.490540 393.257996 -35.815002 0.000000
276.973816 393.257996 -35.815002 0.000000
290.457092 393.257996 -35.815002 0.000000
303.940430 393.257996 -35.815002 0.000000
317.423706 393.257996 -35.815002 0.000000
330.907043 393.257996 -35.815002 0.000000
344.390320 393.257996 -35.815002 0.000000
-343.257996 379.774689 -35.815002 0.000000
-329.774689 379.774689 -35.815002 0.000000
-316.291382 379.774689 -35.815002 0.000000
-302.808105 379.774689 -35.815002 0.000000
-289.324799 379.774689 -35.815002 0.000000
-275.841492 379.774689 -35.815002 0.000000
-262.358185 379.774689 -35.815002 0.000000
-248.874893 379.774689 -35.815002 0.000000
-235.391602 379.774689 -35.815002 0.000000
-221.908295 379.774689 -35.815002 0.000000
-208.424988 379.774689 -35.815002 0.000000
-194.941696 379.774689 -35.815002 0.000000
-181.458389 379.774689 -35.815002 0.000000
-167.975098 379.774689 -35.815002 0.000000
-154.491791 379.774689 -35.815002 0.000000
-141.008499 379.774689 -35.815002 0.000000
-127.525192 379.774689 -35.815002 0.000000
-114.041885 379.774689 -35.815002 0.000000
-100.558594 379.774689 -35.815002 0.000000
-87.075287 379.774689 -35.815002 0.000000
-73.591980 379.774689 -35.815002 0.000000
-60.108704 379.774689 -35.815002 0.000000
-46.625397 379.774689 -35.815002 0.000000
-33.142090 379.774689 -35.815002 0.000000
-19.658783 379.774689 -35.815002 0.000000
-6.175476 379.774689 -35.815002 0.000000
7.307800 379.774689 -35.815002 0.000000
20.791107 379.774689 -35.815002 0.000000
34.274414 379.774689 -35.815002 0.000000
47.757721 379.774689 -35.815002 0.000000
61.240997 379.774689 -35.815002 0.000000
74.724304 379.774689 -35.815002 0.000000
88.207611 379.774689 -35.815002 0.000000
101.690918 379.774689 -35.815002 0.000000
115.174225 379.774689 -35.815002 0.000000
128.657501 379.774689 -35.815002 0.000000
142.140808 379.774689 -35.815002 0.000000
155.624115 379.774689 -35.815002 0.000000
169.107422 379.774689 -35.815002 0.000000
182.590698 379.774689 -35.815002 0.000000
196.074036 379.774689 -35.815002 0.000000
209.557312 379.774689 -35.815002 0.000000
223.040588 379.774689 -35.815002 0.000000
236.523926 379.774689 -35.815002 0.000000
250.007202 379.774689 -35.815002 0.000000
263.490540 379.774689 -35.815002 0.000000
276.973816 379.774689 -35.815002 0.000000
290.457092 379.774689 -35.815002 0.000000
303.940430 379.774689 -35.815002 0.000000
317.423706 379.774689 -35.815002 0.000000
330.907043 379.774689 -35.815002 0.000000
344.390320 379.774689 -35.815002 0.000000
-343.257996 366.291382 -35.815002 0.000000
-329.774689 366.291382 -35.815002 0.000000
-316.291382 366.291382 -35.815002 0.000000
-302.808105 366.291382 -35.815002 0.000000
-289.324799 366.291382 -35.815002 0.000000
-275.841492 366.291382 -35.815002 0.000000
-262.358185 366.291382 -35.815002 0.000000
-248.874893 366.291382 -35.815002 0.000000
-235.391602 366.291382 -35.815002 0.000000
-221.908295 366.291382 -35.815002 0.000000
-208.424988 366.291382 -35.815002 0.000000
-194.941696 366.291382 -35.815002 0.000000
-181.458389 366.291382 -35.815002 0.000000
-167.975098 366.291382 -35.815002 0.000000
-154.491791 366.291382 -35.815002 0.000000
-141.008499 366.291382 -35.815002 0.000000
-127.525192 366.291382 -35.815002 0.000000
-114.041885 366.291382 -35.815002 0.000000
-100.558594 366.291382 -35.815002 0.000000
-87.075287 366.291382 -35.815002 0.000000
-73.591980 366.291382 -35.815002 0.000000
-60.108704 366.291382 -35.815002 0.000000
-46.625397 366.291382 -35.815002 0.000000
-33.142090 366.291382 -35.815002 0.000000
-19.658783 366.291382 -35.815002 0.000000
-6.175476 366.291382 -35.815002 1.602779
7.307800 366.291382 -35.815002 1.429576
20.791107 366.291382 -35.815002 1.302847
34.274414 366.291382 -35.815002 1.125671
47.757721 366.291382 -35.815002 1.125409
61.240997 366.291382 -35.815002 1.018406
74.724304 366.291382 -35.815002 1.057824
88.207611 366.291382 -35.815002 1.266612
101.690918 366.291382 -35.815002 1.554821
115.174225 366.291382 -35.815002 2.019119
128.657501 366.291382 -35.815002 0.000000
142.140808 366.291382 -35.815002 0.000000
155.624115 366.291382 -35.815002 0.000000
169.107422 366.291382 -35.815002 0.000000
182.590698 366.291382 -35.815002 0.000000
196.074036 366.291382 -35.815002 0.000000
209.557312 366.291382 -35.815002 0.000000
223.040588 366.291382 -35.815002 0.000000
236.523926 366.291382 -35.815002 0.000000
250.007202 366.291382 -35.815002 0.000000
263.490540 366.291382 -35.815002 0.000000
276.973816 366.291382 -35.815002 0.000000
290.457092 366.291382 -35.815002 0.000000
303.940430 366.291382 -35.815002 0.000000
317.423706 366.291382 -35.815002 0.000000
330.907043 366.291382 -35.815002 0.000000
344.390320 366.291382 -35.815002 0.000000
-343.257996 352.808105 -35.815002 0.000000
-329.774689 352.808105 -35.815002 0.000000
-316.291382 352.808105 -35.815002 0.000000
-302.808105 352.808105 -35.815002 0.000000
-289.324799 352.808105 -35.815002 0.000000
-275.841492 352.808105 -35.815002 0.000000
-262.358185 352.808105 -35.815002 0.000000
-248.874893 352.808105 -35.815002 0.000000
-235.391602 352.808105 -35.815002 0.000000
-221.908295 352.808105 -35.815002 3.529149
-208.424988 352.808105 -35.815002 3.946927
-194.941696 352.808105 -35.815002 4.180729
-181.458389 352.808105 -35.815002 4.607409
-167.975098 352.808105 -35.815002 5.074569
-154.491791 352.808105 -35.815002 5.580673
-141.008499 352.808105 -35.815002 6.371114
-127.525192 352.808105 -35.815002 6.715193
-114.041885 352.808105 -35.815002 7.240057
-100.558594 352.808105 -35.815002 7.283491
-87.075287 352.808105 -35.815002 7.085203
-73.591980 352.808105 -35.815002 6.440327
-60.108704 352.808105 -35.815002 5.812327
-46.625397 352.808105 -35.815002 4.497162
-33.142090 352.808105 -35.815002 3.367011
-19.658783 352.808105 -35.815002 2.263236
-6.175476 352.808105 -35.815002 1.813188
7.307800 352.808105 -35.815002 1.660638
20.791107 352.808105 -35.815002 1.399594
34.274414 352.808105 -35.815002 1.236787
47.757721 352.808105 -35.815002 1.111096
61.240997 352.808105 -35.815002 1.235334
74.724304 352.808105 -35.815002 1.320936
88.207611 352.808105 -35.815002 1.512606
101.690918 352.808105 -35.815002 1.843473
115.174225 352.808105 -35.815002 2.249530
128.657501 352.808105 -35.815002 2.679366
142.140808 352.808105 -35.815002 2.952199
155.624115 352.808105 -35.815002 3.275422
169.107422 352.808105 -35.815002 3.744035
182.590698 352.808105 -35.815002 4.113273
196.074036 352.808105 -35.815002 3.870834
209.557312 352.808105 -35.815002 0.000000
223.040588 352.808105 -35.815002 0.000000
236.523926 352.808105 -35.815002 0.000000
250.007202 352.808105 -35.815002 0.000000
263.490540 352.808105 -35.815002 0.000000
276.973816 352.808105 -35.815002 0.000000
290.457092 352.808105 -35.815002 0.000000
303.940430 352.808105 -35.815002 0.000000
317.423706 352.808105 -35.815002 0.000000
330.907043 352.808105 -35.815002 0.000000
344.390320 352.808105 -35.815002 0.000000
-343.257996 339.324799 -35.815002 0.000000
-329.774689 339.324799 -35.815002 0.000000
-316.291382 339.324799 -35.815002 0.000000
-302.808105 339.324799 -35.815002 0.000000
-289.324799 339.324799 -35.815002 0.000000
-275.841492 339.324799 -35.815002 2.634881
-262.358185 339.324799 -35.815002 2.375357
-248.874893 339.324799 -35.815002 2.368149
-235.391602 339.324799 -35.815002 2.951322
-221.908295 339.324799 -35.815002 3.311214
-208.424988 339.324799 -35.815002 3.557205
-194.941696 339.324799 -35.815002 3.845618
-181.458389 339.324799 -35.815002 4.543391
-167.975098 339.324799 -35.815002 4.889895
-154.491791 339.324799 -35.815002 5.430816
-141.008499 339.324799 -35.815002 6.147442
-127.525192 339.324799 -35.815002 6.939170
-114.041885 339.324799 -35.815002 7.863375
-100.558594 339.324799 -35.815002 7.929227
-87.075287 339.324799 -35.815002 7.495846
-73.591980 339.324799 -35.815002 7.141682
-60.108704 339.324799 -35.815002 6.607810
-46.625397 339.324799 -35.815002 5.463251
-33.142090 339.324799 -35.815002 4.051577
-19.658783 339.324799 -35.815002 2.812228
-6.175476 339.324799 -35.815002 2.160928
7.307800 339.324799 -35.815002 1.925317
20.791107 339.324799 -35.815002 1.537313
34.274414 339.324799 -35.815002 1.428512
47.757721 339.324799 -35.815002 1.305074
61.240997 339.324799 -35.815002 1.417175
74.724304 339.324799 -35.815002 1.552471
88.207611 339.324799 -35.815002 2.067666
101.690918 339.324799 -35.815002 2.491295
115.174225 339.324799 -35.815002 2.929883
128.657501 339.324799 -35.815002 3.281307
142.140808 339.324799 -35.815002 3.256940
155.624115 339.324799 -35.815002 3.685632
169.107422 339.324799 -35.815002 3.951608
182.590698 339.324799 -35.815002 4.220617
196.074036 339.324799 -35.815002 3.750113
209.557312 339.324799 -35.815002 3.768246
223.040588 339.324799 -35.815002 3.484673
236.523926 339.324799 -35.815002 3.374303
250.007202 339.324799 -35.815002 2.866045
263.490540 339.324799 -35.815002 2.821427
276.973816 339.324799 -35.815002 0.000000
290.457092 339.324799 -35.815002 0.000000
303.940430 339.324799 -35.815002 0.000000
317.423706 339.324799 -35.815002 0.000000
330.907043 339.324799 -35.815002 0.000000
344.390320 339.324799 -35.815002 0.000000
-343.257996 325.841492 -35.815002 0.000000
-329.774689 325.841492 -35.815002 0.000000
-316.291382 325.841492 -35.815002 0.000000
-302.808105 325.841492 -35.815002 0.000000
-289.324799 325.841492 -35.815002 2.222541
-275.841492 325.841492 -35.815002 2.048706
-262.358185 325.841492 -35.815002 1.891971
-248.874893 325.841492 -35.815002 2.065694
-235.391602 325.841492 -35.815002 2.585580
-221.908295 325.841492 -35.815002 3.002191
-208.424988 325.841492 -35.815002 3.458129
-194.941696 325.841492 -35.815002 3.731704
-181.458389 325.841492 -35.815002 4.567508
-167.975098 325.841492 -35.815002 5.106339
-154.491791 325.841492 -35.815002 5.423995
-141.008499 325.841492 -35.815002 5.969019
-127.525192 325.841492 -35.815002 6.959385
-114.041885 325.841492 -35.815002 8.149147
-100.558594 325.841492 -35.815002 8.345716
-87.075287 325.841492 -35.815002 8.017839
-73.591980 325.841492 -35.815002 7.991974
-60.108704 325.841492 -35.815002 7.072079
-46.625397 325.841492 -35.815002 6.063145
-33.142090 325.841492 -35.815002 4.640899
-19.658783 325.841492 -35.815002 3.087144
-6.175476 325.841492 -35.815002 2.534707
7.307800 325.841492 -35.815002 2.157796
20.791107 325.841492 -35.815002 1.792629
34.274414 325.841492 -35.815002 1.537316
47.757721 325.841492 -35.815002 1.518290
61.240997 325.841492 -35.815002 1.680433
74.724304 325.841492 -35.815002 2.174723
88.207611 325.841492 -35.815002 2.648572
101.690918 325.841492 -35.815002 3.496175
115.174225 325.841492 -35.815002 3.700098
128.657501 325.841492 -35.815002 4.131681
142.140808 325.841492 -35.815002 4.042917
155.624115 325.841492 -35.815002 4.212876
169.107422 325.841492 -35.815002 4.282278
182.590698 325.841492 -35.815002 4.067441
196.074036 325.841492 -35.815002 3.651083
209.557312 325.841492 -35.815002 3.352426
223.040588 325.841492 -35.815002 3.115213
236.523926 325.841492 -35.815002 2.927847
250.007202 325.841492 -35.815002 2.495062
263.490540 325.841492 -35.815002 2.113894
276.973816 325.841492 -35.815002 2.560093
290.457092 325.841492 -35.815002 2.762008
303.940430 325.841492 -35.815002 0.000000
317.423706 325.841492 -35.815002 0.000000
330.907043 325.841492 -35.815002 0.000000
344.390320 325.841492 -35.815002 0.000000
-343.257996 312.358185 -35.815002 0.000000
-329.774689 312.358185 -35.815002 0.000000
-316.291382 312.358185 -35.815002 0.000000
-302.808105 312.358185 -35.815002 1.442199
-289.324799 312.358185 -35.815002 1.450703
-275.841492 312.358185 -35.815002 1.482457
-262.358185 312.358185 -35.815002 1.645919
-248.874893 312.358185 -35.815002 1.791237
-235.391602 312.358185 -35.815002 2.117819
-221.908295 312.358185 -35.815002 2.589010
-208.424988 312.358185 -35.815002 3.145216
-194.941696 312.358185 -35.815002 3.632319
-181.458389 312.358185 -35.815002 4.097299
-167.975098 312.358185 -35.815002 4.936659
-154.491791 312.358185 -35.815002 5.424834
-141.008499 312.358185 -35.815002 6.549187
-127.525192 312.358185 -35.815002 7.390913
-114.041885 312.358185 -35.815002 7.897453
-100.558594 312.358185 -35.815002 8.302089
-87.075287 312.358185 -35.815002 8.098153
-73.591980 312.358185 -35.815002 8.031154
-60.108704 312.358185 -35.815002 7.176094
-46.625397 312.358185 -35.815002 6.458876
-33.142090 312.358185 -35.815002 5.117916
-19.658783 312.358185 -35.815002 3.769742
-6.175476 312.358185 -35.815002 3.099635
7.307800 312.358185 -35.815002 2.444047
20.791107 312.358185 -35.815002 2.144393
34.274414 312.358185 -35.815002 1.807305
47.757721 312.358185 -35.815002 1.816255
61.240997 312.358185 -35.815002 2.130563
74.724304 312.358185 -35.815002 2.604848
88.207611 312.358185 -35.815002 3.438926
101.690918 312.358185 -35.815002 4.338460
115.174225 312.358185 -35.815002 4.822772
128.657501 312.358185 -35.815002 4.459967
142.140808 312.358185 -35.815002 4.212795
155.624115 312.358185 -35.815002 4.502825
169.107422 312.358185 -35.815002 4.409473
182.590698 312.358185 -35.815002 4.032444
196.074036 312.358185 -35.815002 3.676895
209.557312 312.358185 -35.815002 2.988271
223.040588 312.358185 -35.815002 2.677248
236.523926 312.358185 -35.815002 2.357040
250.007202 312.358185 -35.815002 1.990477
263.490540 312.358185 -35.815002 1.660421
276.973816 312.358185 -35.815002 1.597551
290.457092 312.358185 -35.815002 1.689181
303.940430 312.358185 -35.815002 0.000000
317.423706 312.358185 -35.815002 0.000000
330.907043 312.358185 -35.815002 0.000000
344.390320 312.358185 -35.815002 0.000000
-343.257996 298.874878 -35.815002 0.000000
-329.774689 298.874878 -35.815002 0.000000
-316.291382 298.874878 -35.815002 1.071219
-302.808105 298.874878 -35.815002 0.920152
-289.324799 298.874878 -35.815002 1.043582
-275.841492 298.874878 -35.815002 1.045906
-262.358185 298.874878 -35.815002 1.115086
-248.874893 298.874878 -35.815002 1.275583
-235.391602 298.874878 -35.815002 1.543879
-221.908295 298.874878 -35.815002 2.184921
-208.424988 298.874878 -35.815002 2.747488
-194.941696 298.874878 -35.815002 3.358367
-181.458389 298.874878 -35.815002 4.014206
-167.975098 298.874878 -35.815002 4.331951
-154.491791 298.874878 -35.815002 5.237331
-141.008499 298.874878 -35.815002 5.863996
-127.525192 298.874878 -35.815002 6.915389
-114.041885 298.874878 -35.815002 7.099415
-100.558594 298.874878 -35.815002 7.893594
-87.075287 298.874878 -35.815002 7.498991
-73.591980 298.874878 -35.815002 7.080887
-60.108704 298.874878 -35.815002 7.235994
-46.625397 298.874878 -35.815002 6.851748
-33.142090 298.874878 -35.815002 5.682887
-19.658783 298.874878 -35.815002 4.769954
-6.175476 298.874878 -35.815002 3.776962
7.307800 298.874878 -35.815002 2.821654
20.791107 298.874878 -35.815002 2.725208
34.274414 298.874878 -35.815002 2.297480
47.757721 298.874878 -35.815002 2.071956
61.240997 298.874878 -35.815002 2.521023
74.724304 298.874878 -35.815002 3.453333
88.207611 298.874878 -35.815002 4.895435
101.690918 298.874878 -35.815002 5.614354
115.174225 298.874878 -35.815002 5.484621
128.657501 298.874878 -35.815002 5.201690
142.140808 298.874878 -35.815002 4.753525
155.624115 298.874878 -35.815002 4.447009
169.107422 298.874878 -35.815002 4.401045
182.590698 298.874878 -35.815002 4.165104
196.074036 298.874878 -35.815002 3.287421
209.557312 298.874878 -35.815002 2.788978
223.040588 298.874878 -35.815002 2.335624
236.523926 298.874878 -35.815002 1.923992
250.007202 298.874878 -35.815002 1.582632
263.490540 298.874878 -35.815002 1.480804
276.973816 298.874878 -35.815002 1.374649
290.457092 298.874878 -35.815002 1.191670
303.940430 298.874878 -35.815002 1.246693
317.423706 298.874878 -35.815002 0.000000
330.907043 298.874878 -35.815002 0.000000
344.390320 298.874878 -35.815002 0.000000
-343.257996 285.391602 -35.815002 0.000000
-329.774689 285.391602 -35.815002 0.000000
-316.291382 285.391602 -35.815002 0.671050
-302.808105 285.391602 -35.815002 0.634805
-289.324799 285.391602 -35.815002 0.727886
-275.841492 285.391602 -35.815002 0.860105
-262.358185 285.391602 -35.815002 0.889174
-248.874893 285.391602 -35.815002 1.110510
-235.391602 285.391602 -35.815002 1.462142
-221.908295 285.391602 -35.815002 1.944528
-208.424988 285.391602 -35.815002 2.758178
-194.941696 285.391602 -35.815002 3.539728
-181.458389 285.391602 -35.815002 4.093663
-167.975098 285.391602 -35.815002 4.472929
-154.491791 285.391602 -35.815002 4.699910
-141.008499 285.391602 -35.815002 5.688265
-127.525192 285.391602 -35.815002 5.829631
-114.041885 285.391602 -35.815002 6.252345
-100.558594 285.391602 -35.815002 6.906015
-87.075287 285.391602 -35.815002 6.497073
-73.591980 285.391602 -35.815002 6.114096
-60.108704 285.391602 -35.815002 6.694853
-46.625397 285.391602 -35.815002 7.062933
-33.142090 285.391602 -35.815002 6.123180
-19.658783 285.391602 -35.815002 5.158133
-6.175476 285.391602 -35.815002 4.065446
7.307800 285.391602 -35.815002 3.326376
20.791107 285.391602 -35.815002 3.075666
34.274414 285.391602 -35.815002 2.835351
47.757721 285.391602 -35.815002 2.734801
61.240997 285.391602 -35.815002 3.208215
74.724304 285.391602 -35.815002 4.686103
88.207611 285.391602 -35.815002 6.015614
101.690918 285.391602 -35.815002 6.461302
115.174225 285.391602 -35.815002 6.264056
128.657501 285.391602 -35.815002 5.590037
142.140808 285.391602 -35.815002 5.047379
155.624115 285.391602 -35.815002 4.602644
169.107422 285.391602 -35.815002 4.256152
182.590698 285.391602 -35.815002 3.893851
196.074036 285.391602 -35.815002 3.283529
209.557312 285.391602 -35.815002 2.625221
223.040588 285.391602 -35.815002 2.175986
236.523926 285.391602 -35.815002 1.787676
250.007202 285.391602 -35.815002 1.444168
263.490540 285.391602 -35.815002 1.269354
276.973816 285.391602 -35.815002 1.014004
290.457092 285.391602 -35.815002 0.945592
303.940430 285.391602 -35.815002 0.956497
317.423706 285.391602 -35.815002 0.000000
330.907043 285.391602 -35.815002 0.000000
344.390320 285.391602 -35.815002 0.000000
-343.257996 271.908295 -35.815002 0.000000
-329.774689 271.908295 -35.815002 0.000000
-316.291382 271.908295 -35.815002 0.555508
-302.808105 271.908295 -35.815002 0.535243
-289.324799 271.908295 -35.815002 0.673458
-275.841492 271.908295 -35.815002 0.742822
-262.358185 271.908295 -35.815002 0.803771
-248.874893 271.908295 -35.815002 1.040805
-235.391602 271.908295 -35.815002 1.386497
-221.908295 271.908295 -35.815002 1.861098
-208.424988 271.908295 -35.815002 2.661000
-194.941696 271.908295 -35.815002 3.351480
-181.458389 271.908295 -35.815002 3.924296
-167.975098 271.908295 -35.815002 4.204314
-154.491791 271.908295 -35.815002 4.562171
-141.008499 271.908295 -35.815002 5.039208
-127.525192 271.908295 -35.815002 5.465708
-114.041885 271.908295 -35.815002 5.831387
-100.558594 271.908295 -35.815002 6.035400
-87.075287 271.908295 -35.815002 5.978521
-73.591980 271.908295 -35.815002 6.445346
-60.108704 271.908295 -35.815002 6.350640
-46.625397 271.908295 -35.815002 6.567020
-33.142090 271.908295 -35.815002 6.095683
-19.658783 271.908295 -35.815002 5.892108
-6.175476 271.908295 -35.815002 4.962543
7.307800 271.908295 -35.815002 4.139146
20.791107 271.908295 -35.815002 3.728898
34.274414 271.908295 -35.815002 3.457186
47.757721 271.908295 -35.815002 3.651261
61.240997 271.908295 -35.815002 4.475523
74.724304 271.908295 -35.815002 5.744746
88.207611 271.908295 -35.815002 6.893783
101.690918 271.908295 -35.815002 6.893439
115.174225 271.908295 -35.815002 6.410696
128.657501 271.908295 -35.815002 5.430706
142.140808 271.908295 -35.815002 4.966382
155.624115 271.908295 -35.815002 4.496253
169.107422 271.908295 -35.815002 4.068628
182.590698 271.908295 -35.815002 3.535484
196.074036 271.908295 -35.815002 3.004815
209.557312 271.908295 -35.815002 2.498579
223.040588 271.908295 -35.815002 1.930859
236.523926 271.908295 -35.815002 1.457796
250.007202 271.908295 -35.815002 1.236459
263.490540 271.908295 -35.815002 0.973059
276.973816 271.908295 -35.815002 0.795896
290.457092 271.908295 -35.815002 0.739352
303.940430 271.908295 -35.815002 0.767679
317.423706 271.908295 -35.815002 0.940181
330.907043 271.908295 -35.815002 0.000000
344.390320 271.908295 -35.815002 0.000000
-343.257996 258.424988 -35.815002 0.000000
-329.774689 258.424988 -35.815002 0.000000
-316.291382 258.424988 -35.815002 0.465815
-302.808105 258.424988 -35.815002 0.491096
-289.324799 258.424988 -35.815002 0.581077
-275.841492 258.424988 -35.815002 0.667154
-262.358185 258.424988 -35.815002 0.847922
-248.874893 258.424988 -35.815002 1.076126
-235.391602 258.424988 -35.815002 1.463719
-221.908295 258.424988 -35.815002 1.950003
-208.424988 258.424988 -35.815002 2.523658
-194.941696 258.424988 -35.815002 3.032797
-181.458389 258.424988 -35.815002 3.376815
-167.975098 258.424988 -35.815002 4.050931
-154.491791 258.424988 -35.815002 4.213961
-141.008499 258.424988 -35.815002 4.937951
-127.525192 258.424988 -35.815002 5.294984
-114.041885 258.424988 -35.815002 5.299267
-100.558594 258.424988 -35.815002 5.730752
-87.075287 258.424988 -35.815002 5.918234
-73.591980 258.424988 -35.815002 6.054084
-60.108704 258.424988 -35.815002 5.919265
-46.625397 258.424988 -35.815002 5.989891
-33.142090 258.424988 -35.815002 6.205722
-19.658783 258.424988 -35.815002 6.084024
-6.175476 258.424988 -35.815002 5.395010
7.307800 258.424988 -35.815002 4.815175
20.791107 258.424988 -35.815002 4.386102
34.274414 258.424988 -35.815002 4.329736
47.757721 258.424988 -35.815002 4.755801
61.240997 258.424988 -35.815002 5.473142
74.724304 258.424988 -35.815002 6.890396
88.207611 258.424988 -35.815002 7.533377
101.690918 258.424988 -35.815002 7.191633
115.174225 258.424988 -35.815002 6.201285
128.657501 258.424988 -35.815002 5.649580
142.140808 258.424988 -35.815002 5.045022
155.624115 258.424988 -35.815002 4.312122
169.107422 258.424988 -35.815002 3.856567
182.590698 258.424988 -35.815002 3.441156
196.074036 258.424988 -35.815002 3.099784
209.557312 258.424988 -35.815002 2.573550
223.040588 258.424988 -35.815002 1.922667
236.523926 258.424988 -35.815002 1.464823
250.007202 258.424988 -35.815002 1.176130
263.490540 258.424988 -35.815002 0.910480
276.973816 258.424988 -35.815002 0.675918
290.457092 258.424988 -35.815002 0.599519
303.940430 258.424988 -35.815002 0.552015
317.423706 258.424988 -35.815002 0.610285
330.907043 258.424988 -35.815002 0.000000
344.390320 258.424988 -35.815002 0.000000
-343.257996 244.941696 -35.815002 0.000000
-329.774689 244.941696 -35.815002 0.000000
-316.291382 244.941696 -35.815002 0.408536
-302.808105 244.941696 -35.815002 0.445784
-289.324799 244.941696 -35.815002 0.544667
-275.841492 244.941696 -35.815002 0.663952
-262.358185 244.941696 -35.815002 0.857550
-248.874893 244.941696 -35.815002 1.114741
-235.391602 244.941696 -35.815002 1.355431
-221.908295 244.941696 -35.815002 1.797665
-208.424988 244.941696 -35.815002 2.306891
-194.941696 244.941696 -35.815002 2.915458
-181.458389 244.941696 -35.815002 3.228105
-167.975098 244.941696 -35.815002 3.572546
-154.491791 244.941696 -35.815002 4.132154
-141.008499 244.941696 -35.815002 4.321578
-127.525192 244.941696 -35.815002 4.722135
-114.041885 244.941696 -35.815002 4.869900
-100.558594 244.941696 -35.815002 5.252796
-87.075287 244.941696 -35.815002 5.589660
-73.591980 244.941696 -35.815002 5.873991
-60.108704 244.941696 -35.815002 5.828653
-46.625397 244.941696 -35.815002 5.704700
-33.142090 244.941696 -35.815002 5.674895
-19.658783 244.941696 -35.815002 5.932367
-6.175476 244.941696 -35.815002 5.475337
7.307800 244.941696 -35.815002 4.981636
20.791107 244.941696 -35.815002 4.872497
34.274414 244.941696 -35.815002 5.426943
47.757721 244.941696 -35.815002 5.927489
61.240997 244.941696 -35.815002 6.786409
74.724304 244.941696 -35.815002 7.708484
88.207611 244.941696 -35.815002 7.502157
101.690918 244.941696 -35.815002 7.192156
115.174225 244.941696 -35.815002 6.226241
128.657501 244.941696 -35.815002 5.160228
142.140808 244.941696 -35.815002 4.623731
155.624115 244.941696 -35.815002 4.086805
169.107422 244.941696 -35.815002 3.802151
182.590698 244.941696 -35.815002 3.580074
196.074036 244.941696 -35.815002 3.130426
209.557312 244.941696 -35.815002 2.566253
223.040588 244.941696 -35.815002 1.995818
236.523926 244.941696 -35.815002 1.495479
250.007202 244.941696 -35.815002 1.012563
263.490540 244.941696 -35.815002 0.795226
276.973816 244.941696 -35.815002 0.569256
290.457092 244.941696 -35.815002 0.510115
303.940430 244.941696 -35.815002 0.458437
317.423706 244.941696 -35.815002 0.446944
330.907043 244.941696 -35.815002 0.000000
344.390320 244.941696 -35.815002 0.000000
-343.257996 231.458389 -35.815002 0.000000
-329.774689 231.458389 -35.815002 0.000000
-316.291382 231.458389 -35.815002 0.362159
-302.808105 231.458389 -35.815002 0.438546
-289.324799 231.458389 -35.815002 0.577896
-275.841492 231.458389 -35.815002 0.707825
-262.358185 231.458389 -35.815002 0.911920
-248.874893 231.458389 -35.815002 1.201078
-235.391602 231.458389 -35.815002 1.460630
-221.908295 231.458389 -35.815002 1.820588
-208.424988 231.458389 -35.815002 2.103526
-194.941696 231.458389 -35.815002 2.648969
-181.458389 231.458389 -35.815002 3.157089
-167.975098 231.458389 -35.815002 3.775898
-154.491791 231.458389 -35.815002 3.988733
-141.008499 231.458389 -35.815002 4.262095
-127.525192 231.458389 -35.815002 4.348589
-114.041885 231.458389 -35.815002 4.485448
-100.558594 231.458389 -35.815002 4.919464
-87.075287 231.458389 -35.815002 4.933227
-73.591980 231.458389 -35.815002 5.269689
-60.108704 231.458389 -35.815002 5.449018
-46.625397 231.458389 -35.815002 5.282423
-33.142090 231.458389 -35.815002 5.575437
-19.658783 231.458389 -35.815002 6.207269
-6.175476 231.458389 -35.815002 5.570834
7.307800 231.458389 -35.815002 5.377008
20.791107 231.458389 -35.815002 5.650172
34.274414 231.458389 -35.815002 5.948132
47.757721 231.458389 -35.815002 7.055340
61.240997 231.458389 -35.815002 7.555023
74.724304 231.458389 -35.815002 7.982460
88.207611 231.458389 -35.815002 7.225605
101.690918 231.458389 -35.815002 6.810752
115.174225 231.458389 -35.815002 5.438953
128.657501 231.458389 -35.815002 4.908413
142.140808 231.458389 -35.815002 4.397701
155.624115 231.458389 -35.815002 3.795656
169.107422 231.458389 -35.815002 3.701104
182.590698 231.458389 -35.815002 3.344174
196.074036 231.458389 -35.815002 2.906274
209.557312 231.458389 -35.815002 2.482916
223.040588 231.458389 -35.815002 1.997129
236.523926 231.458389 -35.815002 1.423445
250.007202 231.458389 -35.815002 0.949612
263.490540 231.458389 -35.815002 0.667439
276.973816 231.458389 -35.815002 0.490048
290.457092 231.458389 -35.815002 0.426087
303.940430 231.458389 -35.815002 0.346785
317.423706 231.458389 -35.815002 0.385777
330.907043 231.458389 -35.815002 0.000000
344.390320 231.458389 -35.815002 0.000000
-343.257996 217.975098 -35.815002 0.000000
-329.774689 217.975098 -35.815002 0.000000
-316.291382 217.975098 -35.815002 0.404329
-302.808105 217.975098 -35.815002 0.502752
-289.324799 217.975098 -35.815002 0.624138
-275.841492 217.975098 -35.815002 0.767333
-262.358185 217.975098 -35.815002 0.996561
-248.874893 217.975098 -35.815002 1.304285
-235.391602 217.975098 -35.815002 1.635900
-221.908295 217.975098 -35.815002 1.790872
-208.424988 217.975098 -35.815002 2.012805
-194.941696 217.975098 -35.815002 2.639794
-181.458389 217.975098 -35.815002 3.098749
-167.975098 217.975098 -35.815002 3.635966
-154.491791 217.975098 -35.815002 3.927303
-141.008499 217.975098 -35.815002 4.080152
-127.525192 217.975098 -35.815002 4.007971
-114.041885 217.975098 -35.815002 4.389319
-100.558594 217.975098 -35.815002 4.202076
-87.075287 217.975098 -35.815002 4.415381
-73.591980 217.975098 -35.815002 4.893677
-60.108704 217.975098 -35.815002 4.834871
-46.625397 217.975098 -35.815002 5.310968
-33.142090 217.975098 -35.815002 5.710722
-19.658783 217.975098 -35.815002 5.955946
-6.175476 217.975098 -35.815002 5.823717
7.307800 217.975098 -35.815002 5.576849
20.791107 217.975098 -35.815002 5.847548
34.274414 217.975098 -35.815002 6.462482
47.757721 217.975098 -35.815002 7.127139
61.240997 217.975098 -35.815002 7.938508
74.724304 217.975098 -35.815002 7.628792
88.207611 217.975098 -35.815002 6.639485
101.690918 217.975098 -35.815002 5.562826
115.174225 217.975098 -35.815002 4.797855
128.657501 217.975098 -35.815002 4.265243
142.140808 217.975098 -35.815002 3.753165
155.624115 217.975098 -35.815002 3.178964
169.107422 217.975098 -35.815002 3.083943
182.590698 217.975098 -35.815002 2.950493
196.074036 217.975098 -35.815002 2.559373
209.557312 217.975098 -35.815002 2.272951
223.040588 217.975098 -35.815002 1.781837
236.523926 217.975098 -35.815002 1.272466
250.007202 217.975098 -35.815002 0.902867
263.490540 217.975098 -35.815002 0.628551
276.973816 217.975098 -35.815002 0.461433
290.457092 217.975098 -35.815002 0.394181
303.940430 217.975098 -35.815002 0.289504
317.423706 217.975098 -35.815002 0.332456
330.907043 217.975098 -35.815002 0.000000
344.390320 217.975098 -35.815002 0.000000
-343.257996 204.491791 -35.815002 0.000000
-329.774689 204.491791 -35.815002 0.000000
-316.291382 204.491791 -35.815002 0.496761
-302.808105 204.491791 -35.815002 0.564338
-289.324799 204.491791 -35.815002 0.658659
-275.841492 204.491791 -35.815002 0.766577
-262.358185 204.491791 -35.815002 1.009930
-248.874893 204.491791 -35.815002 1.348417
-235.391602 204.491791 -35.815002 1.685542
-221.908295 204.491791 -35.815002 1.913594
-208.424988 204.491791 -35.815002 2.090078
-194.941696 204.491791 -35.815002 2.724442
-181.458389 204.491791 -35.815002 3.128139
-167.975098 204.491791 -35.815002 3.621213
-154.491791 204.491791 -35.815002 3.717536
-141.008499 204.491791 -35.815002 4.055034
-127.525192 204.491791 -35.815002 4.189626
-114.041885 204.491791 -35.815002 4.135055
-100.558594 204.491791 -35.815002 3.777822
-87.075287 204.491791 -35.815002 3.980639
-73.591980 204.491791 -35.815002 4.504848
-60.108704 204.491791 -35.815002 4.424917
-46.625397 204.491791 -35.815002 5.112152
-33.142090 204.491791 -35.815002 5.575450
-19.658783 204.491791 -35.815002 5.632811
-6.175476 204.491791 -35.815002 5.543668
7.307800 204.491791 -35.815002 5.364949
20.791107 204.491791 -35.815002 5.953409
34.274414 204.491791 -35.815002 6.864938
47.757721 204.491791 -35.815002 7.271294
61.240997 204.491791 -35.815002 7.594007
74.724304 204.491791 -35.815002 6.815266
88.207611 204.491791 -35.815002 5.679224
101.690918 204.491791 -35.815002 4.641375
115.174225 204.491791 -35.815002 4.179516
128.657501 204.491791 -35.815002 3.393332
142.140808 204.491791 -35.815002 3.110003
155.624115 204.491791 -35.815002 2.989069
169.107422 204.491791 -35.815002 2.682112
182.590698 204.491791 -35.815002 2.523222
196.074036 204.491791 -35.815002 2.115992
209.557312 204.491791 -35.815002 1.917123
223.040588 204.491791 -35.815002 1.571616
236.523926 204.491791 -35.815002 1.158342
250.007202 204.491791 -35.815002 0.825250
263.490540 204.491791 -35.815002 0.582234
276.973816 204.491791 -35.815002 0.440522
290.457092 204.491791 -35.815002 0.352795
303.940430 204.491791 -35.815002 0.273056
317.423706 204.491791 -35.815002 0.270423
330.907043 204.491791 -35.815002 0.000000
344.390320 204.491791 -35.815002 0.000000
-343.257996 191.008499 -35.815002 0.000000
-329.774689 191.008499 -35.815002 0.000000
-316.291382 191.008499 -35.815002 0.523723
-302.808105 191.008499 -35.815002 0.586267
-289.324799 191.008499 -35.815002 0.741599
-275.841492 191.008499 -35.815002 0.866363
-262.358185 191.008499 -35.815002 1.061784
-248.874893 191.008499 -35.815002 1.355901
-235.391602 191.008499 -35.815002 1.747531
-221.908295 191.008499 -35.815002 2.020980
-208.424988 191.008499 -35.815002 2.381668
-194.941696 191.008499 -35.815002 2.915493
-181.458389 191.008499 -35.815002 3.164001
-167.975098 191.008499 -35.815002 3.470931
-154.491791 191.008499 -35.815002 3.642527
-141.008499 191.008499 -35.815002 3.864689
-127.525192 191.008499 -35.815002 3.965183
-114.041885 191.008499 -35.815002 4.028973
-100.558594 191.008499 -35.815002 3.775481
-87.075287 191.008499 -35.815002 3.715342
-73.591980 191.008499 -35.815002 3.958093
-60.108704 191.008499 -35.815002 4.344157
-46.625397 191.008499 -35.815002 4.666681
-33.142090 191.008499 -35.815002 5.236268
-19.658783 191.008499 -35.815002 5.376885
-6.175476 191.008499 -35.815002 5.438755
7.307800 191.008499 -35.815002 5.743139
20.791107 191.008499 -35.815002 6.007094
34.274414 191.008499 -35.815002 6.232444
47.757721 191.008499 -35.815002 7.085198
61.240997 191.008499 -35.815002 6.925723
74.724304 191.008499 -35.815002 6.145822
88.207611 191.008499 -35.815002 4.788883
101.690918 191.008499 -35.815002 4.105265
115.174225 191.008499 -35.815002 3.652143
128.657501 191.008499 -35.815002 3.046128
142.140808 191.008499 -35.815002 2.754322
155.624115 191.008499 -35.815002 2.785390
169.107422 191.008499 -35.815002 2.390469
182.590698 191.008499 -35.815002 2.155161
196.074036 191.008499 -35.815002 1.962635
209.557312 191.008499 -35.815002 1.717831
223.040588 191.008499 -35.815002 1.398777
236.523926 191.008499 -35.815002 0.983719
250.007202 191.008499 -35.815002 0.653829
263.490540 191.008499 -35.815002 0.517856
276.973816 191.008499 -35.815002 0.403520
290.457092 191.008499 -35.815002 0.338006
303.940430 191.008499 -35.815002 0.277800
317.423706 191.008499 -35.815002 0.248478
330.907043 191.008499 -35.815002 0.000000
344.390320 191.008499 -35.815002 0.000000
-343.257996 177.525192 -35.815002 0.000000
-329.774689 177.525192 -35.815002 0.000000
-316.291382 177.525192 -35.815002 0.568819
-302.808105 177.525192 -35.815002 0.656335
-289.324799 177.525192 -35.815002 0.773055
-275.841492 177.525192 -35.815002 0.887020
-262.358185 177.525192 -35.815002 1.117765
-248.874893 177.525192 -35.815002 1.349118
-235.391602 177.525192 -35.815002 1.887658
-221.908295 177.525192 -35.815002 2.171296
-208.424988 177.525192 -35.815002 2.551224
-194.941696 177.525192 -35.815002 3.048953
-181.458389 177.525192 -35.815002 3.340748
-167.975098 177.525192 -35.815002 3.307900
-154.491791 177.525192 -35.815002 3.587929
-141.008499 177.525192 -35.815002 3.686414
-127.525192 177.525192 -35.815002 4.020099
-114.041885 177.525192 -35.815002 3.924334
-100.558594 177.525192 -35.815002 3.612938
-87.075287 177.525192 -35.815002 3.612530
-73.591980 177.525192 -35.815002 3.898933
-60.108704 177.525192 -35.815002 4.338663
-46.625397 177.525192 -35.815002 4.690494
-33.142090 177.525192 -35.815002 4.784379
-19.658783 177.525192 -35.815002 4.991091
-6.175476 177.525192 -35.815002 5.231499
7.307800 177.525192 -35.815002 5.671184
20.791107 177.525192 -35.815002 5.789501
34.274414 177.525192 -35.815002 5.677895
47.757721 177.525192 -35.815002 6.064098
61.240997 177.525192 -35.815002 5.776865
74.724304 177.525192 -35.815002 5.240615
88.207611 177.525192 -35.815002 4.252913
101.690918 177.525192 -35.815002 3.917951
115.174225 177.525192 -35.815002 3.407128
128.657501 177.525192 -35.815002 2.844772
142.140808 177.525192 -35.815002 2.446910
155.624115 177.525192 -35.815002 2.402381
169.107422 177.525192 -35.815002 2.195279
182.590698 177.525192 -35.815002 1.917752
196.074036 177.525192 -35.815002 1.769267
209.557312 177.525192 -35.815002 1.447804
223.040588 177.525192 -35.815002 1.148095
236.523926 177.525192 -35.815002 0.816761
250.007202 177.525192 -35.815002 0.602191
263.490540 177.525192 -35.815002 0.456689
276.973816 177.525192 -35.815002 0.342064
290.457092 177.525192 -35.815002 0.280377
303.940430 177.525192 -35.815002 0.244351
317.423706 177.525192 -35.815002 0.231347
330.907043 177.525192 -35.815002 0.000000
344.390320 177.525192 -35.815002 0.000000
-343.257996 164.041885 -35.815002 0.000000
-329.774689 164.041885 -35.815002 0.000000
-316.291382 164.041885 -35.815002 0.613636
-302.808105 164.041885 -35.815002 0.673419
-289.324799 164.041885 -35.815002 0.788683
-275.841492 164.041885 -35.815002 0.952228
-262.358185 164.041885 -35.815002 1.179214
-248.874893 164.041885 -35.815002 1.482834
-235.391602 164.041885 -35.815002 1.851733
-221.908295 164.041885 -35.815002 2.263373
-208.424988 164.041885 -35.815002 2.654880
-194.941696 164.041885 -35.815002 3.620873
-181.458389 164.041885 -35.815002 3.617067
-167.975098 164.041885 -35.815002 3.530139
-154.491791 164.041885 -35.815002 3.802183
-141.008499 164.041885 -35.815002 3.880069
-127.525192 164.041885 -35.815002 4.004904
-114.041885 164.041885 -35.815002 3.888326
-100.558594 164.041885 -35.815002 3.516440
-87.075287 164.041885 -35.815002 3.635879
-73.591980 164.041885 -35.815002 3.763281
-60.108704 164.041885 -35.815002 4.059605
-46.625397 164.041885 -35.815002 4.354054
-33.142090 164.041885 -35.815002 4.410319
-19.658783 164.041885 -35.815002 4.632333
-6.175476 164.041885 -35.815002 4.735397
7.307800 164.041885 -35.815002 5.281670
20.791107 164.041885 -35.815002 5.398252
34.274414 164.041885 -35.815002 5.114858
47.757721 164.041885 -35.815002 5.720389
61.240997 164.041885 -35.815002 5.378148
74.724304 164.041885 -35.815002 4.988668
88.207611 164.041885 -35.815002 4.339514
101.690918 164.041885 -35.815002 3.461891
115.174225 164.041885 -35.815002 3.216547
128.657501 164.041885 -35.815002 2.578269
142.140808 164.041885 -35.815002 2.127640
155.624115 164.041885 -35.815002 1.937202
169.107422 164.041885 -35.815002 1.883211
182.590698 164.041885 -35.815002 1.765218
196.074036 164.041885 -35.815002 1.506397
209.557312 164.041885 -35.815002 1.299106
223.040588 164.041885 -35.815002 0.978622
236.523926 164.041885 -35.815002 0.738454
250.007202 164.041885 -35.815002 0.541274
263.490540 164.041885 -35.815002 0.384297
276.973816 164.041885 -35.815002 0.289854
290.457092 164.041885 -35.815002 0.231938
303.940430 164.041885 -35.815002 0.194816
317.423706 164.041885 -35.815002 0.191172
330.907043 164.041885 -35.815002 0.000000
344.390320 164.041885 -35.815002 0.000000
-343.257996 150.558594 -35.815002 0.000000
-329.774689 150.558594 -35.815002 0.000000
-316.291382 150.558594 -35.815002 0.819237
-302.808105 150.558594 -35.815002 0.807809
-289.324799 150.558594 -35.815002 0.890887
-275.841492 150.558594 -35.815002 1.068725
-262.358185 150.558594 -35.815002 1.392282
-248.874893 150.558594 -35.815002 1.664260
-235.391602 150.558594 -35.815002 1.956758
-221.908295 150.558594 -35.815002 2.520980
-208.424988 150.558594 -35.815002 3.122497
-194.941696 150.558594 -35.815002 3.727581
-181.458389 150.558594 -35.815002 4.202852
-167.975098 150.558594 -35.815002 3.825993
-154.491791 150.558594 -35.815002 4.247160
-141.008499 150.558594 -35.815002 4.204079
-127.525192 150.558594 -35.815002 4.030821
-114.041885 150.558594 -35.815002 3.986428
-100.558594 150.558594 -35.815002 3.808202
-87.075287 150.558594 -35.815002 3.940954
-73.591980 150.558594 -35.815002 4.073048
-60.108704 150.558594 -35.815002 4.292454
-46.625397 150.558594 -35.815002 4.356195
-33.142090 150.558594 -35.815002 4.404460
-19.658783 150.558594 -35.815002 4.507480
-6.175476 150.558594 -35.815002 4.344394
7.307800 150.558594 -35.815002 5.295743
20.791107 150.558594 -35.815002 5.505115
34.274414 150.558594 -35.815002 5.546517
47.757721 150.558594 -35.815002 5.754847
61.240997 150.558594 -35.815002 5.671511
74.724304 150.558594 -35.815002 5.129510
88.207611 150.558594 -35.815002 4.230957
101.690918 150.558594 -35.815002 3.542012
115.174225 150.558594 -35.815002 3.036327
128.657501 150.558594 -35.815002 2.461036
142.140808 150.558594 -35.815002 2.262121
155.624115 150.558594 -35.815002 1.990750
169.107422 150.558594 -35.815002 1.792619
182.590698 150.558594 -35.815002 1.594643
196.074036 150.558594 -35.815002 1.362102
209.557312 150.558594 -35.815002 1.108686
223.040588 150.558594 -35.815002 0.871175
236.523926 150.558594 -35.815002 0.667457
250.007202 150.558594 -35.815002 0.472748
263.490540 150.558594 -35.815002 0.329145
276.973816 150.558594 -35.815002 0.254657
290.457092 150.558594 -35.815002 0.202041
303.940430 150.558594 -35.815002 0.175257
317.423706 150.558594 -35.815002 0.166513
330.907043 150.558594 -35.815002 0.000000
344.390320 150.558594 -35.815002 0.000000
-343.257996 137.075287 -35.815002 0.000000
-329.774689 137.075287 -35.815002 0.000000
-316.291382 137.075287 -35.815002 0.000000
-302.808105 137.075287 -35.815002 1.034570
-289.324799 137.075287 -35.815002 1.088828
-275.841492 137.075287 -35.815002 1.144191
-262.358185 137.075287 -35.815002 1.553457
-248.874893 137.075287 -35.815002 1.836319
-235.391602 137.075287 -35.815002 2.117450
-221.908295 137.075287 -35.815002 2.727428
-208.424988 137.075287 -35.815002 3.335193
-194.941696 137.075287 -35.815002 3.980572
-181.458389 137.075287 -35.815002 4.185452
-167.975098 137.075287 -35.815002 4.381794
-154.491791 137.075287 -35.815002 4.365047
-141.008499 137.075287 -35.815002 4.247445
-127.525192 137.075287 -35.815002 4.013288
-114.041885 137.075287 -35.815002 3.691031
-100.558594 137.075287 -35.815002 3.677856
-87.075287 137.075287 -35.815002 4.251717
-73.591980 137.075287 -35.815002 4.171595
-60.108704 137.075287 -35.815002 4.727252
-46.625397 137.075287 -35.815002 4.350034
-33.142090 137.075287 -35.815002 4.361613
-19.658783 137.075287 -35.815002 4.506514
-6.175476 137.075287 -35.815002 4.628525
7.307800 137.075287 -35.815002 5.035645
20.791107 137.075287 -35.815002 5.275191
34.274414 137.075287 -35.815002 5.860585
47.757721 137.075287 -35.815002 6.309896
61.240997 137.075287 -35.815002 5.651485
74.724304 137.075287 -35.815002 4.965003
88.207611 137.075287 -35.815002 4.104703
101.690918 137.075287 -35.815002 3.679166
115.174225 137.075287 -35.815002 3.130277
128.657501 137.075287 -35.815002 2.563888
142.140808 137.075287 -35.815002 2.195355
155.624115 137.075287 -35.815002 2.022841
169.107422 137.075287 -35.815002 1.747803
182.590698 137.075287 -35.815002 1.524414
196.074036 137.075287 -35.815002 1.255043
209.557312 137.075287 -35.815002 0.995707
223.040588 137.075287 -35.815002 0.758277
236.523926 137.075287 -35.815002 0.580890
250.007202 137.075287 -35.815002 0.413786
263.490540 137.075287 -35.815002 0.302301
276.973816 137.075287 -35.815002 0.234354
290.457092 137.075287 -35.815002 0.182530
303.940430 137.075287 -35.815002 0.162574
317.423706 137.075287 -35.815002 0.151423
330.907043 137.075287 -35.815002 0.000000
344.390320 137.075287 -35.815002 0.000000
-343.257996 123.591980 -35.815002 0.000000
-329.774689 123.591980 -35.815002 0.000000
-316.291382 123.591980 -35.815002 0.000000
-302.808105 123.591980 -35.815002 1.100345
-289.324799 123.591980 -35.815002 1.226556
-275.841492 123.591980 -35.815002 1.307800
-262.358185 123.591980 -35.815002 1.679688
-248.874893 123.591980 -35.815002 2.059303
-235.391602 123.591980 -35.815002 2.451338
-221.908295 123.591980 -35.815002 2.881345
-208.424988 123.591980 -35.815002 3.560639
-194.941696 123.591980 -35.815002 4.161571
-181.458389 123.591980 -35.815002 4.153572
-167.975098 123.591980 -35.815002 4.403402
-154.491791 123.591980 -35.815002 4.511250
-141.008499 123.591980 -35.815002 4.516849
-127.525192 123.591980 -35.815002 3.915933
-114.041885 123.591980 -35.815002 3.803198
-100.558594 123.591980 -35.815002 3.970128
-87.075287 123.591980 -35.815002 3.888011
-73.591980 123.591980 -35.815002 4.402889
-60.108704 123.591980 -35.815002 4.869441
-46.625397 123.591980 -35.815002 4.681783
-33.142090 123.591980 -35.815002 4.360022
-19.658783 123.591980 -35.815002 4.518740
-6.175476 123.591980 -35.815002 4.536304
7.307800 123.591980 -35.815002 5.215368
20.791107 123.591980 -35.815002 5.660366
34.274414 123.591980 -35.815002 5.956574
47.757721 123.591980 -35.815002 6.378252
61.240997 123.591980 -35.815002 6.433733
74.724304 123.591980 -35.815002 5.288050
88.207611 123.591980 -35.815002 4.037651
101.690918 123.591980 -35.815002 3.626735
115.174225 123.591980 -35.815002 3.162639
128.657501 123.591980 -35.815002 2.567774
142.140808 123.591980 -35.815002 2.509234
155.624115 123.591980 -35.815002 2.207936
169.107422 123.591980 -35.815002 1.837451
182.590698 123.591980 -35.815002 1.471537
196.074036 123.591980 -35.815002 1.172372
209.557312 123.591980 -35.815002 0.898543
223.040588 123.591980 -35.815002 0.676183
236.523926 123.591980 -35.815002 0.546674
250.007202 123.591980 -35.815002 0.410280
263.490540 123.591980 -35.815002 0.286407
276.973816 123.591980 -35.815002 0.211878
290.457092 123.591980 -35.815002 0.188235
303.940430 123.591980 -35.815002 0.148841
317.423706 123.591980 -35.815002 0.144202
330.907043 123.591980 -35.815002 0.000000
344.390320 123.591980 -35.815002 0.000000
-343.257996 110.108704 -35.815002 0.000000
-329.774689 110.108704 -35.815002 0.000000
-316.291382 110.108704 -35.815002 0.000000
-302.808105 110.108704 -35.815002 1.469116
-289.324799 110.108704 -35.815002 1.560610
-275.841492 110.108704 -35.815002 1.599625
-262.358185 110.108704 -35.815002 2.070484
-248.874893 110.108704 -35.815002 2.271714
-235.391602 110.108704 -35.815002 2.559949
-221.908295 110.108704 -35.815002 2.811974
-208.424988 110.108704 -35.815002 3.515928
-194.941696 110.108704 -35.815002 4.168381
-181.458389 110.108704 -35.815002 4.615424
-167.975098 110.108704 -35.815002 4.804048
-154.491791 110.108704 -35.815002 5.191431
-141.008499 110.108704 -35.815002 4.762965
-127.525192 110.108704 -35.815002 4.378214
-114.041885 110.108704 -35.815002 4.202567
-100.558594 110.108704 -35.815002 4.380559
-87.075287 110.108704 -35.815002 4.461051
-73.591980 110.108704 -35.815002 4.862436
-60.108704 110.108704 -35.815002 5.054056
-46.625397 110.108704 -35.815002 4.838120
-33.142090 110.108704 -35.815002 4.604212
-19.658783 110.108704 -35.815002 4.349104
-6.175476 110.108704 -35.815002 4.843861
7.307800 110.108704 -35.815002 4.980527
20.791107 110.108704 -35.815002 5.578403
34.274414 110.108704 -35.815002 6.447648
47.757721 110.108704 -35.815002 6.822600
61.240997 110.108704 -35.815002 6.529990
74.724304 110.108704 -35.815002 5.637366
88.207611 110.108704 -35.815002 4.214070
101.690918 110.108704 -35.815002 3.807868
115.174225 110.108704 -35.815002 3.338765
128.657501 110.108704 -35.815002 2.826780
142.140808 110.108704 -35.815002 2.537499
155.624115 110.108704 -35.815002 2.116167
169.107422 110.108704 -35.815002 1.707927
182.590698 110.108704 -35.815002 1.470370
196.074036 110.108704 -35.815002 1.159784
209.557312 110.108704 -35.815002 0.884180
223.040588 110.108704 -35.815002 0.689597
236.523926 110.108704 -35.815002 0.520903
250.007202 110.108704 -35.815002 0.381284
263.490540 110.108704 -35.815002 0.281592
276.973816 110.108704 -35.815002 0.226408
290.457092 110.108704 -35.815002 0.194193
303.940430 110.108704 -35.815002 0.150134
317.423706 110.108704 -35.815002 0.136476
330.907043 110.108704 -35.815002 0.000000
344.390320 110.108704 -35.815002 0.000000
-343.257996 96.625397 -35.815002 0.000000
-329.774689 96.625397 -35.815002 0.000000
-316.291382 96.625397 -35.815002 0.000000
-302.808105 96.625397 -35.815002 1.641658
-289.324799 96.625397 -35.815002 1.787008
-275.841492 96.625397 -35.815002 1.992021
-262.358185 96.625397 -35.815002 2.318521
-248.874893 96.625397 -35.815002 2.485836
-235.391602 96.625397 -35.815002 2.737823
-221.908295 96.625397 -35.815002 2.955430
-208.424988 96.625397 -35.815002 3.381768
-194.941696 96.625397 -35.815002 3.961261
-181.458389 96.625397 -35.815002 4.117024
-167.975098 96.625397 -35.815002 4.562916
-154.491791 96.625397 -35.815002 4.975701
-141.008499 96.625397 -35.815002 4.860704
-127.525192 96.625397 -35.815002 4.571039
-114.041885 96.625397 -35.815002 4.728442
-100.558594 96.625397 -35.815002 4.881371
-87.075287 96.625397 -35.815002 5.181949
-73.591980 96.625397 -35.815002 5.516448
-60.108704 96.625397 -35.815002 5.377391
-46.625397 96.625397 -35.815002 5.124808
-33.142090 96.625397 -35.815002 4.600412
-19.658783 96.625397 -35.815002 4.625645
-6.175476 96.625397 -35.815002 4.628671
7.307800 96.625397 -35.815002 4.838188
20.791107 96.625397 -35.815002 5.545152
34.274414 96.625397 -35.815002 7.129542
47.757721 96.625397 -35.815002 7.318736
61.240997 96.625397 -35.815002 6.757906
74.724304 96.625397 -35.815002 5.612114
88.207611 96.625397 -35.815002 4.592153
101.690918 96.625397 -35.815002 3.910135
115.174225 96.625397 -35.815002 3.543721
128.657501 96.625397 -35.815002 2.896173
142.140808 96.625397 -35.815002 2.559140
155.624115 96.625397 -35.815002 2.199835
169.107422 96.625397 -35.815002 1.957705
182.590698 96.625397 -35.815002 1.605443
196.074036 96.625397 -35.815002 1.199127
209.557312 96.625397 -35.815002 0.948138
223.040588 96.625397 -35.815002 0.704390
236.523926 96.625397 -35.815002 0.511559
250.007202 96.625397 -35.815002 0.353214
263.490540 96.625397 -35.815002 0.279054
276.973816 96.625397 -35.815002 0.227470
290.457092 96.625397 -35.815002 0.197568
303.940430 96.625397 -35.815002 0.163825
317.423706 96.625397 -35.815002 0.156601
330.907043 96.625397 -35.815002 0.000000
344.390320 96.625397 -35.815002 0.000000
-343.257996 83.142090 -35.815002 0.000000
-329.774689 83.142090 -35.815002 0.000000
-316.291382 83.142090 -35.815002 0.000000
-302.808105 83.142090 -35.815002 0.000000
-289.324799 83.142090 -35.815002 1.951411
-275.841492 83.142090 -35.815002 2.088366
-262.358185 83.142090 -35.815002 2.362925
-248.874893 83.142090 -35.815002 2.480625
-235.391602 83.142090 -35.815002 2.718560
-221.908295 83.142090 -35.815002 2.909468
-208.424988 83.142090 -35.815002 3.312984
-194.941696 83.142090 -35.815002 3.814439
-181.458389 83.142090 -35.815002 4.294194
-167.975098 83.142090 -35.815002 4.592798
-154.491791 83.142090 -35.815002 4.693923
-141.008499 83.142090 -35.815002 4.930012
-127.525192 83.142090 -35.815002 4.953695
-114.041885 83.142090 -35.815002 5.028782
-100.558594 83.142090 -35.815002 5.658392
-87.075287 83.142090 -35.815002 5.890862
-73.591980 83.142090 -35.815002 5.645075
-60.108704 83.142090 -35.815002 5.265669
-46.625397 83.142090 -35.815002 4.757882
-33.142090 83.142090 -35.815002 4.378412
-19.658783 83.142090 -35.815002 4.198816
-6.175476 83.142090 -35.815002 4.193357
7.307800 83.142090 -35.815002 4.602369
20.791107 83.142090 -35.815002 5.916297
34.274414 83.142090 -35.815002 6.766713
47.757721 83.142090 -35.815002 6.719819
61.240997 83.142090 -35.815002 6.357214
74.724304 83.142090 -35.815002 4.927260
88.207611 83.142090 -35.815002 4.431224
101.690918 83.142090 -35.815002 3.682535
115.174225 83.142090 -35.815002 3.570985
128.657501 83.142090 -35.815002 2.865461
142.140808 83.142090 -35.815002 2.594151
155.624115 83.142090 -35.815002 2.233370
169.107422 83.142090 -35.815002 2.058882
182.590698 83.142090 -35.815002 1.685061
196.074036 83.142090 -35.815002 1.339110
209.557312 83.142090 -35.815002 1.019405
223.040588 83.142090 -35.815002 0.763931
236.523926 83.142090 -35.815002 0.547503
250.007202 83.142090 -35.815002 0.372772
263.490540 83.142090 -35.815002 0.301821
276.973816 83.142090 -35.815002 0.242315
290.457092 83.142090 -35.815002 0.200654
303.940430 83.142090 -35.815002 0.191286
317.423706 83.142090 -35.815002 0.192201
330.907043 83.142090 -35.815002 0.000000
344.390320 83.142090 -35.815002 0.000000
-343.257996 69.658783 -35.815002 0.000000
-329.774689 69.658783 -35.815002 0.000000
-316.291382 69.658783 -35.815002 0.000000
-302.808105 69.658783 -35.815002 0.000000
-289.324799 69.658783 -35.815002 1.884971
-275.841492 69.658783 -35.815002 1.961241
-262.358185 69.658783 -35.815002 2.079441
-248.874893 69.658783 -35.815002 2.241065
-235.391602 69.658783 -35.815002 2.477507
-221.908295 69.658783 -35.815002 2.959717
-208.424988 69.658783 -35.815002 3.328189
-194.941696 69.658783 -35.815002 3.867061
-181.458389 69.658783 -35.815002 3.888200
-167.975098 69.658783 -35.815002 3.987013
-154.491791 69.658783 -35.815002 4.465972
-141.008499 69.658783 -35.815002 4.748846
-127.525192 69.658783 -35.815002 5.234991
-114.041885 69.658783 -35.815002 4.988673
-100.558594 69.658783 -35.815002 5.480864
-87.075287 69.658783 -35.815002 6.076329
-73.591980 69.658783 -35.815002 5.928381
-60.108704 69.658783 -35.815002 5.480668
-46.625397 69.658783 -35.815002 4.855078
-33.142090 69.658783 -35.815002 4.540001
-19.658783 69.658783 -35.815002 4.450672
-6.175476 69.658783 -35.815002 4.236781
7.307800 69.658783 -35.815002 4.788166
20.791107 69.658783 -35.815002 5.840940
34.274414 69.658783 -35.815002 6.128934
47.757721 69.658783 -35.815002 5.936263
61.240997 69.658783 -35.815002 5.590514
74.724304 69.658783 -35.815002 4.471426
88.207611 69.658783 -35.815002 3.973333
101.690918 69.658783 -35.815002 3.491285
115.174225 69.658783 -35.815002 3.203638
128.657501 69.658783 -35.815002 2.609619
142.140808 69.658783 -35.815002 2.339187
155.624115 69.658783 -35.815002 2.214302
169.107422 69.658783 -35.815002 1.989165
182.590698 69.658783 -35.815002 1.670994
196.074036 69.658783 -35.815002 1.312114
209.557312 69.658783 -35.815002 1.046074
223.040588 69.658783 -35.815002 0.751939
236.523926 69.658783 -35.815002 0.596331
250.007202 69.658783 -35.815002 0.433636
263.490540 69.658783 -35.815002 0.314815
276.973816 69.658783 -35.815002 0.247635
290.457092 69.658783 -35.815002 0.241645
303.940430 69.658783 -35.815002 0.222986
317.423706 69.658783 -35.815002 0.229981
330.907043 69.658783 -35.815002 0.000000
344.390320 69.658783 -35.815002 0.000000
-343.257996 56.175476 -35.815002 0.000000
-329.774689 56.175476 -35.815002 0.000000
-316.291382 56.175476 -35.815002 0.000000
-302.808105 56.175476 -35.815002 1.461278
-289.324799 56.175476 -35.815002 1.639684
-275.841492 56.175476 -35.815002 1.717001
-262.358185 56.175476 -35.815002 1.835901
-248.874893 56.175476 -35.815002 1.891459
-235.391602 56.175476 -35.815002 2.158275
-221.908295 56.175476 -35.815002 2.581357
-208.424988 56.175476 -35.815002 2.977517
-194.941696 56.175476 -35.815002 3.577062
-181.458389 56.175476 -35.815002 3.636189
-167.975098 56.175476 -35.815002 3.970723
-154.491791 56.175476 -35.815002 4.656475
-141.008499 56.175476 -35.815002 5.203112
-127.525192 56.175476 -35.815002 5.072744
-114.041885 56.175476 -35.815002 5.266247
-100.558594 56.175476 -35.815002 5.656209
-87.075287 56.175476 -35.815002 6.409094
-73.591980 56.175476 -35.815002 6.386261
-60.108704 56.175476 -35.815002 5.722568
-46.625397 56.175476 -35.815002 5.329203
-33.142090 56.175476 -35.815002 4.641327
-19.658783 56.175476 -35.815002 4.579553
-6.175476 56.175476 -35.815002 4.661664
7.307800 56.175476 -35.815002 4.812294
20.791107 56.175476 -35.815002 5.250971
34.274414 56.175476 -35.815002 5.865072
47.757721 56.175476 -35.815002 5.406847
61.240997 56.175476 -35.815002 4.598117
74.724304 56.175476 -35.815002 4.128597
88.207611 56.175476 -35.815002 3.783935
101.690918 56.175476 -35.815002 3.472229
115.174225 56.175476 -35.815002 3.065339
128.657501 56.175476 -35.815002 2.542994
142.140808 56.175476 -35.815002 2.222478
155.624115 56.175476 -35.815002 1.849744
169.107422 56.175476 -35.815002 1.773742
182.590698 56.175476 -35.815002 1.580088
196.074036 56.175476 -35.815002 1.327012
209.557312 56.175476 -35.815002 1.068366
223.040588 56.175476 -35.815002 0.848514
236.523926 56.175476 -35.815002 0.607780
250.007202 56.175476 -35.815002 0.459027
263.490540 56.175476 -35.815002 0.310487
276.973816 56.175476 -35.815002 0.276371
290.457092 56.175476 -35.815002 0.287491
303.940430 56.175476 -35.815002 0.265883
317.423706 56.175476 -35.815002 0.278656
330.907043 56.175476 -35.815002 0.000000
344.390320 56.175476 -35.815002 0.000000
-343.257996 42.692200 -35.815002 0.000000
-329.774689 42.692200 -35.815002 0.000000
-316.291382 42.692200 -35.815002 0.000000
-302.808105 42.692200 -35.815002 1.117795
-289.324799 42.692200 -35.815002 1.206124
-275.841492 42.692200 -35.815002 1.338093
-262.358185 42.692200 -35.815002 1.493951
-248.874893 42.692200 -35.815002 1.620417
-235.391602 42.692200 -35.815002 1.892388
-221.908295 42.692200 -35.815002 2.334467
-208.424988 42.692200 -35.815002 2.497422
-194.941696 42.692200 -35.815002 3.028641
-181.458389 42.692200 -35.815002 3.496636
-167.975098 42.692200 -35.815002 4.294756
-154.491791 42.692200 -35.815002 4.901622
-141.008499 42.692200 -35.815002 5.216035
-127.525192 42.692200 -35.815002 5.861676
-114.041885 42.692200 -35.815002 5.591642
-100.558594 42.692200 -35.815002 6.133353
-87.075287 42.692200 -35.815002 6.918797
-73.591980 42.692200 -35.815002 6.838403
-60.108704 42.692200 -35.815002 6.138213
-46.625397 42.692200 -35.815002 5.465755
-33.142090 42.692200 -35.815002 4.667931
-19.658783 42.692200 -35.815002 4.590744
-6.175476 42.692200 -35.815002 4.945079
7.307800 42.692200 -35.815002 5.150011
20.791107 42.692200 -35.815002 5.424838
34.274414 42.692200 -35.815002 5.317331
47.757721 42.692200 -35.815002 5.207365
61.240997 42.692200 -35.815002 4.701528
74.724304 42.692200 -35.815002 4.273899
88.207611 42.692200 -35.815002 3.918489
101.690918 42.692200 -35.815002 3.447903
115.174225 42.692200 -35.815002 2.959116
128.657501 42.692200 -35.815002 2.821706
142.140808 42.692200 -35.815002 2.347819
155.624115 42.692200 -35.815002 1.864774
169.107422 42.692200 -35.815002 1.706024
182.590698 42.692200 -35.815002 1.501702
196.074036 42.692200 -35.815002 1.252817
209.557312 42.692200 -35.815002 1.042924
223.040588 42.692200 -35.815002 0.885956
236.523926 42.692200 -35.815002 0.619879
250.007202 42.692200 -35.815002 0.454426
263.490540 42.692200 -35.815002 0.332993
276.973816 42.692200 -35.815002 0.318705
290.457092 42.692200 -35.815002 0.292243
303.940430 42.692200 -35.815002 0.289252
317.423706 42.692200 -35.815002 0.323409
330.907043 42.692200 -35.815002 0.000000
344.390320 42.692200 -35.815002 0.000000
-343.257996 29.208893 -35.815002 0.000000
-329.774689 29.208893 -35.815002 0.000000
-316.291382 29.208893 -35.815002 0.000000
-302.808105 29.208893 -35.815002 0.926240
-289.324799 29.208893 -35.815002 1.010588
-275.841492 29.208893 -35.815002 1.072780
-262.358185 29.208893 -35.815002 1.287366
-248.874893 29.208893 -35.815002 1.377054
-235.391602 29.208893 -35.815002 1.704833
-221.908295 29.208893 -35.815002 2.090857
-208.424988 29.208893 -35.815002 2.438311
-194.941696 29.208893 -35.815002 2.887436
-181.458389 29.208893 -35.815002 3.733259
-167.975098 29.208893 -35.815002 4.458819
-154.491791 29.208893 -35.815002 5.460822
-141.008499 29.208893 -35.815002 5.773542
-127.525192 29.208893 -35.815002 6.405678
-114.041885 29.208893 -35.815002 6.166259
-100.558594 29.208893 -35.815002 6.892811
-87.075287 29.208893 -35.815002 7.403203
-73.591980 29.208893 -35.815002 7.491655
-60.108704 29.208893 -35.815002 6.773596
-46.625397 29.208893 -35.815002 5.963460
-33.142090 29.208893 -35.815002 4.932313
-19.658783 29.208893 -35.815002 4.766283
-6.175476 29.208893 -35.815002 5.284062
7.307800 29.208893 -35.815002 5.131222
20.791107 29.208893 -35.815002 5.388757
34.274414 29.208893 -35.815002 5.450964
47.757721 29.208893 -35.815002 5.115962
61.240997 29.208893 -35.815002 4.674395
74.724304 29.208893 -35.815002 4.281455
88.207611 29.208893 -35.815002 3.876375
101.690918 29.208893 -35.815002 3.492801
115.174225 29.208893 -35.815002 3.177055
128.657501 29.208893 -35.815002 2.734977
142.140808 29.208893 -35.815002 2.417523
155.624115 29.208893 -35.815002 1.906082
169.107422 29.208893 -35.815002 1.644177
182.590698 29.208893 -35.815002 1.388798
196.074036 29.208893 -35.815002 1.193083
209.557312 29.208893 -35.815002 1.070240
223.040588 29.208893 -35.815002 0.860912
236.523926 29.208893 -35.815002 0.578455
250.007202 29.208893 -35.815002 0.448310
263.490540 29.208893 -35.815002 0.410746
276.973816 29.208893 -35.815002 0.324088
290.457092 29.208893 -35.815002 0.283698
303.940430 29.208893 -35.815002 0.264831
317.423706 29.208893 -35.815002 0.294570
330.907043 29.208893 -35.815002 0.000000
344.390320 29.208893 -35.815002 0.000000
-343.257996 15.725586 -35.815002 0.000000
-329.774689 15.725586 -35.815002 0.000000
-316.291382 15.725586 -35.815002 0.818926
-302.808105 15.725586 -35.815002 0.811240
-289.324799 15.725586 -35.815002 0.857096
-275.841492 15.725586 -35.815002 0.927647
-262.358185 15.725586 -35.815002 1.159682
-248.874893 15.725586 -35.815002 1.374440
-235.391602 15.725586 -35.815002 1.544594
-221.908295 15.725586 -35.815002 1.857072
-208.424988 15.725586 -35.815002 2.311441
-194.941696 15.725586 -35.815002 2.881237
-181.458389 15.725586 -35.815002 3.642977
-167.975098 15.725586 -35.815002 4.720199
-154.491791 15.725586 -35.815002 5.652141
-141.008499 15.725586 -35.815002 6.091032
-127.525192 15.725586 -35.815002 6.711056
-114.041885 15.725586 -35.815002 7.345739
-100.558594 15.725586 -35.815002 7.289033
-87.075287 15.725586 -35.815002 7.622510
-73.591980 15.725586 -35.815002 7.849276
-60.108704 15.725586 -35.815002 7.330672
-46.625397 15.725586 -35.815002 6.490760
-33.142090 15.725586 -35.815002 5.725396
-19.658783 15.725586 -35.815002 5.308743
-6.175476 15.725586 -35.815002 5.548766
7.307800 15.725586 -35.815002 5.346133
20.791107 15.725586 -35.815002 5.781631
34.274414 15.725586 -35.815002 5.343239
47.757721 15.725586 -35.815002 5.292319
61.240997 15.725586 -35.815002 5.201443
74.724304 15.725586 -35.815002 4.740427
88.207611 15.725586 -35.815002 4.163969
101.690918 15.725586 -35.815002 3.592185
115.174225 15.725586 -35.815002 3.027615
128.657501 15.725586 -35.815002 2.665337
142.140808 15.725586 -35.815002 2.194270
155.624115 15.725586 -35.815002 1.874278
169.107422 15.725586 -35.815002 1.596996
182.590698 15.725586 -35.815002 1.332179
196.074036 15.725586 -35.815002 1.180316
209.557312 15.725586 -35.815002 0.983224
223.040588 15.725586 -35.815002 0.842781
236.523926 15.725586 -35.815002 0.611375
250.007202 15.725586 -35.815002 0.506218
263.490540 15.725586 -35.815002 0.407551
276.973816 15.725586 -35.815002 0.335567
290.457092 15.725586 -35.815002 0.321873
303.940430 15.725586 -35.815002 0.320518
317.423706 15.725586 -35.815002 0.368159
330.907043 15.725586 -35.815002 0.000000
344.390320 15.725586 -35.815002 0.000000
-343.257996 2.242279 -35.815002 0.000000
-329.774689 2.242279 -35.815002 0.000000
-316.291382 2.242279 -35.815002 0.563858
-302.808105 2.242279 -35.815002 0.692253
-289.324799 2.242279 -35.815002 0.967203
-275.841492 2.242279 -35.815002 0.871733
-262.358185 2.242279 -35.815002 1.042603
-248.874893 2.242279 -35.815002 1.244799
-235.391602 2.242279 -35.815002 1.518990
-221.908295 2.242279 -35.815002 1.750647
-208.424988 2.242279 -35.815002 2.211869
-194.941696 2.242279 -35.815002 2.876819
-181.458389 2.242279 -35.815002 3.548000
-167.975098 2.242279 -35.815002 4.505057
-154.491791 2.242279 -35.815002 5.291600
-141.008499 2.242279 -35.815002 6.012369
-127.525192 2.242279 -35.815002 6.505980
-114.041885 2.242279 -35.815002 7.212189
-100.558594 2.242279 -35.815002 7.489733
-87.075287 2.242279 -35.815002 7.928079
-73.591980 2.242279 -35.815002 7.732310
-60.108704 2.242279 -35.815002 7.716914
-46.625397 2.242279 -35.815002 6.867252
-33.142090 2.242279 -35.815002 5.715362
-19.658783 2.242279 -35.815002 5.163887
-6.175476 2.242279 -35.815002 5.964942
7.307800 2.242279 -35.815002 6.004847
20.791107 2.242279 -35.815002 6.134450
34.274414 2.242279 -35.815002 5.978048
47.757721 2.242279 -35.815002 5.580987
61.240997 2.242279 -35.815002 5.365700
74.724304 2.242279 -35.815002 5.081609
88.207611 2.242279 -35.815002 4.200542
101.690918 2.242279 -35.815002 3.704494
115.174225 2.242279 -35.815002 2.881905
128.657501 2.242279 -35.815002 2.626446
142.140808 2.242279 -35.815002 2.068975
155.624115 2.242279 -35.815002 1.780834
169.107422 2.242279 -35.815002 1.445319
182.590698 2.242279 -35.815002 1.211967
196.074036 2.242279 -35.815002 1.085650
209.557312 2.242279 -35.815002 0.907492
223.040588 2.242279 -35.815002 0.830818
236.523926 2.242279 -35.815002 0.630207
250.007202 2.242279 -35.815002 0.565009
263.490540 2.242279 -35.815002 0.475131
276.973816 2.242279 -35.815002 0.420947
290.457092 2.242279 -35.815002 0.405683
303.940430 2.242279 -35.815002 0.313642
317.423706 2.242279 -35.815002 0.280111
330.907043 2.242279 -35.815002 0.000000
344.390320 2.242279 -35.815002 0.000000
-343.257996 -11.240997 -35.815002 0.000000
-329.774689 -11.240997 -35.815002 0.000000
-316.291382 -11.240997 -35.815002 0.431618
-302.808105 -11.240997 -35.815002 0.709497
-289.324799 -11.240997 -35.815002 0.817997
-275.841492 -11.240997 -35.815002 0.765393
-262.358185 -11.240997 -35.815002 0.832631
-248.874893 -11.240997 -35.815002 1.118879
-235.391602 -11.240997 -35.815002 1.386829
-221.908295 -11.240997 -35.815002 1.658726
-208.424988 -11.240997 -35.815002 2.395012
-194.941696 -11.240997 -35.815002 3.226648
-181.458389 -11.240997 -35.815002 4.233156
-167.975098 -11.240997 -35.815002 4.665209
-154.491791 -11.240997 -35.815002 5.607416
-141.008499 -11.240997 -35.815002 6.390582
-127.525192 -11.240997 -35.815002 6.536181
-114.041885 -11.240997 -35.815002 7.098342
-100.558594 -11.240997 -35.815002 7.955742
-87.075287 -11.240997 -35.815002 8.471526
-73.591980 -11.240997 -35.815002 8.235602
-60.108704 -11.240997 -35.815002 7.764907
-46.625397 -11.240997 -35.815002 7.285913
-33.142090 -11.240997 -35.815002 6.450827
-19.658783 -11.240997 -35.815002 5.809818
-6.175476 -11.240997 -35.815002 6.330272
7.307800 -11.240997 -35.815002 6.816396
20.791107 -11.240997 -35.815002 6.226640
34.274414 -11.240997 -35.815002 6.281206
47.757721 -11.240997 -35.815002 5.529064
61.240997 -11.240997 -35.815002 5.299363
74.724304 -11.240997 -35.815002 5.223069
88.207611 -11.240997 -35.815002 4.415668
101.690918 -11.240997 -35.815002 3.477944
115.174225 -11.240997 -35.815002 2.752632
128.657501 -11.240997 -35.815002 2.362081
142.140808 -11.240997 -35.815002 1.950027
155.624115 -11.240997 -35.815002 1.578801
169.107422 -11.240997 -35.815002 1.300063
182.590698 -11.240997 -35.815002 1.116717
196.074036 -11.240997 -35.815002 1.014716
209.557312 -11.240997 -35.815002 0.904192
223.040588 -11.240997 -35.815002 0.819321
236.523926 -11.240997 -35.815002 0.726869
250.007202 -11.240997 -35.815002 0.595266
263.490540 -11.240997 -35.815002 0.557803
276.973816 -11.240997 -35.815002 0.574948
290.457092 -11.240997 -35.815002 0.429179
303.940430 -11.240997 -35.815002 0.297522
317.423706 -11.240997 -35.815002 0.384054
330.907043 -11.240997 -35.815002 0.000000
344.390320 -11.240997 -35.815002 0.000000
-343.257996 -24.724304 -35.815002 0.000000
-329.774689 -24.724304 -35.815002 0.000000
-316.291382 -24.724304 -35.815002 0.608918
-302.808105 -24.724304 -35.815002 0.678758
-289.324799 -24.724304 -35.815002 0.551135
-275.841492 -24.724304 -35.815002 0.690491
-262.358185 -24.724304 -35.815002 0.809745
-248.874893 -24.724304 -35.815002 1.060922
-235.391602 -24.724304 -35.815002 1.251167
-221.908295 -24.724304 -35.815002 1.737476
-208.424988 -24.724304 -35.815002 2.588436
-194.941696 -24.724304 -35.815002 3.256880
-181.458389 -24.724304 -35.815002 4.395217
-167.975098 -24.724304 -35.815002 5.418122
-154.491791 -24.724304 -35.815002 6.029286
-141.008499 -24.724304 -35.815002 6.816985
-127.525192 -24.724304 -35.815002 7.173148
-114.041885 -24.724304 -35.815002 6.863953
-100.558594 -24.724304 -35.815002 7.728817
-87.075287 -24.724304 -35.815002 7.865359
-73.591980 -24.724304 -35.815002 8.175122
-60.108704 -24.724304 -35.815002 8.006049
-46.625397 -24.724304 -35.815002 7.306312
-33.142090 -24.724304 -35.815002 7.056411
-19.658783 -24.724304 -35.815002 6.432076
-6.175476 -24.724304 -35.815002 6.842754
7.307800 -24.724304 -35.815002 6.798335
20.791107 -24.724304 -35.815002 6.336315
34.274414 -24.724304 -35.815002 6.169436
47.757721 -24.724304 -35.815002 6.308953
61.240997 -24.724304 -35.815002 5.458305
74.724304 -24.724304 -35.815002 4.891932
88.207611 -24.724304 -35.815002 4.206474
101.690918 -24.724304 -35.815002 3.309420
115.174225 -24.724304 -35.815002 2.604858
128.657501 -24.724304 -35.815002 2.023409
142.140808 -24.724304 -35.815002 1.697381
155.624115 -24.724304 -35.815002 1.382038
169.107422 -24.724304 -35.815002 1.075184
182.590698 -24.724304 -35.815002 1.001587
196.074036 -24.724304 -35.815002 0.881604
209.557312 -24.724304 -35.815002 0.873192
223.040588 -24.724304 -35.815002 0.786167
236.523926 -24.724304 -35.815002 0.719462
250.007202 -24.724304 -35.815002 0.656136
263.490540 -24.724304 -35.815002 0.654495
276.973816 -24.724304 -35.815002 0.689197
290.457092 -24.724304 -35.815002 0.581684
303.940430 -24.724304 -35.815002 0.351370
317.423706 -24.724304 -35.815002 0.378257
330.907043 -24.724304 -35.815002 0.000000
344.390320 -24.724304 -35.815002 0.000000
-343.257996 -38.207611 -35.815002 0.000000
-329.774689 -38.207611 -35.815002 0.000000
-316.291382 -38.207611 -35.815002 0.790247
-302.808105 -38.207611 -35.815002 0.679612
-289.324799 -38.207611 -35.815002 0.896060
-275.841492 -38.207611 -35.815002 0.759338
-262.358185 -38.207611 -35.815002 0.946790
-248.874893 -38.207611 -35.815002 1.339852
-235.391602 -38.207611 -35.815002 1.679188
-221.908295 -38.207611 -35.815002 1.909292
-208.424988 -38.207611 -35.815002 2.903100
-194.941696 -38.207611 -35.815002 3.665359
-181.458389 -38.207611 -35.815002 5.190111
-167.975098 -38.207611 -35.815002 5.891959
-154.491791 -38.207611 -35.815002 6.438143
-141.008499 -38.207611 -35.815002 7.456949
-127.525192 -38.207611 -35.815002 8.094916
-114.041885 -38.207611 -35.815002 7.652483
-100.558594 -38.207611 -35.815002 7.419720
-87.075287 -38.207611 -35.815002 7.864747
-73.591980 -38.207611 -35.815002 7.491329
-60.108704 -38.207611 -35.815002 7.527828
-46.625397 -38.207611 -35.815002 7.291310
-33.142090 -38.207611 -35.815002 7.222801
-19.658783 -38.207611 -35.815002 6.694053
-6.175476 -38.207611 -35.815002 6.673327
7.307800 -38.207611 -35.815002 6.717851
20.791107 -38.207611 -35.815002 6.210244
34.274414 -38.207611 -35.815002 5.964257
47.757721 -38.207611 -35.815002 5.685704
61.240997 -38.207611 -35.815002 5.183127
74.724304 -38.207611 -35.815002 4.202668
88.207611 -38.207611 -35.815002 3.821979
101.690918 -38.207611 -35.815002 3.082515
115.174225 -38.207611 -35.815002 2.311952
128.657501 -38.207611 -35.815002 1.833218
142.140808 -38.207611 -35.815002 1.539064
155.624115 -38.207611 -35.815002 1.263016
169.107422 -38.207611 -35.815002 1.142188
182.590698 -38.207611 -35.815002 1.004483
196.074036 -38.207611 -35.815002 0.866503
209.557312 -38.207611 -35.815002 0.778575
223.040588 -38.207611 -35.815002 0.751802
236.523926 -38.207611 -35.815002 0.751927
250.007202 -38.207611 -35.815002 0.618994
263.490540 -38.207611 -35.815002 0.657787
276.973816 -38.207611 -35.815002 0.657504
290.457092 -38.207611 -35.815002 0.656161
303.940430 -38.207611 -35.815002 0.387641
317.423706 -38.207611 -35.815002 0.346709
330.907043 -38.207611 -35.815002 0.000000
344.390320 -38.207611 -35.815002 0.000000
-343.257996 -51.690918 -35.815002 0.000000
-329.774689 -51.690918 -35.815002 0.000000
-316.291382 -51.690918 -35.815002 0.957019
-302.808105 -51.690918 -35.815002 1.176305
-289.324799 -51.690918 -35.815002 1.072018
-275.841492 -51.690918 -35.815002 1.148579
-262.358185 -51.690918 -35.815002 0.926627
-248.874893 -51.690918 -35.815002 1.347294
-235.391602 -51.690918 -35.815002 1.730832
-221.908295 -51.690918 -35.815002 1.887678
-208.424988 -51.690918 -35.815002 3.371840
-194.941696 -51.690918 -35.815002 4.431297
-181.458389 -51.690918 -35.815002 5.691233
-167.975098 -51.690918 -35.815002 6.530461
-154.491791 -51.690918 -35.815002 7.824731
-141.008499 -51.690918 -35.815002 7.854943
-127.525192 -51.690918 -35.815002 8.179569
-114.041885 -51.690918 -35.815002 8.279668
-100.558594 -51.690918 -35.815002 7.313006
-87.075287 -51.690918 -35.815002 7.213374
-73.591980 -51.690918 -35.815002 7.065713
-60.108704 -51.690918 -35.815002 6.660992
-46.625397 -51.690918 -35.815002 7.032158
-33.142090 -51.690918 -35.815002 6.820576
-19.658783 -51.690918 -35.815002 6.257136
-6.175476 -51.690918 -35.815002 6.360822
7.307800 -51.690918 -35.815002 6.452968
20.791107 -51.690918 -35.815002 6.073279
34.274414 -51.690918 -35.815002 5.633452
47.757721 -51.690918 -35.815002 5.090675
61.240997 -51.690918 -35.815002 4.371043
74.724304 -51.690918 -35.815002 3.616527
88.207611 -51.690918 -35.815002 3.088068
101.690918 -51.690918 -35.815002 2.540892
115.174225 -51.690918 -35.815002 1.998468
128.657501 -51.690918 -35.815002 1.676352
142.140808 -51.690918 -35.815002 1.379470
155.624115 -51.690918 -35.815002 1.212718
169.107422 -51.690918 -35.815002 1.071439
182.590698 -51.690918 -35.815002 1.007648
196.074036 -51.690918 -35.815002 0.830454
209.557312 -51.690918 -35.815002 0.769332
223.040588 -51.690918 -35.815002 0.748116
236.523926 -51.690918 -35.815002 0.695640
250.007202 -51.690918 -35.815002 0.683469
263.490540 -51.690918 -35.815002 0.651238
276.973816 -51.690918 -35.815002 0.729090
290.457092 -51.690918 -35.815002 0.685950
303.940430 -51.690918 -35.815002 0.644278
317.423706 -51.690918 -35.815002 0.805613
330.907043 -51.690918 -35.815002 0.000000
344.390320 -51.690918 -35.815002 0.000000
-343.257996 -65.174225 -35.815002 0.000000
-329.774689 -65.174225 -35.815002 0.000000
-316.291382 -65.174225 -35.815002 1.026907
-302.808105 -65.174225 -35.815002 0.956902
-289.324799 -65.174225 -35.815002 1.218129
-275.841492 -65.174225 -35.815002 1.206107
-262.358185 -65.174225 -35.815002 1.363233
-248.874893 -65.174225 -35.815002 1.446856
-235.391602 -65.174225 -35.815002 2.481426
-221.908295 -65.174225 -35.815002 3.334969
-208.424988 -65.174225 -35.815002 4.700557
-194.941696 -65.174225 -35.815002 6.576941
-181.458389 -65.174225 -35.815002 7.759565
-167.975098 -65.174225 -35.815002 8.270901
-154.491791 -65.174225 -35.815002 9.210198
-141.008499 -65.174225 -35.815002 9.274289
-127.525192 -65.174225 -35.815002 9.102249
-114.041885 -65.174225 -35.815002 8.819718
-100.558594 -65.174225 -35.815002 7.118412
-87.075287 -65.174225 -35.815002 6.826794
-73.591980 -65.174225 -35.815002 6.489747
-60.108704 -65.174225 -35.815002 6.230152
-46.625397 -65.174225 -35.815002 6.313682
-33.142090 -65.174225 -35.815002 6.198954
-19.658783 -65.174225 -35.815002 5.808257
-6.175476 -65.174225 -35.815002 5.992197
7.307800 -65.174225 -35.815002 5.917376
20.791107 -65.174225 -35.815002 5.393219
34.274414 -65.174225 -35.815002 4.871160
47.757721 -65.174225 -35.815002 4.364343
61.240997 -65.174225 -35.815002 3.829008
74.724304 -65.174225 -35.815002 3.222823
88.207611 -65.174225 -35.815002 2.561454
101.690918 -65.174225 -35.815002 2.049837
115.174225 -65.174225 -35.815002 1.660484
128.657501 -65.174225 -35.815002 1.391744
142.140808 -65.174225 -35.815002 1.247211
155.624115 -65.174225 -35.815002 1.201973
169.107422 -65.174225 -35.815002 1.113886
182.590698 -65.174225 -35.815002 0.977055
196.074036 -65.174225 -35.815002 0.876815
209.557312 -65.174225 -35.815002 0.744641
223.040588 -65.174225 -35.815002 0.696371
236.523926 -65.174225 -35.815002 0.689177
250.007202 -65.174225 -35.815002 0.784639
263.490540 -65.174225 -35.815002 0.728064
276.973816 -65.174225 -35.815002 0.846556
290.457092 -65.174225 -35.815002 0.839486
303.940430 -65.174225 -35.815002 1.001588
317.423706 -65.174225 -35.815002 0.681316
330.907043 -65.174225 -35.815002 0.000000
344.390320 -65.174225 -35.815002 0.000000
-343.257996 -78.657501 -35.815002 0.000000
-329.774689 -78.657501 -35.815002 0.000000
-316.291382 -78.657501 -35.815002 1.291275
-302.808105 -78.657501 -35.815002 1.443052
-289.324799 -78.657501 -35.815002 1.545671
-275.841492 -78.657501 -35.815002 1.619534
-262.358185 -78.657501 -35.815002 2.271562
-248.874893 -78.657501 -35.815002 3.100751
-235.391602 -78.657501 -35.815002 3.488663
-221.908295 -78.657501 -35.815002 5.068275
-208.424988 -78.657501 -35.815002 7.333133
-194.941696 -78.657501 -35.815002 0.000000
-181.458389 -78.657501 -35.815002 11.388315
-167.975098 -78.657501 -35.815002 0.000000
-154.491791 -78.657501 -35.815002 10.668922
-141.008499 -78.657501 -35.815002 10.317167
-127.525192 -78.657501 -35.815002 8.956177
-114.041885 -78.657501 -35.815002 8.486933
-100.558594 -78.657501 -35.815002 7.493288
-87.075287 -78.657501 -35.815002 7.328192
-73.591980 -78.657501 -35.815002 6.515499
-60.108704 -78.657501 -35.815002 6.072979
-46.625397 -78.657501 -35.815002 5.907491
-33.142090 -78.657501 -35.815002 5.440659
-19.658783 -78.657501 -35.815002 5.150664
-6.175476 -78.657501 -35.815002 5.256880
7.307800 -78.657501 -35.815002 5.225171
20.791107 -78.657501 -35.815002 4.996569
34.274414 -78.657501 -35.815002 4.527357
47.757721 -78.657501 -35.815002 3.748909
61.240997 -78.657501 -35.815002 3.341703
74.724304 -78.657501 -35.815002 2.781325
88.207611 -78.657501 -35.815002 2.247424
101.690918 -78.657501 -35.815002 1.783055
115.174225 -78.657501 -35.815002 1.608805
128.657501 -78.657501 -35.815002 1.324974
142.140808 -78.657501 -35.815002 1.238745
155.624115 -78.657501 -35.815002 1.196250
169.107422 -78.657501 -35.815002 1.140258
182.590698 -78.657501 -35.815002 1.029334
196.074036 -78.657501 -35.815002 0.978867
209.557312 -78.657501 -35.815002 0.948788
223.040588 -78.657501 -35.815002 0.836824
236.523926 -78.657501 -35.815002 0.836054
250.007202 -78.657501 -35.815002 0.860708
263.490540 -78.657501 -35.815002 0.912270
276.973816 -78.657501 -35.815002 1.219957
290.457092 -78.657501 -35.815002 1.252404
303.940430 -78.657501 -35.815002 1.056111
317.423706 -78.657501 -35.815002 0.948616
330.907043 -78.657501 -35.815002 0.000000
344.390320 -78.657501 -35.815002 0.000000
-343.257996 -92.140808 -35.815002 0.000000
-329.774689 -92.140808 -35.815002 0.000000
-316.291382 -92.140808 -35.815002 2.453843
-302.808105 -92.140808 -35.815002 2.534097
-289.324799 -92.140808 -35.815002 2.505923
-275.841492 -92.140808 -35.815002 2.948571
-262.358185 -92.140808 -35.815002 4.094733
-248.874893 -92.140808 -35.815002 4.492751
-235.391602 -92.140808 -35.815002 0.000000
-221.908295 -92.140808 -35.815002 0.000000
-208.424988 -92.140808 -35.815002 0.000000
-194.941696 -92.140808 -35.815002 0.000000
-181.458389 -92.140808 -35.815002 0.000000
-167.975098 -92.140808 -35.815002 0.000000
-154.491791 -92.140808 -35.815002 11.008636
-141.008499 -92.140808 -35.815002 9.724755
-127.525192 -92.140808 -35.815002 8.281212
-114.041885 -92.140808 -35.815002 7.879707
-100.558594 -92.140808 -35.815002 8.071062
-87.075287 -92.140808 -35.815002 7.582213
-73.591980 -92.140808 -35.815002 7.031888
-60.108704 -92.140808 -35.815002 6.120072
-46.625397 -92.140808 -35.815002 5.473793
-33.142090 -92.140808 -35.815002 5.083204
-19.658783 -92.140808 -35.815002 4.716745
-6.175476 -92.140808 -35.815002 4.596966
7.307800 -92.140808 -35.815002 4.668900
20.791107 -92.140808 -35.815002 4.500617
34.274414 -92.140808 -35.815002 4.184638
47.757721 -92.140808 -35.815002 3.322283
61.240997 -92.140808 -35.815002 2.976890
74.724304 -92.140808 -35.815002 2.685394
88.207611 -92.140808 -35.815002 2.108291
101.690918 -92.140808 -35.815002 1.781807
115.174225 -92.140808 -35.815002 1.561094
128.657501 -92.140808 -35.815002 1.420309
142.140808 -92.140808 -35.815002 1.353361
155.624115 -92.140808 -35.815002 1.303980
169.107422 -92.140808 -35.815002 1.234072
182.590698 -92.140808 -35.815002 1.186863
196.074036 -92.140808 -35.815002 1.169856
209.557312 -92.140808 -35.815002 1.213752
223.040588 -92.140808 -35.815002 1.110239
236.523926 -92.140808 -35.815002 1.081088
250.007202 -92.140808 -35.815002 0.996911
263.490540 -92.140808 -35.815002 1.046104
276.973816 -92.140808 -35.815002 1.237505
290.457092 -92.140808 -35.815002 1.357466
303.940430 -92.140808 -35.815002 1.235355
317.423706 -92.140808 -35.815002 1.524654
330.907043 -92.140808 -35.815002 0.000000
344.390320 -92.140808 -35.815002 0.000000
-343.257996 -105.624115 -35.815002 0.000000
-329.774689 -105.624115 -35.815002 0.000000
-316.291382 -105.624115 -35.815002 0.000000
-302.808105 -105.624115 -35.815002 4.388422
-289.324799 -105.624115 -35.815002 6.241888
-275.841492 -105.624115 -35.815002 6.269353
-262.358185 -105.624115 -35.815002 6.427546
-248.874893 -105.624115 -35.815002 7.471726
-235.391602 -105.624115 -35.815002 0.000000
-221.908295 -105.624115 -35.815002 0.000000
-208.424988 -105.624115 -35.815002 0.000000
-194.941696 -105.624115 -35.815002 0.000000
-181.458389 -105.624115 -35.815002 0.000000
-167.975098 -105.624115 -35.815002 0.000000
-154.491791 -105.624115 -35.815002 11.698378
-141.008499 -105.624115 -35.815002 10.231499
-127.525192 -105.624115 -35.815002 8.492254
-114.041885 -105.624115 -35.815002 7.656148
-100.558594 -105.624115 -35.815002 7.477247
-87.075287 -105.624115 -35.815002 6.945467
-73.591980 -105.624115 -35.815002 6.834002
-60.108704 -105.624115 -35.815002 6.106112
-46.625397 -105.624115 -35.815002 5.344677
-33.142090 -105.624115 -35.815002 4.694399
-19.658783 -105.624115 -35.815002 4.581051
-6.175476 -105.624115 -35.815002 4.051418
7.307800 -105.624115 -35.815002 4.399752
20.791107 -105.624115 -35.815002 4.249415
34.274414 -105.624115 -35.815002 3.659545
47.757721 -105.624115 -35.815002 3.301038
61.240997 -105.624115 -35.815002 2.805718
74.724304 -105.624115 -35.815002 2.594685
88.207611 -105.624115 -35.815002 2.218860
101.690918 -105.624115 -35.815002 1.811346
115.174225 -105.624115 -35.815002 1.470771
128.657501 -105.624115 -35.815002 1.374484
142.140808 -105.624115 -35.815002 1.281786
155.624115 -105.624115 -35.815002 1.389417
169.107422 -105.624115 -35.815002 1.529275
182.590698 -105.624115 -35.815002 1.461009
196.074036 -105.624115 -35.815002 1.626574
209.557312 -105.624115 -35.815002 1.636741
223.040588 -105.624115 -35.815002 1.662225
236.523926 -105.624115 -35.815002 1.594291
250.007202 -105.624115 -35.815002 1.417432
263.490540 -105.624115 -35.815002 1.472893
276.973816 -105.624115 -35.815002 2.164040
290.457092 -105.624115 -35.815002 2.213865
303.940430 -105.624115 -35.815002 1.698307
317.423706 -105.624115 -35.815002 2.042912
330.907043 -105.624115 -35.815002 0.000000
344.390320 -105.624115 -35.815002 0.000000
-343.257996 -119.107422 -35.815002 0.000000
-329.774689 -119.107422 -35.815002 0.000000
-316.291382 -119.107422 -35.815002 0.000000
-302.808105 -119.107422 -35.815002 0.000000
-289.324799 -119.107422 -35.815002 10.880920
-275.841492 -119.107422 -35.815002 11.514041
-262.358185 -119.107422 -35.815002 13.132442
-248.874893 -119.107422 -35.815002 15.155684
-235.391602 -119.107422 -35.815002 0.000000
-221.908295 -119.107422 -35.815002 0.000000
-208.424988 -119.107422 -35.815002 0.000000
-194.941696 -119.107422 -35.815002 0.000000
-181.458389 -119.107422 -35.815002 0.000000
-167.975098 -119.107422 -35.815002 0.000000
-154.491791 -119.107422 -35.815002 13.610337
-141.008499 -119.107422 -35.815002 11.491432
-127.525192 -119.107422 -35.815002 11.661614
-114.041885 -119.107422 -35.815002 9.291888
-100.558594 -119.107422 -35.815002 7.990492
-87.075287 -119.107422 -35.815002 7.410532
-73.591980 -119.107422 -35.815002 7.087409
-60.108704 -119.107422 -35.815002 6.207532
-46.625397 -119.107422 -35.815002 4.624810
-33.142090 -119.107422 -35.815002 4.639334
-19.658783 -119.107422 -35.815002 4.393306
-6.175476 -119.107422 -35.815002 4.219936
7.307800 -119.107422 -35.815002 4.264071
20.791107 -119.107422 -35.815002 4.083502
34.274414 -119.107422 -35.815002 3.974718
47.757721 -119.107422 -35.815002 3.458114
61.240997 -119.107422 -35.815002 2.860195
74.724304 -119.107422 -35.815002 2.622835
88.207611 -119.107422 -35.815002 2.223636
101.690918 -119.107422 -35.815002 1.840564
115.174225 -119.107422 -35.815002 1.683577
128.657501 -119.107422 -35.815002 1.629644
142.140808 -119.107422 -35.815002 1.632144
155.624115 -119.107422 -35.815002 1.780459
169.107422 -119.107422 -35.815002 1.825492
182.590698 -119.107422 -35.815002 2.018571
196.074036 -119.107422 -35.815002 2.463233
209.557312 -119.107422 -35.815002 2.564476
223.040588 -119.107422 -35.815002 2.251789
236.523926 -119.107422 -35.815002 2.430748
250.007202 -119.107422 -35.815002 2.002022
263.490540 -119.107422 -35.815002 2.381435
276.973816 -119.107422 -35.815002 3.241095
290.457092 -119.107422 -35.815002 3.374850
303.940430 -119.107422 -35.815002 2.968122
317.423706 -119.107422 -35.815002 0.000000
330.907043 -119.107422 -35.815002 0.000000
344.390320 -119.107422 -35.815002 0.000000
-343.257996 -132.590698 -35.815002 0.000000
-329.774689 -132.590698 -35.815002 0.000000
-316.291382 -132.590698 -35.815002 0.000000
-302.808105 -132.590698 -35.815002 0.000000
-289.324799 -132.590698 -35.815002 20.166138
-275.841492 -132.590698 -35.815002 0.000000
-262.358185 -132.590698 -35.815002 21.588026
-248.874893 -132.590698 -35.815002 0.000000
-235.391602 -132.590698 -35.815002 0.000000
-221.908295 -132.590698 -35.815002 0.000000
-208.424988 -132.590698 -35.815002 0.000000
-194.941696 -132.590698 -35.815002 0.000000
-181.458389 -132.590698 -35.815002 0.000000
-167.975098 -132.590698 -35.815002 0.000000
-154.491791 -132.590698 -35.815002 17.898651
-141.008499 -132.590698 -35.815002 0.000000
-127.525192 -132.590698 -35.815002 13.560072
-114.041885 -132.590698 -35.815002 0.000000
-100.558594 -132.590698 -35.815002 9.722664
-87.075287 -132.590698 -35.815002 8.339606
-73.591980 -132.590698 -35.815002 7.982419
-60.108704 -132.590698 -35.815002 6.609099
-46.625397 -132.590698 -35.815002 5.872032
-33.142090 -132.590698 -35.815002 4.723813
-19.658783 -132.590698 -35.815002 4.360511
-6.175476 -132.590698 -35.815002 4.704893
7.307800 -132.590698 -35.815002 4.886169
20.791107 -132.590698 -35.815002 4.416817
34.274414 -132.590698 -35.815002 3.943327
47.757721 -132.590698 -35.815002 3.672468
61.240997 -132.590698 -35.815002 3.256743
74.724304 -132.590698 -35.815002 2.559617
88.207611 -132.590698 -35.815002 2.389702
101.690918 -132.590698 -35.815002 2.360916
115.174225 -132.590698 -35.815002 2.101015
128.657501 -132.590698 -35.815002 1.931002
142.140808 -132.590698 -35.815002 2.011111
155.624115 -132.590698 -35.815002 2.040232
169.107422 -132.590698 -35.815002 2.425487
182.590698 -132.590698 -35.815002 2.738231
196.074036 -132.590698 -35.815002 3.038861
209.557312 -132.590698 -35.815002 3.428321
223.040588 -132.590698 -35.815002 3.534778
236.523926 -132.590698 -35.815002 3.624006
250.007202 -132.590698 -35.815002 3.161902
263.490540 -132.590698 -35.815002 3.389874
276.973816 -132.590698 -35.815002 3.796942
290.457092 -132.590698 -35.815002 4.958554
303.940430 -132.590698 -35.815002 0.000000
317.423706 -132.590698 -35.815002 0.000000
330.907043 -132.590698 -35.815002 0.000000
344.390320 -132.590698 -35.815002 0.000000
-343.257996 -146.074036 -35.815002 0.000000
-329.774689 -146.074036 -35.815002 0.000000
-316.291382 -146.074036 -35.815002 0.000000
-302.808105 -146.074036 -35.815002 0.000000
-289.324799 -146.074036 -35.815002 0.000000
-275.841492 -146.074036 -35.815002 0.000000
-262.358185 -146.074036 -35.815002 0.000000
-248.874893 -146.074036 -35.815002 0.000000
-235.391602 -146.074036 -35.815002 0.000000
-221.908295 -146.074036 -35.815002 0.000000
-208.424988 -146.074036 -35.815002 0.000000
-194.941696 -146.074036 -35.815002 0.000000
-181.458389 -146.074036 -35.815002 0.000000
-167.975098 -146.074036 -35.815002 0.000000
-154.491791 -146.074036 -35.815002 0.000000
-141.008499 -146.074036 -35.815002 0.000000
-127.525192 -146.074036 -35.815002 0.000000
-114.041885 -146.074036 -35.815002 0.000000
-100.558594 -146.074036 -35.815002 0.000000
-87.075287 -146.074036 -35.815002 0.000000
-73.591980 -146.074036 -35.815002 0.000000
-60.108704 -146.074036 -35.815002 0.000000
-46.625397 -146.074036 -35.815002 6.028118
-33.142090 -146.074036 -35.815002 5.463456
-19.658783 -146.074036 -35.815002 4.863633
-6.175476 -146.074036 -35.815002 4.857794
7.307800 -146.074036 -35.815002 5.253553
20.791107 -146.074036 -35.815002 4.690570
34.274414 -146.074036 -35.815002 4.618113
47.757721 -146.074036 -35.815002 0.000000
61.240997 -146.074036 -35.815002 0.000000
74.724304 -146.074036 -35.815002 0.000000
88.207611 -146.074036 -35.815002 0.000000
101.690918 -146.074036 -35.815002 2.728928
115.174225 -146.074036 -35.815002 2.541625
128.657501 -146.074036 -35.815002 2.862652
142.140808 -146.074036 -35.815002 2.484976
155.624115 -146.074036 -35.815002 2.644254
169.107422 -146.074036 -35.815002 3.040342
182.590698 -146.074036 -35.815002 0.000000
196.074036 -146.074036 -35.815002 0.000000
209.557312 -146.074036 -35.815002 0.000000
223.040588 -146.074036 -35.815002 0.000000
236.523926 -146.074036 -35.815002 0.000000
250.007202 -146.074036 -35.815002 0.000000
263.490540 -146.074036 -35.815002 0.000000
276.973816 -146.074036 -35.815002 0.000000
290.457092 -146.074036 -35.815002 0.000000
303.940430 -146.074036 -35.815002 0.000000
317.423706 -146.074036 -35.815002 0.000000
330.907043 -146.074036 -35.815002 0.000000
344.390320 -146.074036 -35.815002 0.000000
-343.257996 -159.557312 -35.815002 0.000000
-329.774689 -159.557312 -35.815002 0.000000
-316.291382 -159.557312 -35.815002 0.000000
-302.808105 -159.557312 -35.815002 0.000000
-289.324799 -159.557312 -35.815002 0.000000
-275.841492 -159.557312 -35.815002 0.000000
-262.358185 -159.557312 -35.815002 0.000000
-248.874893 -159.557312 -35.815002 0.000000
-235.391602 -159.557312 -35.815002 0.000000
-221.908295 -159.557312 -35.815002 0.000000
-208.424988 -159.557312 -35.815002 0.000000
-194.941696 -159.557312 -35.815002 0.000000
-181.458389 -159.557312 -35.815002 0.000000
-167.975098 -159.557312 -35.815002 0.000000
-154.491791 -159.557312 -35.815002 0.000000
-141.008499 -159.557312 -35.815002 0.000000
-127.525192 -159.557312 -35.815002 0.000000
-114.041885 -159.557312 -35.815002 0.000000
-100.558594 -159.557312 -35.815002 0.000000
-87.075287 -159.557312 -35.815002 0.000000
-73.591980 -159.557312 -35.815002 0.000000
-60.108704 -159.557312 -35.815002 0.000000
-46.625397 -159.557312 -35.815002 0.000000
-33.142090 -159.557312 -35.815002 0.000000
-19.658783 -159.557312 -35.815002 0.000000
-6.175476 -159.557312 -35.815002 0.000000
7.307800 -159.557312 -35.815002 0.000000
20.791107 -159.557312 -35.815002 0.000000
34.274414 -159.557312 -35.815002 0.000000
47.757721 -159.557312 -35.815002 0.000000
61.240997 -159.557312 -35.815002 0.000000
74.724304 -159.557312 -35.815002 0.000000
88.207611 -159.557312 -35.815002 0.000000
101.690918 -159.557312 -35.815002 0.000000
115.174225 -159.557312 -35.815002 0.000000
128.657501 -159.557312 -35.815002 0.000000
142.140808 -159.557312 -35.815002 0.000000
155.624115 -159.557312 -35.815002 0.000000
169.107422 -159.557312 -35.815002 0.000000
182.590698 -159.557312 -35.815002 0.000000
196.074036 -159.557312 -35.815002 0.000000
209.557312 -159.557312 -35.815002 0.000000
223.040588 -159.557312 -35.815002 0.000000
236.523926 -159.557312 -35.815002 0.000000
250.007202 -159.557312 -35.815002 0.000000
263.490540 -159.557312 -35.815002 0.000000
276.973816 -159.557312 -35.815002 0.000000
290.457092 -159.557312 -35.815002 0.000000
303.940430 -159.557312 -35.815002 0.000000
317.423706 -159.557312 -35.815002 0.000000
330.907043 -159.557312 -35.815002 0.000000
344.390320 -159.557312 -35.815002 0.000000
-343.257996 -173.040588 -35.815002 0.000000
-329.774689 -173.040588 -35.815002 0.000000
-316.291382 -173.040588 -35.815002 0.000000
-302.808105 -173.040588 -35.815002 0.000000
-289.324799 -173.040588 -35.815002 0.000000
-275.841492 -173.040588 -35.815002 0.000000
-262.358185 -173.040588 -35.815002 0.000000
-248.874893 -173.040588 -35.815002 0.000000
-235.391602 -173.040588 -35.815002 0.000000
-221.908295 -173.040588 -35.815002 0.000000
-208.424988 -173.040588 -35.815002 0.000000
-194.941696 -173.040588 -35.815002 0.000000
-181.458389 -173.040588 -35.815002 0.000000
-167.975098 -173.040588 -35.815002 0.000000
-154.491791 -173.040588 -35.815002 0.000000
-141.008499 -173.040588 -35.815002 0.000000
-127.525192 -173.040588 -35.815002 0.000000
-114.041885 -173.040588 -35.815002 0.000000
-100.558594 -173.040588 -35.815002 0.000000
-87.075287 -173.040588 -35.815002 0.000000
-73.591980 -173.040588 -35.815002 0.000000
-60.108704 -173.040588 -35.815002 0.000000
-46.625397 -173.040588 -35.815002 0.000000
-33.142090 -173.040588 -35.815002 0.000000
-19.658783 -173.040588 -35.815002 0.000000
-6.175476 -173.040588 -35.815002 0.000000
7.307800 -173.040588 -35.815002 0.000000
20.791107 -173.040588 -35.815002 0.000000
34.274414 -173.040588 -35.815002 0.000000
47.757721 -173.040588 -35.815002 0.000000
61.240997 -173.040588 -35.815002 0.000000
74.724304 -173.040588 -35.815002 0.000000
88.207611 -173.040588 -35.815002 0.000000
101.690918 -173.040588 -35.815002 0.000000
115.174225 -173.040588 -35.815002 0.000000
128.657501 -173.040588 -35.815002 0.000000
142.140808 -173.040588 -35.815002 0.000000
155.624115 -173.040588 -35.815002 0.000000
169.107422 -173.040588 -35.815002 0.000000
182.590698 -173.040588 -35.815002 0.000000
196.074036 -173.040588 -35.815002 0.000000
209.557312 -173.040588 -35.815002 0.000000
223.040588 -173.040588 -35.815002 0.000000
236.523926 -173.040588 -35.815002 0.000000
250.007202 -173.040588 -35.815002 0.000000
263.490540 -173.040588 -35.815002 0.000000
276.973816 -173.040588 -35.815002 0.000000
290.457092 -173.040588 -35.815002 0.000000
303.940430 -173.040588 -35.815002 0.000000
317.423706 -173.040588 -35.815002 0.000000
330.907043 -173.040588 -35.815002 0.000000
344.390320 -173.040588 -35.815002 0.000000
-343.257996 -186.523926 -35.815002 0.000000
-329.774689 -186.523926 -35.815002 0.000000
-316.291382 -186.523926 -35.815002 0.000000
-302.808105 -186.523926 -35.815002 0.000000
-289.324799 -186.523926 -35.815002 0.000000
-275.841492 -186.523926 -35.815002 0.000000
-262.358185 -186.523926 -35.815002 0.000000
-248.874893 -186.523926 -35.815002 0.000000
-235.391602 -186.523926 -35.815002 0.000000
-221.908295 -186.523926 -35.815002 0.000000
-208.424988 -186.523926 -35.815002 0.000000
-194.941696 -186.523926 -35.815002 0.000000
-181.458389 -186.523926 -35.815002 0.000000
-167.975098 -186.523926 -35.815002 0.000000
-154.491791 -186.523926 -35.815002 0.000000
-141.008499 -186.523926 -35.815002 0.000000
-127.525192 -186.523926 -35.815002 0.000000
-114.041885 -186.523926 -35.815002 0.000000
-100.558594 -186.523926 -35.815002 0.000000
-87.075287 -186.523926 -35.815002 0.000000
-73.591980 -186.523926 -35.815002 0.000000
-60.108704 -186.523926 -35.815002 0.000000
-46.625397 -186.523926 -35.815002 0.000000
-33.142090 -186.523926 -35.815002 0.000000
-19.658783 -186.523926 -35.815002 0.000000
-6.175476 -186.523926 -35.815002 0.000000
7.307800 -186.523926 -35.815002 0.000000
20.791107 -186.523926 -35.815002 0.000000
34.274414 -186.523926 -35.815002 0.000000
47.757721 -186.523926 -35.815002 0.000000
61.240997 -186.523926 -35.815002 0.000000
74.724304 -186.523926 -35.815002 0.000000
88.207611 -186.523926 -35.815002 0.000000
101.690918 -186.523926 -35.815002 0.000000
115.174225 -186.523926 -35.815002 0.000000
128.657501 -186.523926 -35.815002 0.000000
142.140808 -186.523926 -35.815002 0.000000
155.624115 -186.523926 -35.815002 0.000000
169.107422 -186.523926 -35.815002 0.000000
182.590698 -186.523926 -35.815002 0.000000
196.074036 -186.523926 -35.815002 0.000000
209.557312 -186.523926 -35.815002 0.000000
223.040588 -186.523926 -35.815002 0.000000
236.523926 -186.523926 -35.815002 0.000000
250.007202 -186.523926 -35.815002 0.000000
263.490540 -186.523926 -35.815002 0.000000
276.973816 -186.523926 -35.815002 0.000000
290.457092 -186.523926 -35.815002 0.000000
303.940430 -186.523926 -35.815002 0.000000
317.423706 -186.523926 -35.815002 0.000000
330.907043 -186.523926 -35.815002 0.000000
344.390320 -186.523926 -35.815002 0.000000
-343.257996 -200.007202 -35.815002 0.000000
-329.774689 -200.007202 -35.815002 0.000000
-316.291382 -200.007202 -35.815002 0.000000
-302.808105 -200.007202 -35.815002 0.000000
-289.324799 -200.007202 -35.815002 0.000000
-275.841492 -200.007202 -35.815002 0.000000
-262.358185 -200.007202 -35.815002 0.000000
-248.874893 -200.007202 -35.815002 0.000000
-235.391602 -200.007202 -35.815002 0.000000
-221.908295 -200.007202 -35.815002 0.000000
-208.424988 -200.007202 -35.815002 0.000000
-194.941696 -200.007202 -35.815002 0.000000
-181.458389 -200.007202 -35.815002 0.000000
-167.975098 -200.007202 -35.815002 0.000000
-154.491791 -200.007202 -35.815002 0.000000
-141.008499 -200.007202 -35.815002 0.000000
-127.525192 -200.007202 -35.815002 0.000000
-114.041885 -200.007202 -35.815002 0.000000
-100.558594 -200.007202 -35.815002 0.000000
-87.075287 -200.007202 -35.815002 0.000000
-73.591980 -200.007202 -35.815002 0.000000
-60.108704 -200.007202 -35.815002 0.000000
-46.625397 -200.007202 -35.815002 0.000000
-33.142090 -200.007202 -35.815002 0.000000
-19.658783 -200.007202 -35.815002 0.000000
-6.175476 -200.007202 -35.815002 0.000000
7.307800 -200.007202 -35.815002 0.000000
20.791107 -200.007202 -35.815002 0.000000
34.274414 -200.007202 -35.815002 0.000000
47.757721 -200.007202 -35.815002 0.000000
61.240997 -200.007202 -35.815002 0.000000
74.724304 -200.007202 -35.815002 0.000000
88.207611 -200.007202 -35.815002 0.000000
101.690918 -200.007202 -35.815002 0.000000
115.174225 -200.007202 -35.815002 0.000000
128.657501 -200.007202 -35.815002 0.000000
142.140808 -200.007202 -35.815002 0.000000
155.624115 -200.007202 -35.815002 0.000000
169.107422 -200.007202 -35.815002 0.000000
182.590698 -200.007202 -35.815002 0.000000
196.074036 -200.007202 -35.815002 0.000000
209.557312 -200.007202 -35.815002 0.000000
223.040588 -200.007202 -35.815002 0.000000
236.523926 -200.007202 -35.815002 0.000000
250.007202 -200.007202 -35.815002 0.000000
263.490540 -200.007202 -35.815002 0.000000
276.973816 -200.007202 -35.815002 0.000000
290.457092 -200.007202 -35.815002 0.000000
303.940430 -200.007202 -35.815002 0.000000
317.423706 -200.007202 -35.815002 0.000000
330.907043 -200.007202 -35.815002 0.000000
344.390320 -200.007202 -35.815002 0.000000
-343.257996 393.257996 -22.331701 0.000000
-329.774689 393.257996 -22.331701 0.000000
-316.291382 393.257996 -22.331701 0.000000
-302.808105 393.257996 -22.331701 0.000000
-289.324799 393.257996 -22.331701 0.000000
-275.841492 393.257996 -22.331701 0.000000
-262.358185 393.257996 -22.331701 0.000000
-248.874893 393.257996 -22.331701 0.000000
-235.391602 393.257996 -22.331701 0.000000
-221.908295 393.257996 -22.331701 0.000000
-208.424988 393.257996 -22.331701 0.000000
-194.941696 393.257996 -22.331701 0.000000
-181.458389 393.257996 -22.331701 0.000000
-167.975098 393.257996 -22.331701 0.000000
-154.491791 393.257996 -22.331701 0.000000
-141.008499 393.257996 -22.331701 0.000000
-127.525192 393.257996 -22.331701 0.000000
-114.041885 393.257996 -22.331701 0.000000
-100.558594 393.257996 -22.331701 0.000000
-87.075287 393.257996 -22.331701 0.000000
-73.591980 393.257996 -22.331701 0.000000
-60.108704 393.257996 -22.331701 0.000000
-46.625397 393.257996 -22.331701 0.000000
-33.142090 393.257996 -22.331701 0.000000
-19.658783 393.257996 -22.331701 0.000000
-6.175476 393.257996 -22.331701 0.000000
7.307800 393.257996 -22.331701 0.000000
20.791107 393.257996 -22.331701 0.000000
34.274414 393.257996 -22.331701 0.000000
47.757721 393.257996 -22.331701 0.000000
61.240997 393.257996 -22.331701 0.000000
74.724304 393.257996 -22.331701 0.000000
88.207611 393.257996 -22.331701 0.000000
101.690918 393.257996 -22.331701 0.000000
115.174225 393.257996 -22.331701 0.000000
128.657501 393.257996 -22.331701 0.000000
142.140808 393.257996 -22.331701 0.000000
155.624115 393.257996 -22.331701 0.000000
169.107422 393.257996 -22.331701 0.000000
182.590698 393.257996 -22.331701 0.000000
196.074036 393.257996 -22.331701 0.000000
209.557312 393.257996 -22.331701 0.000000
223.040588 393.257996 -22.331701 0.000000
236.523926 393.257996 -22.331701 0.000000
250.007202 393.257996 -22.331701 0.000000
263.490540 393.257996 -22.331701 0.000000
276.973816 393.257996 -22.331701 0.000000
290.457092 393.257996 -22.331701 0.000000
303.940430 393.257996 -22.331701 0.000000
317.423706 393.257996 -22.331701 0.000000
330.907043 393.257996 -22.331701 0.000000
344.390320 393.257996 -22.331701 0.000000
-343.257996 379.774689 -22.331701 0.000000
-329.774689 379.774689 -22.331701 0.000000
-316.291382 379.774689 -22.331701 0.000000
-302.808105 379.774689 -22.331701 0.000000
-289.324799 379.774689 -22.331701 0.000000
-275.841492 379.774689 -22.331701 0.000000
-262.358185 379.774689 -22.331701 0.000000
-248.874893 379.774689 -22.331701 0.000000
-235.391602 379.774689 -22.331701 0.000000
-221.908295 379.774689 -22.331701 0.000000
-208.424988 379.774689 -22.331701 0.000000
-194.941696 379.774689 -22.331701 0.000000
-181.458389 379.774689 -22.331701 0.000000
-167.975098 379.774689 -22.331701 0.000000
-154.491791 379.774689 -22.331701 0.000000
-141.008499 379.774689 -22.331701 0.000000
-127.525192 379.774689 -22.331701 0.000000
-114.041885 379.774689 -22.331701 0.000000
-100.558594 379.774689 -22.331701 0.000000
-87.075287 379.774689 -22.331701 0.000000
-73.591980 379.774689 -22.331701 0.000000
-60.108704 379.774689 -22.331701 0.000000
-46.625397 379.774689 -22.331701 0.000000
-33.142090 379.774689 -22.331701 0.000000
-19.658783 379.774689 -22.331701 0.000000
-6.175476 379.774689 -22.331701 0.000000
7.307800 379.774689 -22.331701 0.000000
20.791107 379.774689 -22.331701 0.000000
34.274414 379.774689 -22.331701 0.000000
47.757721 379.774689 -22.331701 0.000000
61.240997 379.774689 -22.331701 0.000000
74.724304 379.774689 -22.331701 0.000000
88.207611 379.774689 -22.331701 0.000000
101.690918 379.774689 -22.331701 0.000000
115.174225 379.774689 -22.331701 0.000000
128.657501 379.774689 -22.331701 0.000000
142.140808 379.774689 -22.331701 0.000000
155.624115 379.774689 -22.331701 0.000000
169.107422 379.774689 -22.331701 0.000000
182.590698 379.774689 -22.331701 0.000000
196.074036 379.774689 -22.331701 0.000000
209.557312 379.774689 -22.331701 0.000000
223.040588 379.774689 -22.331701 0.000000
236.523926 379.774689 -22.331701 0.000000
250.007202 379.774689 -22.331701 0.000000
263.490540 379.774689 -22.331701 0.000000
276.973816 379.774689 -22.331701 0.000000
290.457092 379.774689 -22.331701 0.000000
303.940430 379.774689 -22.331701 0.000000
317.423706 379.774689 -22.331701 0.000000
330.907043 379.774689 -22.331701 0.000000
344.390320 379.774689 -22.331701 0.000000
-343.257996 366.291382 -22.331701 0.000000
-329.774689 366.291382 -22.331701 0.000000
-316.291382 366.291382 -22.331701 0.000000
-302.808105 366.291382 -22.331701 0.000000
-289.324799 366.291382 -22.331701 0.000000
-275.841492 366.291382 -22.331701 0.000000
-262.358185 366.291382 -22.331701 0.000000
-248.874893 366.291382 -22.331701 0.000000
-235.391602 366.291382 -22.331701 0.000000
-221.908295 366.291382 -22.331701 0.000000
-208.424988 366.291382 -22.331701 0.000000
-194.941696 366.291382 -22.331701 0.000000
-181.458389 366.291382 -22.331701 0.000000
-167.975098 366.291382 -22.331701 0.000000
-154.491791 366.291382 -22.331701 0.000000
-141.008499 366.291382 -22.331701 0.000000
-127.525192 366.291382 -22.331701 0.000000
-114.041885 366.291382 -22.331701 0.000000
-100.558594 366.291382 -22.331701 0.000000
-87.075287 366.291382 -22.331701 0.000000
-73.591980 366.291382 -22.331701 0.000000
-60.108704 366.291382 -22.331701 0.000000
-46.625397 366.291382 -22.331701 0.000000
-33.142090 366.291382 -22.331701 0.000000
-19.658783 366.291382 -22.331701 0.000000
-6.175476 366.291382 -22.331701 0.000000
7.307800 366.291382 -22.331701 0.000000
20.791107 366.291382 -22.331701 1.221873
34.274414 366.291382 -22.331701 0.000000
47.757721 366.291382 -22.331701 1.136913
61.240997 366.291382 -22.331701 1.005358
74.724304 366.291382 -22.331701 1.000458
88.207611 366.291382 -22.331701 1.171605
101.690918 366.291382 -22.331701 1.475204
115.174225 366.291382 -22.331701 1.913028
128.657501 366.291382 -22.331701 0.000000
142.140808 366.291382 -22.331701 0.000000
155.624115 366.291382 -22.331701 0.000000
169.107422 366.291382 -22.331701 0.000000
182.590698 366.291382 -22.331701 0.000000
196.074036 366.291382 -22.331701 0.000000
209.557312 366.291382 -22.331701 0.000000
223.040588 366.291382 -22.331701 0.000000
236.523926 366.291382 -22.331701 0.000000
250.007202 366.291382 -22.331701 0.000000
263.490540 366.291382 -22.331701 0.000000
276.973816 366.291382 -22.331701 0.000000
290.457092 366.291382 -22.331701 0.000000
303.940430 366.291382 -22.331701 0.000000
317.423706 366.291382 -22.331701 0.000000
330.907043 366.291382 -22.331701 0.000000
344.390320 366.291382 -22.331701 0.000000
-343.257996 352.808105 -22.331701 0.000000
-329.774689 352.808105 -22.331701 0.000000
-316.291382 352.808105 -22.331701 0.000000
-302.808105 352.808105 -22.331701 0.000000
-289.324799 352.808105 -22.331701 0.000000
-275.841492 352.808105 -22.331701 0.000000
-262.358185 352.808105 -22.331701 0.000000
-248.874893 352.808105 -22.331701 0.000000
-235.391602 352.808105 -22.331701 0.000000
-221.908295 352.808105 -22.331701 3.539024
-208.424988 352.808105 -22.331701 4.016172
-194.941696 352.808105 -22.331701 4.059557
-181.458389 352.808105 -22.331701 4.476020
-167.975098 352.808105 -22.331701 5.199028
-154.491791 352.808105 -22.331701 5.652107
-141.008499 352.808105 -22.331701 6.167126
-127.525192 352.808105 -22.331701 6.862114
-114.041885 352.808105 -22.331701 6.879213
-100.558594 352.808105 -22.331701 6.858496
-87.075287 352.808105 -22.331701 6.794704
-73.591980 352.808105 -22.331701 6.531620
-60.108704 352.808105 -22.331701 5.835279
-46.625397 352.808105 -22.331701 4.249952
-33.142090 352.808105 -22.331701 3.381948
-19.658783 352.808105 -22.331701 2.199639
-6.175476 352.808105 -22.331701 1.656456
7.307800 352.808105 -22.331701 1.583403
20.791107 352.808105 -22.331701 1.407294
34.274414 352.808105 -22.331701 1.214878
47.757721 352.808105 -22.331701 1.094833
61.240997 352.808105 -22.331701 1.190843
74.724304 352.808105 -22.331701 1.325666
88.207611 352.808105 -22.331701 1.453478
101.690918 352.808105 -22.331701 1.799076
115.174225 352.808105 -22.331701 2.257884
128.657501 352.808105 -22.331701 2.780425
142.140808 352.808105 -22.331701 2.899091
155.624115 352.808105 -22.331701 3.251506
169.107422 352.808105 -22.331701 3.730848
182.590698 352.808105 -22.331701 4.131541
196.074036 352.808105 -22.331701 3.916725
209.557312 352.808105 -22.331701 0.000000
223.040588 352.808105 -22.331701 0.000000
236.523926 352.808105 -22.331701 0.000000
250.007202 352.808105 -22.331701 0.000000
263.490540 352.808105 -22.331701 0.000000
276.973816 352.808105 -22.331701 0.000000
290.457092 352.808105 -22.331701 0.000000
303.940430 352.808105 -22.331701 0.000000
317.423706 352.808105 -22.331701 0.000000
330.907043 352.808105 -22.331701 0.000000
344.390320 352.808105 -22.331701 0.000000
-343.257996 339.324799 -22.331701 0.000000
-329.774689 339.324799 -22.331701 0.000000
-316.291382 339.324799 -22.331701 0.000000
-302.808105 339.324799 -22.331701 0.000000
-289.324799 339.324799 -22.331701 0.000000
-275.841492 339.324799 -22.331701 2.673802
-262.358185 339.324799 -22.331701 2.269475
-248.874893 339.324799 -22.331701 2.410031
-235.391602 339.324799 -22.331701 2.764060
-221.908295 339.324799 -22.331701 3.237381
-208.424988 339.324799 -22.331701 3.628061
-194.941696 339.324799 -22.331701 3.824523
-181.458389 339.324799 -22.331701 4.459260
-167.975098 339.324799 -22.331701 4.873562
-154.491791 339.324799 -22.331701 5.477634
-141.008499 339.324799 -22.331701 6.332755
-127.525192 339.324799 -22.331701 6.740510
-114.041885 339.324799 -22.331701 7.846772
-100.558594 339.324799 -22.331701 7.825706
-87.075287 339.324799 -22.331701 7.401340
-73.591980 339.324799 -22.331701 7.297990
-60.108704 339.324799 -22.331701 6.338074
-46.625397 339.324799 -22.331701 5.477334
-33.142090 339.324799 -22.331701 4.096296
-19.658783 339.324799 -22.331701 2.797231
-6.175476 339.324799 -22.331701 2.202481
7.307800 339.324799 -22.331701 1.867610
20.791107 339.324799 -22.331701 1.512905
34.274414 339.324799 -22.331701 1.430846
47.757721 339.324799 -22.331701 1.273679
61.240997 339.324799 -22.331701 1.381411
74.724304 339.324799 -22.331701 1.492266
88.207611 339.324799 -22.331701 2.017347
101.690918 339.324799 -22.331701 2.413741
115.174225 339.324799 -22.331701 2.923499
128.657501 339.324799 -22.331701 3.272157
142.140808 339.324799 -22.331701 3.345356
155.624115 339.324799 -22.331701 3.614446
169.107422 339.324799 -22.331701 3.826693
182.590698 339.324799 -22.331701 3.891015
196.074036 339.324799 -22.331701 3.602650
209.557312 339.324799 -22.331701 3.554632
223.040588 339.324799 -22.331701 3.400619
236.523926 339.324799 -22.331701 3.133395
250.007202 339.324799 -22.331701 2.759271
263.490540 339.324799 -22.331701 2.991763
276.973816 339.324799 -22.331701 0.000000
290.457092 339.324799 -22.331701 0.000000
303.940430 339.324799 -22.331701 0.000000
317.423706 339.324799 -22.331701 0.000000
330.907043 339.324799 -22.331701 0.000000
344.390320 339.324799 -22.331701 0.000000
-343.257996 325.841492 -22.331701 0.000000
-329.774689 325.841492 -22.331701 0.000000
-316.291382 325.841492 -22.331701 0.000000
-302.808105 325.841492 -22.331701 0.000000
-289.324799 325.841492 -22.331701 1.944870
-275.841492 325.841492 -22.331701 2.059073
-262.358185 325.841492 -22.331701 1.786802
-248.874893 325.841492 -22.331701 2.132630
-235.391602 325.841492 -22.331701 2.456832
-221.908295 325.841492 -22.331701 3.022144
-208.424988 325.841492 -22.331701 3.380531
-194.941696 325.841492 -22.331701 3.704733
-181.458389 325.841492 -22.331701 4.486088
-167.975098 325.841492 -22.331701 5.196441
-154.491791 325.841492 -22.331701 5.581072
-141.008499 325.841492 -22.331701 6.322084
-127.525192 325.841492 -22.331701 7.244864
-114.041885 325.841492 -22.331701 7.936048
-100.558594 325.841492 -22.331701 8.195227
-87.075287 325.841492 -22.331701 7.866170
-73.591980 325.841492 -22.331701 7.452356
-60.108704 325.841492 -22.331701 6.909267
-46.625397 325.841492 -22.331701 6.203879
-33.142090 325.841492 -22.331701 4.797689
-19.658783 325.841492 -22.331701 3.198775
-6.175476 325.841492 -22.331701 2.327004
7.307800 325.841492 -22.331701 2.040196
20.791107 325.841492 -22.331701 1.733356
34.274414 325.841492 -22.331701 1.459736
47.757721 325.841492 -22.331701 1.466394
61.240997 325.841492 -22.331701 1.611447
74.724304 325.841492 -22.331701 2.036171
88.207611 325.841492 -22.331701 2.688701
101.690918 325.841492 -22.331701 3.457115
115.174225 325.841492 -22.331701 3.820889
128.657501 325.841492 -22.331701 4.201563
142.140808 325.841492 -22.331701 4.056201
155.624115 325.841492 -22.331701 4.239414
169.107422 325.841492 -22.331701 4.356369
182.590698 325.841492 -22.331701 4.121794
196.074036 325.841492 -22.331701 3.649767
209.557312 325.841492 -22.331701 3.316619
223.040588 325.841492 -22.331701 2.947635
236.523926 325.841492 -22.331701 2.930900
250.007202 325.841492 -22.331701 2.645476
263.490540 325.841492 -22.331701 2.191230
276.973816 325.841492 -22.331701 2.362993
290.457092 325.841492 -22.331701 0.000000
303.940430 325.841492 -22.331701 0.000000
317.423706 325.841492 -22.331701 0.000000
330.907043 325.841492 -22.331701 0.000000
344.390320 325.841492 -22.331701 0.000000
-343.257996 312.358185 -22.331701 0.000000
-329.774689 312.358185 -22.331701 0.000000
-316.291382 312.358185 -22.331701 0.000000
-302.808105 312.358185 -22.331701 1.388731
-289.324799 312.358185 -22.331701 1.430893
-275.841492 312.358185 -22.331701 1.439036
-262.358185 312.358185 -22.331701 1.676899
-248.874893 312.358185 -22.331701 1.797022
-235.391602 312.358185 -22.331701 2.141643
-221.908295 312.358185 -22.331701 2.485530
-208.424988 312.358185 -22.331701 3.189568
-194.941696 312.358185 -22.331701 3.712220
-181.458389 312.358185 -22.331701 4.238554
-167.975098 312.358185 -22.331701 5.164436
-154.491791 312.358185 -22.331701 5.529683
-141.008499 312.358185 -22.331701 6.472214
-127.525192 312.358185 -22.331701 7.428481
-114.041885 312.358185 -22.331701 7.950251
-100.558594 312.358185 -22.331701 8.132779
-87.075287 312.358185 -22.331701 7.935623
-73.591980 312.358185 -22.331701 7.650927
-60.108704 312.358185 -22.331701 7.111485
-46.625397 312.358185 -22.331701 6.364355
-33.142090 312.358185 -22.331701 5.271379
-19.658783 312.358185 -22.331701 3.775432
-6.175476 312.358185 -22.331701 3.002192
7.307800 312.358185 -22.331701 2.330567
20.791107 312.358185 -22.331701 2.124115
34.274414 312.358185 -22.331701 1.776859
47.757721 312.358185 -22.331701 1.757116
61.240997 312.358185 -22.331701 2.118708
74.724304 312.358185 -22.331701 2.716097
88.207611 312.358185 -22.331701 3.743788
101.690918 312.358185 -22.331701 4.413079
115.174225 312.358185 -22.331701 4.816340
128.657501 312.358185 -22.331701 4.400947
142.140808 312.358185 -22.331701 4.310096
155.624115 312.358185 -22.331701 4.714454
169.107422 312.358185 -22.331701 4.585172
182.590698 312.358185 -22.331701 4.041476
196.074036 312.358185 -22.331701 3.587449
209.557312 312.358185 -22.331701 3.002185
223.040588 312.358185 -22.331701 2.624971
236.523926 312.358185 -22.331701 2.373645
250.007202 312.358185 -22.331701 2.088200
263.490540 312.358185 -22.331701 1.840313
276.973816 312.358185 -22.331701 1.646961
290.457092 312.358185 -22.331701 1.385455
303.940430 312.358185 -22.331701 0.000000
317.423706 312.358185 -22.331701 0.000000
330.907043 312.358185 -22.331701 0.000000
344.390320 312.358185 -22.331701 0.000000
-343.257996 298.874878 -22.331701 0.000000
-329.774689 298.874878 -22.331701 0.000000
-316.291382 298.874878 -22.331701 1.150937
-302.808105 298.874878 -22.331701 0.930117
-289.324799 298.874878 -22.331701 0.997777
-275.841492 298.874878 -22.331701 1.051117
-262.358185 298.874878 -22.331701 1.063613
-248.874893 298.874878 -22.331701 1.272487
-235.391602 298.874878 -22.331701 1.610916
-221.908295 298.874878 -22.331701 2.164431
-208.424988 298.874878 -22.331701 2.771551
-194.941696 298.874878 -22.331701 3.270012
-181.458389 298.874878 -22.331701 4.083697
-167.975098 298.874878 -22.331701 4.575575
-154.491791 298.874878 -22.331701 5.448957
-141.008499 298.874878 -22.331701 5.799588
-127.525192 298.874878 -22.331701 6.971557
-114.041885 298.874878 -22.331701 7.204957
-100.558594 298.874878 -22.331701 7.555067
-87.075287 298.874878 -22.331701 7.415071
-73.591980 298.874878 -22.331701 7.228914
-60.108704 298.874878 -22.331701 7.152995
-46.625397 298.874878 -22.331701 7.091259
-33.142090 298.874878 -22.331701 6.060233
-19.658783 298.874878 -22.331701 4.915315
-6.175476 298.874878 -22.331701 3.720073
7.307800 298.874878 -22.331701 2.825612
20.791107 298.874878 -22.331701 2.552520
34.274414 298.874878 -22.331701 2.263889
47.757721 298.874878 -22.331701 2.123189
61.240997 298.874878 -22.331701 2.494828
74.724304 298.874878 -22.331701 3.423608
88.207611 298.874878 -22.331701 4.874749
101.690918 298.874878 -22.331701 5.399050
115.174225 298.874878 -22.331701 5.616185
128.657501 298.874878 -22.331701 5.099730
142.140808 298.874878 -22.331701 4.645864
155.624115 298.874878 -22.331701 4.606908
169.107422 298.874878 -22.331701 4.280561
182.590698 298.874878 -22.331701 3.997956
196.074036 298.874878 -22.331701 3.554290
209.557312 298.874878 -22.331701 2.669700
223.040588 298.874878 -22.331701 2.308272
236.523926 298.874878 -22.331701 2.001393
250.007202 298.874878 -22.331701 1.668214
263.490540 298.874878 -22.331701 1.507079
276.973816 298.874878 -22.331701 1.259168
290.457092 298.874878 -22.331701 1.090679
303.940430 298.874878 -22.331701 1.288277
317.423706 298.874878 -22.331701 0.000000
330.907043 298.874878 -22.331701 0.000000
344.390320 298.874878 -22.331701 0.000000
-343.257996 285.391602 -22.331701 0.000000
-329.774689 285.391602 -22.331701 0.000000
-316.291382 285.391602 -22.331701 0.720156
-302.808105 285.391602 -22.331701 0.612037
-289.324799 285.391602 -22.331701 0.685954
-275.841492 285.391602 -22.331701 0.830912
-262.358185 285.391602 -22.331701 0.884994
-248.874893 285.391602 -22.331701 1.098157
-235.391602 285.391602 -22.331701 1.537287
-221.908295 285.391602 -22.331701 1.955191
-208.424988 285.391602 -22.331701 2.771247
-194.941696 285.391602 -22.331701 3.535540
-181.458389 285.391602 -22.331701 4.053116
-167.975098 285.391602 -22.331701 4.461465
-154.491791 285.391602 -22.331701 4.924284
-141.008499 285.391602 -22.331701 5.257610
-127.525192 285.391602 -22.331701 5.872802
-114.041885 285.391602 -22.331701 6.395334
-100.558594 285.391602 -22.331701 6.770576
-87.075287 285.391602 -22.331701 6.739935
-73.591980 285.391602 -22.331701 6.162734
-60.108704 285.391602 -22.331701 6.664265
-46.625397 285.391602 -22.331701 7.078063
-33.142090 285.391602 -22.331701 6.138887
-19.658783 285.391602 -22.331701 5.128881
-6.175476 285.391602 -22.331701 4.054327
7.307800 285.391602 -22.331701 3.403893
20.791107 285.391602 -22.331701 2.952567
34.274414 285.391602 -22.331701 2.774666
47.757721 285.391602 -22.331701 2.707821
61.240997 285.391602 -22.331701 3.372101
74.724304 285.391602 -22.331701 4.518905
88.207611 285.391602 -22.331701 5.985013
101.690918 285.391602 -22.331701 6.539481
115.174225 285.391602 -22.331701 6.124509
128.657501 285.391602 -22.331701 5.534187
142.140808 285.391602 -22.331701 5.247959
155.624115 285.391602 -22.331701 4.826417
169.107422 285.391602 -22.331701 4.130843
182.590698 285.391602 -22.331701 3.758884
196.074036 285.391602 -22.331701 3.296375
209.557312 285.391602 -22.331701 2.702370
223.040588 285.391602 -22.331701 2.227759
236.523926 285.391602 -22.331701 1.755098
250.007202 285.391602 -22.331701 1.489287
263.490540 285.391602 -22.331701 1.306553
276.973816 285.391602 -22.331701 1.021027
290.457092 285.391602 -22.331701 0.908911
303.940430 285.391602 -22.331701 0.921931
317.423706 285.391602 -22.331701 0.000000
330.907043 285.391602 -22.331701 0.000000
344.390320 285.391602 -22.331701 0.000000
-343.257996 271.908295 -22.331701 0.000000
-329.774689 271.908295 -22.331701 0.000000
-316.291382 271.908295 -22.331701 0.557958
-302.808105 271.908295 -22.331701 0.522774
-289.324799 271.908295 -22.331701 0.634165
-275.841492 271.908295 -22.331701 0.749302
-262.358185 271.908295 -22.331701 0.834766
-248.874893 271.908295 -22.331701 1.063528
-235.391602 271.908295 -22.331701 1.433103
-221.908295 271.908295 -22.331701 1.886521
-208.424988 271.908295 -22.331701 2.606172
-194.941696 271.908295 -22.331701 3.385896
-181.458389 271.908295 -22.331701 3.976873
-167.975098 271.908295 -22.331701 4.163784
-154.491791 271.908295 -22.331701 4.349882
-141.008499 271.908295 -22.331701 5.087298
-127.525192 271.908295 -22.331701 5.611867
-114.041885 271.908295 -22.331701 5.968236
-100.558594 271.908295 -22.331701 6.067215
-87.075287 271.908295 -22.331701 6.167839
-73.591980 271.908295 -22.331701 6.217778
-60.108704 271.908295 -22.331701 6.111078
-46.625397 271.908295 -22.331701 6.726483
-33.142090 271.908295 -22.331701 6.094163
-19.658783 271.908295 -22.331701 5.767230
-6.175476 271.908295 -22.331701 5.035767
7.307800 271.908295 -22.331701 4.057359
20.791107 271.908295 -22.331701 3.594904
34.274414 271.908295 -22.331701 3.355273
47.757721 271.908295 -22.331701 3.580157
61.240997 271.908295 -22.331701 4.224234
74.724304 271.908295 -22.331701 5.744447
88.207611 271.908295 -22.331701 6.675870
101.690918 271.908295 -22.331701 7.006410
115.174225 271.908295 -22.331701 6.388558
128.657501 271.908295 -22.331701 5.920356
142.140808 271.908295 -22.331701 5.109169
155.624115 271.908295 -22.331701 4.579912
169.107422 271.908295 -22.331701 3.956520
182.590698 271.908295 -22.331701 3.668436
196.074036 271.908295 -22.331701 3.121828
209.557312 271.908295 -22.331701 2.581953
223.040588 271.908295 -22.331701 2.048946
236.523926 271.908295 -22.331701 1.454746
250.007202 271.908295 -22.331701 1.250484
263.490540 271.908295 -22.331701 0.946595
276.973816 271.908295 -22.331701 0.832004
290.457092 271.908295 -22.331701 0.693643
303.940430 271.908295 -22.331701 0.690839
317.423706 271.908295 -22.331701 0.905886
330.907043 271.908295 -22.331701 0.000000
344.390320 271.908295 -22.331701 0.000000
-343.257996 258.424988 -22.331701 0.000000
-329.774689 258.424988 -22.331701 0.000000
-316.291382 258.424988 -22.331701 0.458669
-302.808105 258.424988 -22.331701 0.487891
-289.324799 258.424988 -22.331701 0.582029
-275.841492 258.424988 -22.331701 0.648154
-262.358185 258.424988 -22.331701 0.819006
-248.874893 258.424988 -22.331701 1.049049
-235.391602 258.424988 -22.331701 1.486439
-221.908295 258.424988 -22.331701 1.836395
-208.424988 258.424988 -22.331701 2.506413
-194.941696 258.424988 -22.331701 3.046951
-181.458389 258.424988 -22.331701 3.536705
-167.975098 258.424988 -22.331701 3.969771
-154.491791 258.424988 -22.331701 4.138554
-141.008499 258.424988 -22.331701 4.895465
-127.525192 258.424988 -22.331701 5.313080
-114.041885 258.424988 -22.331701 5.324713
-100.558594 258.424988 -22.331701 5.513255
-87.075287 258.424988 -22.331701 5.744215
-73.591980 258.424988 -22.331701 5.953187
-60.108704 258.424988 -22.331701 5.608740
-46.625397 258.424988 -22.331701 6.106970
-33.142090 258.424988 -22.331701 6.319650
-19.658783 258.424988 -22.331701 6.081365
-6.175476 258.424988 -22.331701 5.284369
7.307800 258.424988 -22.331701 4.874156
20.791107 258.424988 -22.331701 4.377111
34.274414 258.424988 -22.331701 4.371787
47.757721 258.424988 -22.331701 4.780673
61.240997 258.424988 -22.331701 5.693947
74.724304 258.424988 -22.331701 6.715582
88.207611 258.424988 -22.331701 7.079354
101.690918 258.424988 -22.331701 6.908895
115.174225 258.424988 -22.331701 6.366955
128.657501 258.424988 -22.331701 5.742724
142.140808 258.424988 -22.331701 5.116341
155.624115 258.424988 -22.331701 4.353192
169.107422 258.424988 -22.331701 3.911963
182.590698 258.424988 -22.331701 3.433556
196.074036 258.424988 -22.331701 3.085678
209.557312 258.424988 -22.331701 2.664167
223.040588 258.424988 -22.331701 1.993044
236.523926 258.424988 -22.331701 1.516934
250.007202 258.424988 -22.331701 1.170517
263.490540 258.424988 -22.331701 0.835992
276.973816 258.424988 -22.331701 0.668942
290.457092 258.424988 -22.331701 0.591386
303.940430 258.424988 -22.331701 0.559659
317.423706 258.424988 -22.331701 0.595712
330.907043 258.424988 -22.331701 0.000000
344.390320 258.424988 -22.331701 0.000000
-343.257996 244.941696 -22.331701 0.000000
-329.774689 244.941696 -22.331701 0.000000
-316.291382 244.941696 -22.331701 0.405039
-302.808105 244.941696 -22.331701 0.463965
-289.324799 244.941696 -22.331701 0.534344
-275.841492 244.941696 -22.331701 0.678472
-262.358185 244.941696 -22.331701 0.856885
-248.874893 244.941696 -22.331701 1.159919
-235.391602 244.941696 -22.331701 1.405811
-221.908295 244.941696 -22.331701 1.819563
-208.424988 244.941696 -22.331701 2.373295
-194.941696 244.941696 -22.331701 2.957522
-181.458389 244.941696 -22.331701 3.136153
-167.975098 244.941696 -22.331701 3.752293
-154.491791 244.941696 -22.331701 4.078748
-141.008499 244.941696 -22.331701 4.381436
-127.525192 244.941696 -22.331701 4.569089
-114.041885 244.941696 -22.331701 5.038097
-100.558594 244.941696 -22.331701 5.111027
-87.075287 244.941696 -22.331701 5.126170
-73.591980 244.941696 -22.331701 5.807394
-60.108704 244.941696 -22.331701 5.703107
-46.625397 244.941696 -22.331701 5.789466
-33.142090 244.941696 -22.331701 5.803274
-19.658783 244.941696 -22.331701 6.010391
-6.175476 244.941696 -22.331701 5.383027
7.307800 244.941696 -22.331701 5.032578
20.791107 244.941696 -22.331701 4.897602
34.274414 244.941696 -22.331701 5.469511
47.757721 244.941696 -22.331701 5.907623
61.240997 244.941696 -22.331701 6.821652
74.724304 244.941696 -22.331701 7.298676
88.207611 244.941696 -22.331701 7.306798
101.690918 244.941696 -22.331701 7.105126
115.174225 244.941696 -22.331701 6.206443
128.657501 244.941696 -22.331701 5.343466
142.140808 244.941696 -22.331701 4.841948
155.624115 244.941696 -22.331701 4.096397
169.107422 244.941696 -22.331701 3.844392
182.590698 244.941696 -22.331701 3.511139
196.074036 244.941696 -22.331701 3.122655
209.557312 244.941696 -22.331701 2.617743
223.040588 244.941696 -22.331701 2.013515
236.523926 244.941696 -22.331701 1.506939
250.007202 244.941696 -22.331701 1.060515
263.490540 244.941696 -22.331701 0.778307
276.973816 244.941696 -22.331701 0.548019
290.457092 244.941696 -22.331701 0.532243
303.940430 244.941696 -22.331701 0.473723
317.423706 244.941696 -22.331701 0.447335
330.907043 244.941696 -22.331701 0.000000
344.390320 244.941696 -22.331701 0.000000
-343.257996 231.458389 -22.331701 0.000000
-329.774689 231.458389 -22.331701 0.000000
-316.291382 231.458389 -22.331701 0.359799
-302.808105 231.458389 -22.331701 0.439639
-289.324799 231.458389 -22.331701 0.565087
-275.841492 231.458389 -22.331701 0.708944
-262.358185 231.458389 -22.331701 0.921508
-248.874893 231.458389 -22.331701 1.187914
-235.391602 231.458389 -22.331701 1.434170
-221.908295 231.458389 -22.331701 1.806135
-208.424988 231.458389 -22.331701 2.128091
-194.941696 231.458389 -22.331701 2.746381
-181.458389 231.458389 -22.331701 3.125117
-167.975098 231.458389 -22.331701 3.769690
-154.491791 231.458389 -22.331701 3.905805
-141.008499 231.458389 -22.331701 4.191244
-127.525192 231.458389 -22.331701 4.229303
-114.041885 231.458389 -22.331701 4.440033
-100.558594 231.458389 -22.331701 4.540587
-87.075287 231.458389 -22.331701 4.565323
-73.591980 231.458389 -22.331701 5.038413
-60.108704 231.458389 -22.331701 5.513073
-46.625397 231.458389 -22.331701 5.539777
-33.142090 231.458389 -22.331701 5.489549
-19.658783 231.458389 -22.331701 5.986060
-6.175476 231.458389 -22.331701 5.501114
7.307800 231.458389 -22.331701 5.518806
20.791107 231.458389 -22.331701 5.397677
34.274414 231.458389 -22.331701 6.010735
47.757721 231.458389 -22.331701 7.000575
61.240997 231.458389 -22.331701 7.765583
74.724304 231.458389 -22.331701 7.766203
88.207611 231.458389 -22.331701 6.794472
101.690918 231.458389 -22.331701 6.877441
115.174225 231.458389 -22.331701 5.713147
128.657501 231.458389 -22.331701 4.993929
142.140808 231.458389 -22.331701 4.385595
155.624115 231.458389 -22.331701 3.719304
169.107422 231.458389 -22.331701 3.634192
182.590698 231.458389 -22.331701 3.379798
196.074036 231.458389 -22.331701 2.980381
209.557312 231.458389 -22.331701 2.499822
223.040588 231.458389 -22.331701 1.935762
236.523926 231.458389 -22.331701 1.398899
250.007202 231.458389 -22.331701 0.951525
263.490540 231.458389 -22.331701 0.675274
276.973816 231.458389 -22.331701 0.459091
290.457092 231.458389 -22.331701 0.408497
303.940430 231.458389 -22.331701 0.356757
317.423706 231.458389 -22.331701 0.372152
330.907043 231.458389 -22.331701 0.000000
344.390320 231.458389 -22.331701 0.000000
-343.257996 217.975098 -22.331701 0.000000
-329.774689 217.975098 -22.331701 0.000000
-316.291382 217.975098 -22.331701 0.397123
-302.808105 217.975098 -22.331701 0.479594
-289.324799 217.975098 -22.331701 0.597086
-275.841492 217.975098 -22.331701 0.765311
-262.358185 217.975098 -22.331701 1.016268
-248.874893 217.975098 -22.331701 1.313879
-235.391602 217.975098 -22.331701 1.575943
-221.908295 217.975098 -22.331701 1.799168
-208.424988 217.975098 -22.331701 2.020455
-194.941696 217.975098 -22.331701 2.673886
-181.458389 217.975098 -22.331701 3.133998
-167.975098 217.975098 -22.331701 3.584557
-154.491791 217.975098 -22.331701 3.915241
-141.008499 217.975098 -22.331701 3.991837
-127.525192 217.975098 -22.331701 3.976133
-114.041885 217.975098 -22.331701 4.358461
-100.558594 217.975098 -22.331701 4.250011
-87.075287 217.975098 -22.331701 4.219386
-73.591980 217.975098 -22.331701 4.651206
-60.108704 217.975098 -22.331701 4.881805
-46.625397 217.975098 -22.331701 5.306555
-33.142090 217.975098 -22.331701 5.497701
-19.658783 217.975098 -22.331701 5.915976
-6.175476 217.975098 -22.331701 5.752011
7.307800 217.975098 -22.331701 5.622148
20.791107 217.975098 -22.331701 5.980937
34.274414 217.975098 -22.331701 6.424484
47.757721 217.975098 -22.331701 7.374440
61.240997 217.975098 -22.331701 8.037622
74.724304 217.975098 -22.331701 7.187728
88.207611 217.975098 -22.331701 6.545478
101.690918 217.975098 -22.331701 5.624657
115.174225 217.975098 -22.331701 4.863289
128.657501 217.975098 -22.331701 4.213755
142.140808 217.975098 -22.331701 3.746385
155.624115 217.975098 -22.331701 3.383971
169.107422 217.975098 -22.331701 3.140047
182.590698 217.975098 -22.331701 2.967842
196.074036 217.975098 -22.331701 2.575071
209.557312 217.975098 -22.331701 2.187588
223.040588 217.975098 -22.331701 1.766082
236.523926 217.975098 -22.331701 1.334818
250.007202 217.975098 -22.331701 0.898944
263.490540 217.975098 -22.331701 0.618037
276.973816 217.975098 -22.331701 0.462645
290.457092 217.975098 -22.331701 0.356686
303.940430 217.975098 -22.331701 0.286601
317.423706 217.975098 -22.331701 0.295962
330.907043 217.975098 -22.331701 0.000000
344.390320 217.975098 -22.331701 0.000000
-343.257996 204.491791 -22.331701 0.000000
-329.774689 204.491791 -22.331701 0.000000
-316.291382 204.491791 -22.331701 0.502104
-302.808105 204.491791 -22.331701 0.545682
-289.324799 204.491791 -22.331701 0.638888
-275.841492 204.491791 -22.331701 0.760258
-262.358185 204.491791 -22.331701 1.030585
-248.874893 204.491791 -22.331701 1.371866
-235.391602 204.491791 -22.331701 1.664288
-221.908295 204.491791 -22.331701 1.895318
-208.424988 204.491791 -22.331701 2.152466
-194.941696 204.491791 -22.331701 2.675760
-181.458389 204.491791 -22.331701 3.245071
-167.975098 204.491791 -22.331701 3.633890
-154.491791 204.491791 -22.331701 3.796614
-141.008499 204.491791 -22.331701 4.096891
-127.525192 204.491791 -22.331701 4.100467
-114.041885 204.491791 -22.331701 4.102497
-100.558594 204.491791 -22.331701 3.932762
-87.075287 204.491791 -22.331701 3.955656
-73.591980 204.491791 -22.331701 4.262534
-60.108704 204.491791 -22.331701 4.443206
-46.625397 204.491791 -22.331701 5.000900
-33.142090 204.491791 -22.331701 5.515173
-19.658783 204.491791 -22.331701 5.417812
-6.175476 204.491791 -22.331701 5.525096
7.307800 204.491791 -22.331701 5.587407
20.791107 204.491791 -22.331701 6.177098
34.274414 204.491791 -22.331701 6.966919
47.757721 204.491791 -22.331701 7.430163
61.240997 204.491791 -22.331701 7.284117
74.724304 204.491791 -22.331701 6.397469
88.207611 204.491791 -22.331701 5.529429
101.690918 204.491791 -22.331701 4.768691
115.174225 204.491791 -22.331701 4.157010
128.657501 204.491791 -22.331701 3.523266
142.140808 204.491791 -22.331701 3.156510
155.624115 204.491791 -22.331701 3.038703
169.107422 204.491791 -22.331701 2.780845
182.590698 204.491791 -22.331701 2.476713
196.074036 204.491791 -22.331701 2.184440
209.557312 204.491791 -22.331701 1.953887
223.040588 204.491791 -22.331701 1.571019
236.523926 204.491791 -22.331701 1.190678
250.007202 204.491791 -22.331701 0.816449
263.490540 204.491791 -22.331701 0.565237
276.973816 204.491791 -22.331701 0.431847
290.457092 204.491791 -22.331701 0.349009
303.940430 204.491791 -22.331701 0.255773
317.423706 204.491791 -22.331701 0.252161
330.907043 204.491791 -22.331701 0.000000
344.390320 204.491791 -22.331701 0.000000
-343.257996 191.008499 -22.331701 0.000000
-329.774689 191.008499 -22.331701 0.000000
-316.291382 191.008499 -22.331701 0.508191
-302.808105 191.008499 -22.331701 0.599440
-289.324799 191.008499 -22.331701 0.717873
-275.841492 191.008499 -22.331701 0.820170
-262.358185 191.008499 -22.331701 1.027236
-248.874893 191.008499 -22.331701 1.365556
-235.391602 191.008499 -22.331701 1.679279
-221.908295 191.008499 -22.331701 2.053768
-208.424988 191.008499 -22.331701 2.360417
-194.941696 191.008499 -22.331701 2.797183
-181.458389 191.008499 -22.331701 3.124333
-167.975098 191.008499 -22.331701 3.437135
-154.491791 191.008499 -22.331701 3.634137
-141.008499 191.008499 -22.331701 3.895900
-127.525192 191.008499 -22.331701 4.003294
-114.041885 191.008499 -22.331701 3.904603
-100.558594 191.008499 -22.331701 3.818450
-87.075287 191.008499 -22.331701 3.913319
-73.591980 191.008499 -22.331701 3.896701
-60.108704 191.008499 -22.331701 4.391496
-46.625397 191.008499 -22.331701 4.932773
-33.142090 191.008499 -22.331701 5.154542
-19.658783 191.008499 -22.331701 5.346790
-6.175476 191.008499 -22.331701 5.333949
7.307800 191.008499 -22.331701 5.482922
20.791107 191.008499 -22.331701 5.981699
34.274414 191.008499 -22.331701 6.442700
47.757721 191.008499 -22.331701 7.173856
61.240997 191.008499 -22.331701 6.827160
74.724304 191.008499 -22.331701 5.857798
88.207611 191.008499 -22.331701 4.820154
101.690918 191.008499 -22.331701 3.982031
115.174225 191.008499 -22.331701 3.671370
128.657501 191.008499 -22.331701 3.060637
142.140808 191.008499 -22.331701 2.860727
155.624115 191.008499 -22.331701 2.674781
169.107422 191.008499 -22.331701 2.431494
182.590698 191.008499 -22.331701 2.206453
196.074036 191.008499 -22.331701 1.957996
209.557312 191.008499 -22.331701 1.681199
223.040588 191.008499 -22.331701 1.388038
236.523926 191.008499 -22.331701 1.001737
250.007202 191.008499 -22.331701 0.654933
263.490540 191.008499 -22.331701 0.510387
276.973816 191.008499 -22.331701 0.392408
290.457092 191.008499 -22.331701 0.320289
303.940430 191.008499 -22.331701 0.269391
317.423706 191.008499 -22.331701 0.238908
330.907043 191.008499 -22.331701 0.000000
344.390320 191.008499 -22.331701 0.000000
-343.257996 177.525192 -22.331701 0.000000
-329.774689 177.525192 -22.331701 0.000000
-316.291382 177.525192 -22.331701 0.560481
-302.808105 177.525192 -22.331701 0.646055
-289.324799 177.525192 -22.331701 0.758416
-275.841492 177.525192 -22.331701 0.872314
-262.358185 177.525192 -22.331701 1.119535
-248.874893 177.525192 -22.331701 1.370830
-235.391602 177.525192 -22.331701 1.785586
-221.908295 177.525192 -22.331701 2.180181
-208.424988 177.525192 -22.331701 2.570074
-194.941696 177.525192 -22.331701 3.050031
-181.458389 177.525192 -22.331701 3.286367
-167.975098 177.525192 -22.331701 3.282427
-154.491791 177.525192 -22.331701 3.544673
-141.008499 177.525192 -22.331701 3.800494
-127.525192 177.525192 -22.331701 3.931867
-114.041885 177.525192 -22.331701 3.841693
-100.558594 177.525192 -22.331701 3.658208
-87.075287 177.525192 -22.331701 3.643970
-73.591980 177.525192 -22.331701 3.868402
-60.108704 177.525192 -22.331701 4.173871
-46.625397 177.525192 -22.331701 4.567978
-33.142090 177.525192 -22.331701 4.693182
-19.658783 177.525192 -22.331701 4.921959
-6.175476 177.525192 -22.331701 5.111309
7.307800 177.525192 -22.331701 5.494526
20.791107 177.525192 -22.331701 5.539510
34.274414 177.525192 -22.331701 5.832512
47.757721 177.525192 -22.331701 5.974685
61.240997 177.525192 -22.331701 5.784812
74.724304 177.525192 -22.331701 5.298587
88.207611 177.525192 -22.331701 4.321561
101.690918 177.525192 -22.331701 3.832620
115.174225 177.525192 -22.331701 3.294603
128.657501 177.525192 -22.331701 2.688305
142.140808 177.525192 -22.331701 2.306611
155.624115 177.525192 -22.331701 2.261276
169.107422 177.525192 -22.331701 2.132535
182.590698 177.525192 -22.331701 1.887998
196.074036 177.525192 -22.331701 1.696333
209.557312 177.525192 -22.331701 1.460054
223.040588 177.525192 -22.331701 1.141478
236.523926 177.525192 -22.331701 0.840245
250.007202 177.525192 -22.331701 0.593887
263.490540 177.525192 -22.331701 0.443241
276.973816 177.525192 -22.331701 0.333868
290.457092 177.525192 -22.331701 0.276461
303.940430 177.525192 -22.331701 0.234503
317.423706 177.525192 -22.331701 0.234667
330.907043 177.525192 -22.331701 0.000000
344.390320 177.525192 -22.331701 0.000000
-343.257996 164.041885 -22.331701 0.000000
-329.774689 164.041885 -22.331701 0.000000
-316.291382 164.041885 -22.331701 0.592127
-302.808105 164.041885 -22.331701 0.648500
-289.324799 164.041885 -22.331701 0.782335
-275.841492 164.041885 -22.331701 0.945386
-262.358185 164.041885 -22.331701 1.183558
-248.874893 164.041885 -22.331701 1.507116
-235.391602 164.041885 -22.331701 1.887949
-221.908295 164.041885 -22.331701 2.217535
-208.424988 164.041885 -22.331701 2.711325
-194.941696 164.041885 -22.331701 3.568455
-181.458389 164.041885 -22.331701 3.622868
-167.975098 164.041885 -22.331701 3.448961
-154.491791 164.041885 -22.331701 3.773607
-141.008499 164.041885 -22.331701 3.795792
-127.525192 164.041885 -22.331701 4.044216
-114.041885 164.041885 -22.331701 3.871290
-100.558594 164.041885 -22.331701 3.496166
-87.075287 164.041885 -22.331701 3.509272
-73.591980 164.041885 -22.331701 3.881019
-60.108704 164.041885 -22.331701 4.141221
-46.625397 164.041885 -22.331701 4.438454
-33.142090 164.041885 -22.331701 4.494698
-19.658783 164.041885 -22.331701 4.561253
-6.175476 164.041885 -22.331701 4.696029
7.307800 164.041885 -22.331701 5.321877
20.791107 164.041885 -22.331701 5.377036
34.274414 164.041885 -22.331701 5.204161
47.757721 164.041885 -22.331701 5.679754
61.240997 164.041885 -22.331701 5.860382
74.724304 164.041885 -22.331701 5.033328
88.207611 164.041885 -22.331701 4.233066
101.690918 164.041885 -22.331701 3.419951
115.174225 164.041885 -22.331701 3.179756
128.657501 164.041885 -22.331701 2.594335
142.140808 164.041885 -22.331701 2.120192
155.624115 164.041885 -22.331701 1.953098
169.107422 164.041885 -22.331701 1.826655
182.590698 164.041885 -22.331701 1.704403
196.074036 164.041885 -22.331701 1.490570
209.557312 164.041885 -22.331701 1.263203
223.040588 164.041885 -22.331701 0.979747
236.523926 164.041885 -22.331701 0.756186
250.007202 164.041885 -22.331701 0.541705
263.490540 164.041885 -22.331701 0.375038
276.973816 164.041885 -22.331701 0.293874
290.457092 164.041885 -22.331701 0.210775
303.940430 164.041885 -22.331701 0.190889
317.423706 164.041885 -22.331701 0.192977
330.907043 164.041885 -22.331701 0.000000
344.390320 164.041885 -22.331701 0.000000
-343.257996 150.558594 -22.331701 0.000000
-329.774689 150.558594 -22.331701 0.000000
-316.291382 150.558594 -22.331701 0.744094
-302.808105 150.558594 -22.331701 0.788357
-289.324799 150.558594 -22.331701 0.865461
-275.841492 150.558594 -22.331701 1.056018
-262.358185 150.558594 -22.331701 1.378330
-248.874893 150.558594 -22.331701 1.707011
-235.391602 150.558594 -22.331701 2.028656
-221.908295 150.558594 -22.331701 2.611432
-208.424988 150.558594 -22.331701 3.106153
-194.941696 150.558594 -22.331701 3.781383
-181.458389 150.558594 -22.331701 4.147668
-167.975098 150.558594 -22.331701 3.992970
-154.491791 150.558594 -22.331701 4.217956
-141.008499 150.558594 -22.331701 4.134582
-127.525192 150.558594 -22.331701 4.099494
-114.041885 150.558594 -22.331701 4.108100
-100.558594 150.558594 -22.331701 3.896960
-87.075287 150.558594 -22.331701 3.872121
-73.591980 150.558594 -22.331701 4.308047
-60.108704 150.558594 -22.331701 4.399903
-46.625397 150.558594 -22.331701 4.356363
-33.142090 150.558594 -22.331701 4.329898
-19.658783 150.558594 -22.331701 4.532804
-6.175476 150.558594 -22.331701 4.475670
7.307800 150.558594 -22.331701 5.235442
20.791107 150.558594 -22.331701 5.270867
34.274414 150.558594 -22.331701 5.703923
47.757721 150.558594 -22.331701 5.701571
61.240997 150.558594 -22.331701 5.727324
74.724304 150.558594 -22.331701 5.015255
88.207611 150.558594 -22.331701 4.403212
101.690918 150.558594 -22.331701 3.555085
115.174225 150.558594 -22.331701 2.991895
128.657501 150.558594 -22.331701 2.416451
142.140808 150.558594 -22.331701 2.175793
155.624115 150.558594 -22.331701 2.026163
169.107422 150.558594 -22.331701 1.774694
182.590698 150.558594 -22.331701 1.536146
196.074036 150.558594 -22.331701 1.340691
209.557312 150.558594 -22.331701 1.069736
223.040588 150.558594 -22.331701 0.854484
236.523926 150.558594 -22.331701 0.665158
250.007202 150.558594 -22.331701 0.469823
263.490540 150.558594 -22.331701 0.324671
276.973816 150.558594 -22.331701 0.242672
290.457092 150.558594 -22.331701 0.196563
303.940430 150.558594 -22.331701 0.168535
317.423706 150.558594 -22.331701 0.171133
330.907043 150.558594 -22.331701 0.000000
344.390320 150.558594 -22.331701 0.000000
-343.257996 137.075287 -22.331701 0.000000
-329.774689 137.075287 -22.331701 0.000000
-316.291382 137.075287 -22.331701 0.776812
-302.808105 137.075287 -22.331701 1.014109
-289.324799 137.075287 -22.331701 1.080266
-275.841492 137.075287 -22.331701 1.148858
-262.358185 137.075287 -22.331701 1.512842
-248.874893 137.075287 -22.331701 1.868181
-235.391602 137.075287 -22.331701 2.213809
-221.908295 137.075287 -22.331701 2.813683
-208.424988 137.075287 -22.331701 3.391428
-194.941696 137.075287 -22.331701 4.112631
-181.458389 137.075287 -22.331701 4.249259
-167.975098 137.075287 -22.331701 4.617169
-154.491791 137.075287 -22.331701 4.265860
-141.008499 137.075287 -22.331701 4.159485
-127.525192 137.075287 -22.331701 3.982669
-114.041885 137.075287 -22.331701 3.783677
-100.558594 137.075287 -22.331701 3.731704
-87.075287 137.075287 -22.331701 4.046804
-73.591980 137.075287 -22.331701 4.375132
-60.108704 137.075287 -22.331701 4.834670
-46.625397 137.075287 -22.331701 4.532978
-33.142090 137.075287 -22.331701 4.497958
-19.658783 137.075287 -22.331701 4.430402
-6.175476 137.075287 -22.331701 4.601205
7.307800 137.075287 -22.331701 4.873348
20.791107 137.075287 -22.331701 5.255468
34.274414 137.075287 -22.331701 5.938650
47.757721 137.075287 -22.331701 6.250326
61.240997 137.075287 -22.331701 5.788513
74.724304 137.075287 -22.331701 4.955259
88.207611 137.075287 -22.331701 4.092809
101.690918 137.075287 -22.331701 3.554125
115.174225 137.075287 -22.331701 3.179621
128.657501 137.075287 -22.331701 2.479788
142.140808 137.075287 -22.331701 2.122232
155.624115 137.075287 -22.331701 2.007344
169.107422 137.075287 -22.331701 1.724215
182.590698 137.075287 -22.331701 1.510891
196.074036 137.075287 -22.331701 1.254958
209.557312 137.075287 -22.331701 0.993011
223.040588 137.075287 -22.331701 0.738388
236.523926 137.075287 -22.331701 0.593385
250.007202 137.075287 -22.331701 0.421158
263.490540 137.075287 -22.331701 0.295355
276.973816 137.075287 -22.331701 0.217985
290.457092 137.075287 -22.331701 0.178912
303.940430 137.075287 -22.331701 0.157093
317.423706 137.075287 -22.331701 0.152300
330.907043 137.075287 -22.331701 0.000000
344.390320 137.075287 -22.331701 0.000000
-343.257996 123.591980 -22.331701 0.000000
-329.774689 123.591980 -22.331701 0.000000
-316.291382 123.591980 -22.331701 0.000000
-302.808105 123.591980 -22.331701 1.268656
-289.324799 123.591980 -22.331701 1.226780
-275.841492 123.591980 -22.331701 1.270868
-262.358185 123.591980 -22.331701 1.692270
-248.874893 123.591980 -22.331701 2.079138
-235.391602 123.591980 -22.331701 2.457851
-221.908295 123.591980 -22.331701 2.862509
-208.424988 123.591980 -22.331701 3.531121
-194.941696 123.591980 -22.331701 4.121511
-181.458389 123.591980 -22.331701 4.321489
-167.975098 123.591980 -22.331701 4.501509
-154.491791 123.591980 -22.331701 4.458674
-141.008499 123.591980 -22.331701 4.428491
-127.525192 123.591980 -22.331701 3.917527
-114.041885 123.591980 -22.331701 3.543991
-100.558594 123.591980 -22.331701 3.880867
-87.075287 123.591980 -22.331701 4.062253
-73.591980 123.591980 -22.331701 4.445982
-60.108704 123.591980 -22.331701 4.951010
-46.625397 123.591980 -22.331701 4.527606
-33.142090 123.591980 -22.331701 4.245188
-19.658783 123.591980 -22.331701 4.412771
-6.175476 123.591980 -22.331701 4.540821
7.307800 123.591980 -22.331701 4.977614
20.791107 123.591980 -22.331701 5.460535
34.274414 123.591980 -22.331701 5.993146
47.757721 123.591980 -22.331701 6.302118
61.240997 123.591980 -22.331701 6.065087
74.724304 123.591980 -22.331701 5.111413
88.207611 123.591980 -22.331701 4.069754
101.690918 123.591980 -22.331701 3.581471
115.174225 123.591980 -22.331701 3.122534
128.657501 123.591980 -22.331701 2.576564
142.140808 123.591980 -22.331701 2.444244
155.624115 123.591980 -22.331701 2.174486
169.107422 123.591980 -22.331701 1.834136
182.590698 123.591980 -22.331701 1.465282
196.074036 123.591980 -22.331701 1.158336
209.557312 123.591980 -22.331701 0.904695
223.040588 123.591980 -22.331701 0.678216
236.523926 123.591980 -22.331701 0.535915
250.007202 123.591980 -22.331701 0.400464
263.490540 123.591980 -22.331701 0.277254
276.973816 123.591980 -22.331701 0.208477
290.457092 123.591980 -22.331701 0.177555
303.940430 123.591980 -22.331701 0.143722
317.423706 123.591980 -22.331701 0.144690
330.907043 123.591980 -22.331701 0.000000
344.390320 123.591980 -22.331701 0.000000
-343.257996 110.108704 -22.331701 0.000000
-329.774689 110.108704 -22.331701 0.000000
-316.291382 110.108704 -22.331701 0.000000
-302.808105 110.108704 -22.331701 1.397981
-289.324799 110.108704 -22.331701 1.483975
-275.841492 110.108704 -22.331701 1.577060
-262.358185 110.108704 -22.331701 1.963800
-248.874893 110.108704 -22.331701 2.225693
-235.391602 110.108704 -22.331701 2.584721
-221.908295 110.108704 -22.331701 2.726903
-208.424988 110.108704 -22.331701 3.424903
-194.941696 110.108704 -22.331701 3.982435
-181.458389 110.108704 -22.331701 4.538206
-167.975098 110.108704 -22.331701 4.758160
-154.491791 110.108704 -22.331701 4.967046
-141.008499 110.108704 -22.331701 4.626395
-127.525192 110.108704 -22.331701 4.318575
-114.041885 110.108704 -22.331701 4.044814
-100.558594 110.108704 -22.331701 4.542764
-87.075287 110.108704 -22.331701 4.498465
-73.591980 110.108704 -22.331701 4.830921
-60.108704 110.108704 -22.331701 4.861606
-46.625397 110.108704 -22.331701 4.706459
-33.142090 110.108704 -22.331701 4.646018
-19.658783 110.108704 -22.331701 4.476101
-6.175476 110.108704 -22.331701 4.657268
7.307800 110.108704 -22.331701 5.043100
20.791107 110.108704 -22.331701 5.639105
34.274414 110.108704 -22.331701 6.423225
47.757721 110.108704 -22.331701 6.954346
61.240997 110.108704 -22.331701 6.600776
74.724304 110.108704 -22.331701 5.597504
88.207611 110.108704 -22.331701 4.239617
101.690918 110.108704 -22.331701 3.710022
115.174225 110.108704 -22.331701 3.203484
128.657501 110.108704 -22.331701 2.840479
142.140808 110.108704 -22.331701 2.520513
155.624115 110.108704 -22.331701 2.121363
169.107422 110.108704 -22.331701 1.707422
182.590698 110.108704 -22.331701 1.455139
196.074036 110.108704 -22.331701 1.096556
209.557312 110.108704 -22.331701 0.848912
223.040588 110.108704 -22.331701 0.669962
236.523926 110.108704 -22.331701 0.499211
250.007202 110.108704 -22.331701 0.363478
263.490540 110.108704 -22.331701 0.274689
276.973816 110.108704 -22.331701 0.222324
290.457092 110.108704 -22.331701 0.185697
303.940430 110.108704 -22.331701 0.149428
317.423706 110.108704 -22.331701 0.137409
330.907043 110.108704 -22.331701 0.000000
344.390320 110.108704 -22.331701 0.000000
-343.257996 96.625397 -22.331701 0.000000
-329.774689 96.625397 -22.331701 0.000000
-316.291382 96.625397 -22.331701 0.000000
-302.808105 96.625397 -22.331701 1.563433
-289.324799 96.625397 -22.331701 1.698196
-275.841492 96.625397 -22.331701 1.869118
-262.358185 96.625397 -22.331701 2.327841
-248.874893 96.625397 -22.331701 2.420815
-235.391602 96.625397 -22.331701 2.750946
-221.908295 96.625397 -22.331701 2.954846
-208.424988 96.625397 -22.331701 3.309558
-194.941696 96.625397 -22.331701 3.898638
-181.458389 96.625397 -22.331701 4.092596
-167.975098 96.625397 -22.331701 4.543036
-154.491791 96.625397 -22.331701 4.871718
-141.008499 96.625397 -22.331701 4.761972
-127.525192 96.625397 -22.331701 4.682138
-114.041885 96.625397 -22.331701 4.761126
-100.558594 96.625397 -22.331701 4.887664
-87.075287 96.625397 -22.331701 5.082406
-73.591980 96.625397 -22.331701 5.470843
-60.108704 96.625397 -22.331701 5.320444
-46.625397 96.625397 -22.331701 5.228932
-33.142090 96.625397 -22.331701 4.691547
-19.658783 96.625397 -22.331701 4.708845
-6.175476 96.625397 -22.331701 4.788678
7.307800 96.625397 -22.331701 4.719130
20.791107 96.625397 -22.331701 5.805487
34.274414 96.625397 -22.331701 7.106921
47.757721 96.625397 -22.331701 7.085364
61.240997 96.625397 -22.331701 6.633794
74.724304 96.625397 -22.331701 5.740756
88.207611 96.625397 -22.331701 4.743072
101.690918 96.625397 -22.331701 3.834527
115.174225 96.625397 -22.331701 3.595807
128.657501 96.625397 -22.331701 2.889677
142.140808 96.625397 -22.331701 2.497033
155.624115 96.625397 -22.331701 2.158542
169.107422 96.625397 -22.331701 1.908121
182.590698 96.625397 -22.331701 1.550558
196.074036 96.625397 -22.331701 1.183634
209.557312 96.625397 -22.331701 0.934567
223.040588 96.625397 -22.331701 0.687211
236.523926 96.625397 -22.331701 0.505467
250.007202 96.625397 -22.331701 0.347389
263.490540 96.625397 -22.331701 0.274895
276.973816 96.625397 -22.331701 0.219633
290.457092 96.625397 -22.331701 0.191662
303.940430 96.625397 -22.331701 0.166267
317.423706 96.625397 -22.331701 0.158984
330.907043 96.625397 -22.331701 0.000000
344.390320 96.625397 -22.331701 0.000000
-343.257996 83.142090 -22.331701 0.000000
-329.774689 83.142090 -22.331701 0.000000
-316.291382 83.142090 -22.331701 0.000000
-302.808105 83.142090 -22.331701 1.610197
-289.324799 83.142090 -22.331701 1.878837
-275.841492 83.142090 -22.331701 2.111763
-262.358185 83.142090 -22.331701 2.283633
-248.874893 83.142090 -22.331701 2.490748
-235.391602 83.142090 -22.331701 2.742871
-221.908295 83.142090 -22.331701 2.941121
-208.424988 83.142090 -22.331701 3.255791
-194.941696 83.142090 -22.331701 3.787385
-181.458389 83.142090 -22.331701 4.173326
-167.975098 83.142090 -22.331701 4.566574
-154.491791 83.142090 -22.331701 4.603715
-141.008499 83.142090 -22.331701 4.866411
-127.525192 83.142090 -22.331701 5.153439
-114.041885 83.142090 -22.331701 4.997447
-100.558594 83.142090 -22.331701 5.828511
-87.075287 83.142090 -22.331701 5.831692
-73.591980 83.142090 -22.331701 5.736565
-60.108704 83.142090 -22.331701 5.527472
-46.625397 83.142090 -22.331701 4.977080
-33.142090 83.142090 -22.331701 4.573474
-19.658783 83.142090 -22.331701 4.272069
-6.175476 83.142090 -22.331701 4.262353
7.307800 83.142090 -22.331701 4.901772
20.791107 83.142090 -22.331701 5.960412
34.274414 83.142090 -22.331701 6.615304
47.757721 83.142090 -22.331701 6.704459
61.240997 83.142090 -22.331701 6.341033
74.724304 83.142090 -22.331701 4.957830
88.207611 83.142090 -22.331701 4.492449
101.690918 83.142090 -22.331701 3.871064
115.174225 83.142090 -22.331701 3.563538
128.657501 83.142090 -22.331701 2.766452
142.140808 83.142090 -22.331701 2.615711
155.624115 83.142090 -22.331701 2.187150
169.107422 83.142090 -22.331701 2.049916
182.590698 83.142090 -22.331701 1.646739
196.074036 83.142090 -22.331701 1.265307
209.557312 83.142090 -22.331701 0.969599
223.040588 83.142090 -22.331701 0.761169
236.523926 83.142090 -22.331701 0.540256
250.007202 83.142090 -22.331701 0.357496
263.490540 83.142090 -22.331701 0.293441
276.973816 83.142090 -22.331701 0.235183
290.457092 83.142090 -22.331701 0.198005
303.940430 83.142090 -22.331701 0.187910
317.423706 83.142090 -22.331701 0.193108
330.907043 83.142090 -22.331701 0.000000
344.390320 83.142090 -22.331701 0.000000
-343.257996 69.658783 -22.331701 0.000000
-329.774689 69.658783 -22.331701 0.000000
-316.291382 69.658783 -22.331701 0.000000
-302.808105 69.658783 -22.331701 0.000000
-289.324799 69.658783 -22.331701 1.853235
-275.841492 69.658783 -22.331701 1.873437
-262.358185 69.658783 -22.331701 2.061466
-248.874893 69.658783 -22.331701 2.240872
-235.391602 69.658783 -22.331701 2.439727
-221.908295 69.658783 -22.331701 2.879613
-208.424988 69.658783 -22.331701 3.296859
-194.941696 69.658783 -22.331701 3.948160
-181.458389 69.658783 -22.331701 3.986414
-167.975098 69.658783 -22.331701 4.147904
-154.491791 69.658783 -22.331701 4.402007
-141.008499 69.658783 -22.331701 4.805050
-127.525192 69.658783 -22.331701 5.393890
-114.041885 69.658783 -22.331701 5.205407
-100.558594 69.658783 -22.331701 5.283525
-87.075287 69.658783 -22.331701 6.164265
-73.591980 69.658783 -22.331701 5.828535
-60.108704 69.658783 -22.331701 5.521736
-46.625397 69.658783 -22.331701 5.059049
-33.142090 69.658783 -22.331701 4.439213
-19.658783 69.658783 -22.331701 4.448484
-6.175476 69.658783 -22.331701 4.357158
7.307800 69.658783 -22.331701 5.033741
20.791107 69.658783 -22.331701 5.828231
34.274414 69.658783 -22.331701 6.093491
47.757721 69.658783 -22.331701 5.935857
61.240997 69.658783 -22.331701 5.515999
74.724304 69.658783 -22.331701 4.685612
88.207611 69.658783 -22.331701 4.015600
101.690918 69.658783 -22.331701 3.455748
115.174225 69.658783 -22.331701 3.232765
128.657501 69.658783 -22.331701 2.729739
142.140808 69.658783 -22.331701 2.306996
155.624115 69.658783 -22.331701 2.091683
169.107422 69.658783 -22.331701 1.999235
182.590698 69.658783 -22.331701 1.642150
196.074036 69.658783 -22.331701 1.285659
209.557312 69.658783 -22.331701 1.020604
223.040588 69.658783 -22.331701 0.747679
236.523926 69.658783 -22.331701 0.581216
250.007202 69.658783 -22.331701 0.431346
263.490540 69.658783 -22.331701 0.305930
276.973816 69.658783 -22.331701 0.249062
290.457092 69.658783 -22.331701 0.232199
303.940430 69.658783 -22.331701 0.228724
317.423706 69.658783 -22.331701 0.224834
330.907043 69.658783 -22.331701 0.000000
344.390320 69.658783 -22.331701 0.000000
-343.257996 56.175476 -22.331701 0.000000
-329.774689 56.175476 -22.331701 0.000000
-316.291382 56.175476 -22.331701 0.000000
-302.808105 56.175476 -22.331701 1.512168
-289.324799 56.175476 -22.331701 1.613940
-275.841492 56.175476 -22.331701 1.664652
-262.358185 56.175476 -22.331701 1.798361
-248.874893 56.175476 -22.331701 1.909412
-235.391602 56.175476 -22.331701 2.191828
-221.908295 56.175476 -22.331701 2.592016
-208.424988 56.175476 -22.331701 2.984998
-194.941696 56.175476 -22.331701 3.472822
-181.458389 56.175476 -22.331701 3.743617
-167.975098 56.175476 -22.331701 3.900546
-154.491791 56.175476 -22.331701 4.304624
-141.008499 56.175476 -22.331701 5.168905
-127.525192 56.175476 -22.331701 5.241553
-114.041885 56.175476 -22.331701 5.586061
-100.558594 56.175476 -22.331701 5.860711
-87.075287 56.175476 -22.331701 6.632413
-73.591980 56.175476 -22.331701 6.359081
-60.108704 56.175476 -22.331701 5.913902
-46.625397 56.175476 -22.331701 5.280099
-33.142090 56.175476 -22.331701 4.731533
-19.658783 56.175476 -22.331701 4.537076
-6.175476 56.175476 -22.331701 4.651940
7.307800 56.175476 -22.331701 4.985189
20.791107 56.175476 -22.331701 5.248272
34.274414 56.175476 -22.331701 5.601717
47.757721 56.175476 -22.331701 5.346228
61.240997 56.175476 -22.331701 4.474780
74.724304 56.175476 -22.331701 4.201450
88.207611 56.175476 -22.331701 3.851651
101.690918 56.175476 -22.331701 3.469367
115.174225 56.175476 -22.331701 2.957549
128.657501 56.175476 -22.331701 2.639624
142.140808 56.175476 -22.331701 2.207723
155.624115 56.175476 -22.331701 1.804415
169.107422 56.175476 -22.331701 1.784676
182.590698 56.175476 -22.331701 1.585229
196.074036 56.175476 -22.331701 1.259730
209.557312 56.175476 -22.331701 1.088297
223.040588 56.175476 -22.331701 0.792355
236.523926 56.175476 -22.331701 0.603743
250.007202 56.175476 -22.331701 0.472223
263.490540 56.175476 -22.331701 0.304045
276.973816 56.175476 -22.331701 0.274606
290.457092 56.175476 -22.331701 0.280537
303.940430 56.175476 -22.331701 0.262930
317.423706 56.175476 -22.331701 0.267336
330.907043 56.175476 -22.331701 0.000000
344.390320 56.175476 -22.331701 0.000000
-343.257996 42.692200 -22.331701 0.000000
-329.774689 42.692200 -22.331701 0.000000
-316.291382 42.692200 -22.331701 0.000000
-302.808105 42.692200 -22.331701 1.163390
-289.324799 42.692200 -22.331701 1.179791
-275.841492 42.692200 -22.331701 1.279489
-262.358185 42.692200 -22.331701 1.521381
-248.874893 42.692200 -22.331701 1.658447
-235.391602 42.692200 -22.331701 1.896684
-221.908295 42.692200 -22.331701 2.331802
-208.424988 42.692200 -22.331701 2.673805
-194.941696 42.692200 -22.331701 3.034397
-181.458389 42.692200 -22.331701 3.654030
-167.975098 42.692200 -22.331701 4.349432
-154.491791 42.692200 -22.331701 4.934627
-141.008499 42.692200 -22.331701 5.308722
-127.525192 42.692200 -22.331701 5.842511
-114.041885 42.692200 -22.331701 5.878542
-100.558594 42.692200 -22.331701 6.096971
-87.075287 42.692200 -22.331701 6.981867
-73.591980 42.692200 -22.331701 6.805348
-60.108704 42.692200 -22.331701 6.318312
-46.625397 42.692200 -22.331701 5.325228
-33.142090 42.692200 -22.331701 4.738695
-19.658783 42.692200 -22.331701 4.599812
-6.175476 42.692200 -22.331701 4.946387
7.307800 42.692200 -22.331701 5.135920
20.791107 42.692200 -22.331701 5.595603
34.274414 42.692200 -22.331701 5.257951
47.757721 42.692200 -22.331701 5.301766
61.240997 42.692200 -22.331701 4.613801
74.724304 42.692200 -22.331701 4.252074
88.207611 42.692200 -22.331701 4.125916
101.690918 42.692200 -22.331701 3.483339
115.174225 42.692200 -22.331701 2.842612
128.657501 42.692200 -22.331701 2.878024
142.140808 42.692200 -22.331701 2.298781
155.624115 42.692200 -22.331701 1.899586
169.107422 42.692200 -22.331701 1.668903
182.590698 42.692200 -22.331701 1.472099
196.074036 42.692200 -22.331701 1.281075
209.557312 42.692200 -22.331701 1.070685
223.040588 42.692200 -22.331701 0.867091
236.523926 42.692200 -22.331701 0.593348
250.007202 42.692200 -22.331701 0.455926
263.490540 42.692200 -22.331701 0.349023
276.973816 42.692200 -22.331701 0.319812
290.457092 42.692200 -22.331701 0.287111
303.940430 42.692200 -22.331701 0.275210
317.423706 42.692200 -22.331701 0.294473
330.907043 42.692200 -22.331701 0.000000
344.390320 42.692200 -22.331701 0.000000
-343.257996 29.208893 -22.331701 0.000000
-329.774689 29.208893 -22.331701 0.000000
-316.291382 29.208893 -22.331701 0.000000
-302.808105 29.208893 -22.331701 0.968305
-289.324799 29.208893 -22.331701 1.048068
-275.841492 29.208893 -22.331701 1.114383
-262.358185 29.208893 -22.331701 1.252684
-248.874893 29.208893 -22.331701 1.405102
-235.391602 29.208893 -22.331701 1.681352
-221.908295 29.208893 -22.331701 1.995340
-208.424988 29.208893 -22.331701 2.477677
-194.941696 29.208893 -22.331701 2.927345
-181.458389 29.208893 -22.331701 3.726662
-167.975098 29.208893 -22.331701 4.469447
-154.491791 29.208893 -22.331701 5.535799
-141.008499 29.208893 -22.331701 5.782326
-127.525192 29.208893 -22.331701 6.433853
-114.041885 29.208893 -22.331701 6.331552
-100.558594 29.208893 -22.331701 7.125959
-87.075287 29.208893 -22.331701 7.347481
-73.591980 29.208893 -22.331701 7.532643
-60.108704 29.208893 -22.331701 6.795372
-46.625397 29.208893 -22.331701 5.797947
-33.142090 29.208893 -22.331701 4.940970
-19.658783 29.208893 -22.331701 4.963003
-6.175476 29.208893 -22.331701 5.521557
7.307800 29.208893 -22.331701 5.188803
20.791107 29.208893 -22.331701 5.424138
34.274414 29.208893 -22.331701 5.283206
47.757721 29.208893 -22.331701 5.257751
61.240997 29.208893 -22.331701 4.775083
74.724304 29.208893 -22.331701 4.434770
88.207611 29.208893 -22.331701 3.707146
101.690918 29.208893 -22.331701 3.405523
115.174225 29.208893 -22.331701 3.052525
128.657501 29.208893 -22.331701 2.780868
142.140808 29.208893 -22.331701 2.265773
155.624115 29.208893 -22.331701 1.865861
169.107422 29.208893 -22.331701 1.587538
182.590698 29.208893 -22.331701 1.362626
196.074036 29.208893 -22.331701 1.215918
209.557312 29.208893 -22.331701 1.060595
223.040588 29.208893 -22.331701 0.878593
236.523926 29.208893 -22.331701 0.556397
250.007202 29.208893 -22.331701 0.490106
263.490540 29.208893 -22.331701 0.386280
276.973816 29.208893 -22.331701 0.321063
290.457092 29.208893 -22.331701 0.276485
303.940430 29.208893 -22.331701 0.265560
317.423706 29.208893 -22.331701 0.259905
330.907043 29.208893 -22.331701 0.000000
344.390320 29.208893 -22.331701 0.000000
-343.257996 15.725586 -22.331701 0.000000
-329.774689 15.725586 -22.331701 0.000000
-316.291382 15.725586 -22.331701 0.755054
-302.808105 15.725586 -22.331701 0.919613
-289.324799 15.725586 -22.331701 0.925407
-275.841492 15.725586 -22.331701 0.964200
-262.358185 15.725586 -22.331701 1.175039
-248.874893 15.725586 -22.331701 1.320152
-235.391602 15.725586 -22.331701 1.504543
-221.908295 15.725586 -22.331701 1.798694
-208.424988 15.725586 -22.331701 2.213924
-194.941696 15.725586 -22.331701 2.873330
-181.458389 15.725586 -22.331701 3.760416
-167.975098 15.725586 -22.331701 4.763068
-154.491791 15.725586 -22.331701 5.488131
-141.008499 15.725586 -22.331701 6.035979
-127.525192 15.725586 -22.331701 6.561822
-114.041885 15.725586 -22.331701 7.199948
-100.558594 15.725586 -22.331701 7.391903
-87.075287 15.725586 -22.331701 7.941837
-73.591980 15.725586 -22.331701 8.014448
-60.108704 15.725586 -22.331701 7.226117
-46.625397 15.725586 -22.331701 6.628199
-33.142090 15.725586 -22.331701 5.659940
-19.658783 15.725586 -22.331701 5.424690
-6.175476 15.725586 -22.331701 5.418584
7.307800 15.725586 -22.331701 5.506628
20.791107 15.725586 -22.331701 5.770782
34.274414 15.725586 -22.331701 5.268545
47.757721 15.725586 -22.331701 5.317490
61.240997 15.725586 -22.331701 5.154952
74.724304 15.725586 -22.331701 4.724074
88.207611 15.725586 -22.331701 4.185791
101.690918 15.725586 -22.331701 3.527279
115.174225 15.725586 -22.331701 2.976169
128.657501 15.725586 -22.331701 2.658068
142.140808 15.725586 -22.331701 2.124053
155.624115 15.725586 -22.331701 1.820434
169.107422 15.725586 -22.331701 1.500432
182.590698 15.725586 -22.331701 1.266444
196.074036 15.725586 -22.331701 1.188534
209.557312 15.725586 -22.331701 0.964671
223.040588 15.725586 -22.331701 0.841884
236.523926 15.725586 -22.331701 0.590382
250.007202 15.725586 -22.331701 0.522807
263.490540 15.725586 -22.331701 0.413124
276.973816 15.725586 -22.331701 0.342775
290.457092 15.725586 -22.331701 0.270829
303.940430 15.725586 -22.331701 0.280491
317.423706 15.725586 -22.331701 0.416665
330.907043 15.725586 -22.331701 0.000000
344.390320 15.725586 -22.331701 0.000000
-343.257996 2.242279 -22.331701 0.000000
-329.774689 2.242279 -22.331701 0.000000
-316.291382 2.242279 -22.331701 0.716695
-302.808105 2.242279 -22.331701 0.732276
-289.324799 2.242279 -22.331701 0.911287
-275.841492 2.242279 -22.331701 0.909889
-262.358185 2.242279 -22.331701 1.146072
-248.874893 2.242279 -22.331701 1.279876
-235.391602 2.242279 -22.331701 1.499022
-221.908295 2.242279 -22.331701 1.654943
-208.424988 2.242279 -22.331701 2.214362
-194.941696 2.242279 -22.331701 2.700305
-181.458389 2.242279 -22.331701 3.605877
-167.975098 2.242279 -22.331701 4.649434
-154.491791 2.242279 -22.331701 5.381656
-141.008499 2.242279 -22.331701 6.131124
-127.525192 2.242279 -22.331701 6.829525
-114.041885 2.242279 -22.331701 7.290278
-100.558594 2.242279 -22.331701 7.489501
-87.075287 2.242279 -22.331701 8.004398
-73.591980 2.242279 -22.331701 7.842132
-60.108704 2.242279 -22.331701 7.494421
-46.625397 2.242279 -22.331701 7.049009
-33.142090 2.242279 -22.331701 6.097949
-19.658783 2.242279 -22.331701 5.282610
-6.175476 2.242279 -22.331701 6.005653
7.307800 2.242279 -22.331701 5.984413
20.791107 2.242279 -22.331701 6.049379
34.274414 2.242279 -22.331701 5.805855
47.757721 2.242279 -22.331701 5.555302
61.240997 2.242279 -22.331701 5.263537
74.724304 2.242279 -22.331701 5.084783
88.207611 2.242279 -22.331701 4.095586
101.690918 2.242279 -22.331701 3.777008
115.174225 2.242279 -22.331701 3.024075
128.657501 2.242279 -22.331701 2.506325
142.140808 2.242279 -22.331701 2.064656
155.624115 2.242279 -22.331701 1.708976
169.107422 2.242279 -22.331701 1.413041
182.590698 2.242279 -22.331701 1.261212
196.074036 2.242279 -22.331701 1.094433
209.557312 2.242279 -22.331701 0.900175
223.040588 2.242279 -22.331701 0.844827
236.523926 2.242279 -22.331701 0.777711
250.007202 2.242279 -22.331701 0.560135
263.490540 2.242279 -22.331701 0.487978
276.973816 2.242279 -22.331701 0.378350
290.457092 2.242279 -22.331701 0.350595
303.940430 2.242279 -22.331701 0.361986
317.423706 2.242279 -22.331701 0.342405
330.907043 2.242279 -22.331701 0.000000
344.390320 2.242279 -22.331701 0.000000
-343.257996 -11.240997 -22.331701 0.000000
-329.774689 -11.240997 -22.331701 0.000000
-316.291382 -11.240997 -22.331701 0.604010
-302.808105 -11.240997 -22.331701 0.664775
-289.324799 -11.240997 -22.331701 0.782476
-275.841492 -11.240997 -22.331701 0.772301
-262.358185 -11.240997 -22.331701 0.787602
-248.874893 -11.240997 -22.331701 1.127456
-235.391602 -11.240997 -22.331701 1.392866
-221.908295 -11.240997 -22.331701 1.545940
-208.424988 -11.240997 -22.331701 2.188016
-194.941696 -11.240997 -22.331701 3.206840
-181.458389 -11.240997 -22.331701 3.816756
-167.975098 -11.240997 -22.331701 4.609640
-154.491791 -11.240997 -22.331701 5.710323
-141.008499 -11.240997 -22.331701 6.397491
-127.525192 -11.240997 -22.331701 6.851324
-114.041885 -11.240997 -22.331701 7.403461
-100.558594 -11.240997 -22.331701 8.081168
-87.075287 -11.240997 -22.331701 8.486965
-73.591980 -11.240997 -22.331701 8.070504
-60.108704 -11.240997 -22.331701 7.827152
-46.625397 -11.240997 -22.331701 7.356043
-33.142090 -11.240997 -22.331701 6.391314
-19.658783 -11.240997 -22.331701 5.972598
-6.175476 -11.240997 -22.331701 6.057005
7.307800 -11.240997 -22.331701 6.589087
20.791107 -11.240997 -22.331701 6.380161
34.274414 -11.240997 -22.331701 6.076095
47.757721 -11.240997 -22.331701 5.683362
61.240997 -11.240997 -22.331701 5.519031
74.724304 -11.240997 -22.331701 4.975359
88.207611 -11.240997 -22.331701 4.316341
101.690918 -11.240997 -22.331701 3.714094
115.174225 -11.240997 -22.331701 2.821635
128.657501 -11.240997 -22.331701 2.466880
142.140808 -11.240997 -22.331701 1.880753
155.624115 -11.240997 -22.331701 1.507968
169.107422 -11.240997 -22.331701 1.271675
182.590698 -11.240997 -22.331701 1.097591
196.074036 -11.240997 -22.331701 1.006760
209.557312 -11.240997 -22.331701 0.920952
223.040588 -11.240997 -22.331701 0.849691
236.523926 -11.240997 -22.331701 0.687272
250.007202 -11.240997 -22.331701 0.632026
263.490540 -11.240997 -22.331701 0.516594
276.973816 -11.240997 -22.331701 0.489712
290.457092 -11.240997 -22.331701 0.398129
303.940430 -11.240997 -22.331701 0.371177
317.423706 -11.240997 -22.331701 0.392344
330.907043 -11.240997 -22.331701 0.000000
344.390320 -11.240997 -22.331701 0.000000
-343.257996 -24.724304 -22.331701 0.000000
-329.774689 -24.724304 -22.331701 0.000000
-316.291382 -24.724304 -22.331701 0.650582
-302.808105 -24.724304 -22.331701 0.615404
-289.324799 -24.724304 -22.331701 0.762807
-275.841492 -24.724304 -22.331701 0.856822
-262.358185 -24.724304 -22.331701 0.782336
-248.874893 -24.724304 -22.331701 1.006087
-235.391602 -24.724304 -22.331701 1.317291
-221.908295 -24.724304 -22.331701 1.840384
-208.424988 -24.724304 -22.331701 2.568716
-194.941696 -24.724304 -22.331701 3.399679
-181.458389 -24.724304 -22.331701 4.403701
-167.975098 -24.724304 -22.331701 5.517944
-154.491791 -24.724304 -22.331701 6.115701
-141.008499 -24.724304 -22.331701 6.987452
-127.525192 -24.724304 -22.331701 7.356243
-114.041885 -24.724304 -22.331701 7.111572
-100.558594 -24.724304 -22.331701 7.852891
-87.075287 -24.724304 -22.331701 7.944026
-73.591980 -24.724304 -22.331701 8.082332
-60.108704 -24.724304 -22.331701 8.057853
-46.625397 -24.724304 -22.331701 7.144655
-33.142090 -24.724304 -22.331701 6.723008
-19.658783 -24.724304 -22.331701 6.349516
-6.175476 -24.724304 -22.331701 6.428250
7.307800 -24.724304 -22.331701 6.704733
20.791107 -24.724304 -22.331701 6.327198
34.274414 -24.724304 -22.331701 6.348129
47.757721 -24.724304 -22.331701 6.141742
61.240997 -24.724304 -22.331701 5.304037
74.724304 -24.724304 -22.331701 4.796513
88.207611 -24.724304 -22.331701 4.387719
101.690918 -24.724304 -22.331701 3.183521
115.174225 -24.724304 -22.331701 2.626951
128.657501 -24.724304 -22.331701 2.012256
142.140808 -24.724304 -22.331701 1.651562
155.624115 -24.724304 -22.331701 1.351598
169.107422 -24.724304 -22.331701 1.145693
182.590698 -24.724304 -22.331701 1.015677
196.074036 -24.724304 -22.331701 0.868118
209.557312 -24.724304 -22.331701 0.837451
223.040588 -24.724304 -22.331701 0.764870
236.523926 -24.724304 -22.331701 0.687232
250.007202 -24.724304 -22.331701 0.630166
263.490540 -24.724304 -22.331701 0.710959
276.973816 -24.724304 -22.331701 0.590174
290.457092 -24.724304 -22.331701 0.510355
303.940430 -24.724304 -22.331701 0.406628
317.423706 -24.724304 -22.331701 0.317927
330.907043 -24.724304 -22.331701 0.000000
344.390320 -24.724304 -22.331701 0.000000
-343.257996 -38.207611 -22.331701 0.000000
-329.774689 -38.207611 -22.331701 0.000000
-316.291382 -38.207611 -22.331701 0.706671
-302.808105 -38.207611 -22.331701 0.874540
-289.324799 -38.207611 -22.331701 0.994491
-275.841492 -38.207611 -22.331701 0.745087
-262.358185 -38.207611 -22.331701 0.880218
-248.874893 -38.207611 -22.331701 1.299827
-235.391602 -38.207611 -22.331701 1.610549
-221.908295 -38.207611 -22.331701 2.060179
-208.424988 -38.207611 -22.331701 2.832123
-194.941696 -38.207611 -22.331701 3.525964
-181.458389 -38.207611 -22.331701 5.264063
-167.975098 -38.207611 -22.331701 5.978126
-154.491791 -38.207611 -22.331701 6.803783
-141.008499 -38.207611 -22.331701 7.638565
-127.525192 -38.207611 -22.331701 8.080833
-114.041885 -38.207611 -22.331701 7.625793
-100.558594 -38.207611 -22.331701 7.608913
-87.075287 -38.207611 -22.331701 7.825261
-73.591980 -38.207611 -22.331701 7.271240
-60.108704 -38.207611 -22.331701 7.325461
-46.625397 -38.207611 -22.331701 7.089819
-33.142090 -38.207611 -22.331701 6.986215
-19.658783 -38.207611 -22.331701 6.763827
-6.175476 -38.207611 -22.331701 6.543008
7.307800 -38.207611 -22.331701 6.737347
20.791107 -38.207611 -22.331701 6.181459
34.274414 -38.207611 -22.331701 5.915301
47.757721 -38.207611 -22.331701 5.565737
61.240997 -38.207611 -22.331701 4.897801
74.724304 -38.207611 -22.331701 4.279941
88.207611 -38.207611 -22.331701 3.790206
101.690918 -38.207611 -22.331701 3.072679
115.174225 -38.207611 -22.331701 2.244412
128.657501 -38.207611 -22.331701 1.765330
142.140808 -38.207611 -22.331701 1.459092
155.624115 -38.207611 -22.331701 1.222368
169.107422 -38.207611 -22.331701 1.146125
182.590698 -38.207611 -22.331701 1.015441
196.074036 -38.207611 -22.331701 0.881078
209.557312 -38.207611 -22.331701 0.763819
223.040588 -38.207611 -22.331701 0.693485
236.523926 -38.207611 -22.331701 0.711672
250.007202 -38.207611 -22.331701 0.609509
263.490540 -38.207611 -22.331701 0.598075
276.973816 -38.207611 -22.331701 0.612608
290.457092 -38.207611 -22.331701 0.572242
303.940430 -38.207611 -22.331701 0.291242
317.423706 -38.207611 -22.331701 0.368797
330.907043 -38.207611 -22.331701 0.000000
344.390320 -38.207611 -22.331701 0.000000
-343.257996 -51.690918 -22.331701 0.000000
-329.774689 -51.690918 -22.331701 0.000000
-316.291382 -51.690918 -22.331701 0.968063
-302.808105 -51.690918 -22.331701 1.187014
-289.324799 -51.690918 -22.331701 1.041318
-275.841492 -51.690918 -22.331701 0.988703
-262.358185 -51.690918 -22.331701 0.922801
-248.874893 -51.690918 -22.331701 1.295299
-235.391602 -51.690918 -22.331701 1.714956
-221.908295 -51.690918 -22.331701 2.252050
-208.424988 -51.690918 -22.331701 3.534070
-194.941696 -51.690918 -22.331701 4.284847
-181.458389 -51.690918 -22.331701 6.142472
-167.975098 -51.690918 -22.331701 6.581904
-154.491791 -51.690918 -22.331701 7.895360
-141.008499 -51.690918 -22.331701 7.666083
-127.525192 -51.690918 -22.331701 8.354935
-114.041885 -51.690918 -22.331701 8.388889
-100.558594 -51.690918 -22.331701 7.274225
-87.075287 -51.690918 -22.331701 7.064708
-73.591980 -51.690918 -22.331701 6.857963
-60.108704 -51.690918 -22.331701 6.437581
-46.625397 -51.690918 -22.331701 6.761198
-33.142090 -51.690918 -22.331701 6.326937
-19.658783 -51.690918 -22.331701 6.046690
-6.175476 -51.690918 -22.331701 6.218889
7.307800 -51.690918 -22.331701 6.425241
20.791107 -51.690918 -22.331701 5.975040
34.274414 -51.690918 -22.331701 5.505388
47.757721 -51.690918 -22.331701 4.891502
61.240997 -51.690918 -22.331701 4.160517
74.724304 -51.690918 -22.331701 3.708354
88.207611 -51.690918 -22.331701 3.091712
101.690918 -51.690918 -22.331701 2.559902
115.174225 -51.690918 -22.331701 2.056424
128.657501 -51.690918 -22.331701 1.635348
142.140808 -51.690918 -22.331701 1.406332
155.624115 -51.690918 -22.331701 1.144546
169.107422 -51.690918 -22.331701 1.053325
182.590698 -51.690918 -22.331701 0.953201
196.074036 -51.690918 -22.331701 0.820097
209.557312 -51.690918 -22.331701 0.749472
223.040588 -51.690918 -22.331701 0.719839
236.523926 -51.690918 -22.331701 0.703515
250.007202 -51.690918 -22.331701 0.660227
263.490540 -51.690918 -22.331701 0.591654
276.973816 -51.690918 -22.331701 0.681899
290.457092 -51.690918 -22.331701 0.638050
303.940430 -51.690918 -22.331701 0.552999
317.423706 -51.690918 -22.331701 0.522156
330.907043 -51.690918 -22.331701 0.000000
344.390320 -51.690918 -22.331701 0.000000
-343.257996 -65.174225 -22.331701 0.000000
-329.774689 -65.174225 -22.331701 0.000000
-316.291382 -65.174225 -22.331701 1.133606
-302.808105 -65.174225 -22.331701 0.957467
-289.324799 -65.174225 -22.331701 0.999403
-275.841492 -65.174225 -22.331701 0.993901
-262.358185 -65.174225 -22.331701 1.341212
-248.874893 -65.174225 -22.331701 1.611985
-235.391602 -65.174225 -22.331701 2.162267
-221.908295 -65.174225 -22.331701 3.479297
-208.424988 -65.174225 -22.331701 4.590351
-194.941696 -65.174225 -22.331701 6.545565
-181.458389 -65.174225 -22.331701 7.915280
-167.975098 -65.174225 -22.331701 7.353470
-154.491791 -65.174225 -22.331701 8.805502
-141.008499 -65.174225 -22.331701 9.158936
-127.525192 -65.174225 -22.331701 8.959909
-114.041885 -65.174225 -22.331701 8.470023
-100.558594 -65.174225 -22.331701 7.530901
-87.075287 -65.174225 -22.331701 7.047788
-73.591980 -65.174225 -22.331701 6.539195
-60.108704 -65.174225 -22.331701 6.409938
-46.625397 -65.174225 -22.331701 6.100880
-33.142090 -65.174225 -22.331701 5.797248
-19.658783 -65.174225 -22.331701 5.500991
-6.175476 -65.174225 -22.331701 5.835770
7.307800 -65.174225 -22.331701 5.737006
20.791107 -65.174225 -22.331701 5.419498
34.274414 -65.174225 -22.331701 4.951430
47.757721 -65.174225 -22.331701 4.683917
61.240997 -65.174225 -22.331701 3.797894
74.724304 -65.174225 -22.331701 3.089204
88.207611 -65.174225 -22.331701 2.581024
101.690918 -65.174225 -22.331701 2.196354
115.174225 -65.174225 -22.331701 1.753712
128.657501 -65.174225 -22.331701 1.450670
142.140808 -65.174225 -22.331701 1.223696
155.624115 -65.174225 -22.331701 1.170865
169.107422 -65.174225 -22.331701 1.130175
182.590698 -65.174225 -22.331701 0.913578
196.074036 -65.174225 -22.331701 0.847393
209.557312 -65.174225 -22.331701 0.746467
223.040588 -65.174225 -22.331701 0.671991
236.523926 -65.174225 -22.331701 0.721551
250.007202 -65.174225 -22.331701 0.770575
263.490540 -65.174225 -22.331701 0.807516
276.973816 -65.174225 -22.331701 0.702298
290.457092 -65.174225 -22.331701 0.730998
303.940430 -65.174225 -22.331701 0.752454
317.423706 -65.174225 -22.331701 0.513783
330.907043 -65.174225 -22.331701 0.000000
344.390320 -65.174225 -22.331701 0.000000
-343.257996 -78.657501 -22.331701 0.000000
-329.774689 -78.657501 -22.331701 0.000000
-316.291382 -78.657501 -22.331701 1.354053
-302.808105 -78.657501 -22.331701 1.112665
-289.324799 -78.657501 -22.331701 1.768363
-275.841492 -78.657501 -22.331701 2.187218
-262.358185 -78.657501 -22.331701 2.048696
-248.874893 -78.657501 -22.331701 2.657186
-235.391602 -78.657501 -22.331701 3.617063
-221.908295 -78.657501 -22.331701 5.570320
-208.424988 -78.657501 -22.331701 0.000000
-194.941696 -78.657501 -22.331701 0.000000
-181.458389 -78.657501 -22.331701 0.000000
-167.975098 -78.657501 -22.331701 10.572185
-154.491791 -78.657501 -22.331701 10.143323
-141.008499 -78.657501 -22.331701 10.356188
-127.525192 -78.657501 -22.331701 9.180672
-114.041885 -78.657501 -22.331701 8.221573
-100.558594 -78.657501 -22.331701 7.858642
-87.075287 -78.657501 -22.331701 7.139207
-73.591980 -78.657501 -22.331701 6.610772
-60.108704 -78.657501 -22.331701 6.249311
-46.625397 -78.657501 -22.331701 5.836157
-33.142090 -78.657501 -22.331701 5.234113
-19.658783 -78.657501 -22.331701 5.150601
-6.175476 -78.657501 -22.331701 5.435160
7.307800 -78.657501 -22.331701 5.178112
20.791107 -78.657501 -22.331701 5.204286
34.274414 -78.657501 -22.331701 4.644926
47.757721 -78.657501 -22.331701 3.883600
61.240997 -78.657501 -22.331701 3.447116
74.724304 -78.657501 -22.331701 2.849393
88.207611 -78.657501 -22.331701 2.338892
101.690918 -78.657501 -22.331701 1.905154
115.174225 -78.657501 -22.331701 1.602911
128.657501 -78.657501 -22.331701 1.386800
142.140808 -78.657501 -22.331701 1.233208
155.624115 -78.657501 -22.331701 1.139233
169.107422 -78.657501 -22.331701 1.085668
182.590698 -78.657501 -22.331701 0.997680
196.074036 -78.657501 -22.331701 0.959807
209.557312 -78.657501 -22.331701 0.886755
223.040588 -78.657501 -22.331701 0.814763
236.523926 -78.657501 -22.331701 0.897587
250.007202 -78.657501 -22.331701 0.829902
263.490540 -78.657501 -22.331701 0.906481
276.973816 -78.657501 -22.331701 1.045138
290.457092 -78.657501 -22.331701 1.114531
303.940430 -78.657501 -22.331701 0.920605
317.423706 -78.657501 -22.331701 1.018546
330.907043 -78.657501 -22.331701 0.000000
344.390320 -78.657501 -22.331701 0.000000
-343.257996 -92.140808 -22.331701 0.000000
-329.774689 -92.140808 -22.331701 0.000000
-316.291382 -92.140808 -22.331701 0.000000
-302.808105 -92.140808 -22.331701 2.434042
-289.324799 -92.140808 -22.331701 2.718456
-275.841492 -92.140808 -22.331701 3.525450
-262.358185 -92.140808 -22.331701 4.207456
-248.874893 -92.140808 -22.331701 4.834600
-235.391602 -92.140808 -22.331701 0.000000
-221.908295 -92.140808 -22.331701 0.000000
-208.424988 -92.140808 -22.331701 0.000000
-194.941696 -92.140808 -22.331701 0.000000
-181.458389 -92.140808 -22.331701 0.000000
-167.975098 -92.140808 -22.331701 0.000000
-154.491791 -92.140808 -22.331701 10.613592
-141.008499 -92.140808 -22.331701 10.195605
-127.525192 -92.140808 -22.331701 8.502048
-114.041885 -92.140808 -22.331701 7.856954
-100.558594 -92.140808 -22.331701 8.343984
-87.075287 -92.140808 -22.331701 7.359578
-73.591980 -92.140808 -22.331701 7.323708
-60.108704 -92.140808 -22.331701 5.925649
-46.625397 -92.140808 -22.331701 5.335677
-33.142090 -92.140808 -22.331701 4.875417
-19.658783 -92.140808 -22.331701 4.357812
-6.175476 -92.140808 -22.331701 4.542578
7.307800 -92.140808 -22.331701 4.593907
20.791107 -92.140808 -22.331701 4.551784
34.274414 -92.140808 -22.331701 4.097731
47.757721 -92.140808 -22.331701 3.485507
61.240997 -92.140808 -22.331701 3.181591
74.724304 -92.140808 -22.331701 2.647122
88.207611 -92.140808 -22.331701 2.125637
101.690918 -92.140808 -22.331701 1.768435
115.174225 -92.140808 -22.331701 1.501838
128.657501 -92.140808 -22.331701 1.389718
142.140808 -92.140808 -22.331701 1.329778
155.624115 -92.140808 -22.331701 1.333351
169.107422 -92.140808 -22.331701 1.206348
182.590698 -92.140808 -22.331701 1.173393
196.074036 -92.140808 -22.331701 1.162120
209.557312 -92.140808 -22.331701 1.148709
223.040588 -92.140808 -22.331701 1.085057
236.523926 -92.140808 -22.331701 1.028754
250.007202 -92.140808 -22.331701 0.995404
263.490540 -92.140808 -22.331701 0.987486
276.973816 -92.140808 -22.331701 1.277830
290.457092 -92.140808 -22.331701 1.140927
303.940430 -92.140808 -22.331701 1.614139
317.423706 -92.140808 -22.331701 1.412781
330.907043 -92.140808 -22.331701 0.000000
344.390320 -92.140808 -22.331701 0.000000
-343.257996 -105.624115 -22.331701 0.000000
-329.774689 -105.624115 -22.331701 0.000000
-316.291382 -105.624115 -22.331701 0.000000
-302.808105 -105.624115 -22.331701 5.528503
-289.324799 -105.624115 -22.331701 6.004498
-275.841492 -105.624115 -22.331701 7.401379
-262.358185 -105.624115 -22.331701 6.713821
-248.874893 -105.624115 -22.331701 7.414969
-235.391602 -105.624115 -22.331701 0.000000
-221.908295 -105.624115 -22.331701 0.000000
-208.424988 -105.624115 -22.331701 0.000000
-194.941696 -105.624115 -22.331701 0.000000
-181.458389 -105.624115 -22.331701 0.000000
-167.975098 -105.624115 -22.331701 0.000000
-154.491791 -105.624115 -22.331701 0.000000
-141.008499 -105.624115 -22.331701 9.808354
-127.525192 -105.624115 -22.331701 8.226398
-114.041885 -105.624115 -22.331701 7.734569
-100.558594 -105.624115 -22.331701 7.568930
-87.075287 -105.624115 -22.331701 7.074872
-73.591980 -105.624115 -22.331701 6.957246
-60.108704 -105.624115 -22.331701 6.239889
-46.625397 -105.624115 -22.331701 5.142361
-33.142090 -105.624115 -22.331701 4.449220
-19.658783 -105.624115 -22.331701 4.427456
-6.175476 -105.624115 -22.331701 4.191764
7.307800 -105.624115 -22.331701 4.474268
20.791107 -105.624115 -22.331701 4.275628
34.274414 -105.624115 -22.331701 3.618965
47.757721 -105.624115 -22.331701 3.362439
61.240997 -105.624115 -22.331701 2.941062
74.724304 -105.624115 -22.331701 2.633180
88.207611 -105.624115 -22.331701 2.123837
101.690918 -105.624115 -22.331701 1.801501
115.174225 -105.624115 -22.331701 1.546203
128.657501 -105.624115 -22.331701 1.376681
142.140808 -105.624115 -22.331701 1.320855
155.624115 -105.624115 -22.331701 1.353140
169.107422 -105.624115 -22.331701 1.418396
182.590698 -105.624115 -22.331701 1.510160
196.074036 -105.624115 -22.331701 1.617297
209.557312 -105.624115 -22.331701 1.693003
223.040588 -105.624115 -22.331701 1.578596
236.523926 -105.624115 -22.331701 1.573824
250.007202 -105.624115 -22.331701 1.445674
263.490540 -105.624115 -22.331701 1.595078
276.973816 -105.624115 -22.331701 1.868843
290.457092 -105.624115 -22.331701 2.103603
303.940430 -105.624115 -22.331701 2.142656
317.423706 -105.624115 -22.331701 0.000000
330.907043 -105.624115 -22.331701 0.000000
344.390320 -105.624115 -22.331701 0.000000
-343.257996 -119.107422 -22.331701 0.000000
-329.774689 -119.107422 -22.331701 0.000000
-316.291382 -119.107422 -22.331701 0.000000
-302.808105 -119.107422 -22.331701 0.000000
-289.324799 -119.107422 -22.331701 12.099407
-275.841492 -119.107422 -22.331701 11.919185
-262.358185 -119.107422 -22.331701 11.883945
-248.874893 -119.107422 -22.331701 0.000000
-235.391602 -119.107422 -22.331701 0.000000
-221.908295 -119.107422 -22.331701 0.000000
-208.424988 -119.107422 -22.331701 0.000000
-194.941696 -119.107422 -22.331701 0.000000
-181.458389 -119.107422 -22.331701 0.000000
-167.975098 -119.107422 -22.331701 0.000000
-154.491791 -119.107422 -22.331701 13.501135
-141.008499 -119.107422 -22.331701 11.968960
-127.525192 -119.107422 -22.331701 10.838007
-114.041885 -119.107422 -22.331701 9.202842
-100.558594 -119.107422 -22.331701 7.247758
-87.075287 -119.107422 -22.331701 7.221039
-73.591980 -119.107422 -22.331701 7.036538
-60.108704 -119.107422 -22.331701 6.015421
-46.625397 -119.107422 -22.331701 5.009947
-33.142090 -119.107422 -22.331701 4.691026
-19.658783 -119.107422 -22.331701 4.152343
-6.175476 -119.107422 -22.331701 4.286785
7.307800 -119.107422 -22.331701 4.436478
20.791107 -119.107422 -22.331701 4.265448
34.274414 -119.107422 -22.331701 4.073187
47.757721 -119.107422 -22.331701 3.267749
61.240997 -119.107422 -22.331701 2.803645
74.724304 -119.107422 -22.331701 2.538530
88.207611 -119.107422 -22.331701 2.158669
101.690918 -119.107422 -22.331701 1.909693
115.174225 -119.107422 -22.331701 1.685297
128.657501 -119.107422 -22.331701 1.640115
142.140808 -119.107422 -22.331701 1.592568
155.624115 -119.107422 -22.331701 1.628748
169.107422 -119.107422 -22.331701 1.795169
182.590698 -119.107422 -22.331701 2.160533
196.074036 -119.107422 -22.331701 2.597042
209.557312 -119.107422 -22.331701 2.461204
223.040588 -119.107422 -22.331701 2.278243
236.523926 -119.107422 -22.331701 2.321163
250.007202 -119.107422 -22.331701 2.312381
263.490540 -119.107422 -22.331701 2.524410
276.973816 -119.107422 -22.331701 2.684288
290.457092 -119.107422 -22.331701 3.297046
303.940430 -119.107422 -22.331701 3.825744
317.423706 -119.107422 -22.331701 0.000000
330.907043 -119.107422 -22.331701 0.000000
344.390320 -119.107422 -22.331701 0.000000
-343.257996 -132.590698 -22.331701 0.000000
-329.774689 -132.590698 -22.331701 0.000000
-316.291382 -132.590698 -22.331701 0.000000
-302.808105 -132.590698 -22.331701 0.000000
-289.324799 -132.590698 -22.331701 0.000000
-275.841492 -132.590698 -22.331701 0.000000
-262.358185 -132.590698 -22.331701 0.000000
-248.874893 -132.590698 -22.331701 0.000000
-235.391602 -132.590698 -22.331701 0.000000
-221.908295 -132.590698 -22.331701 0.000000
-208.424988 -132.590698 -22.331701 0.000000
-194.941696 -132.590698 -22.331701 0.000000
-181.458389 -132.590698 -22.331701 0.000000
-167.975098 -132.590698 -22.331701 0.000000
-154.491791 -132.590698 -22.331701 0.000000
-141.008499 -132.590698 -22.331701 14.455848
-127.525192 -132.590698 -22.331701 15.494373
-114.041885 -132.590698 -22.331701 11.461025
-100.558594 -132.590698 -22.331701 9.279491
-87.075287 -132.590698 -22.331701 8.193736
-73.591980 -132.590698 -22.331701 7.669607
-60.108704 -132.590698 -22.331701 6.540471
-46.625397 -132.590698 -22.331701 5.659233
-33.142090 -132.590698 -22.331701 4.552767
-19.658783 -132.590698 -22.331701 4.201718
-6.175476 -132.590698 -22.331701 4.741608
7.307800 -132.590698 -22.331701 4.732008
20.791107 -132.590698 -22.331701 4.227592
34.274414 -132.590698 -22.331701 3.874781
47.757721 -132.590698 -22.331701 3.283690
61.240997 -132.590698 -22.331701 3.153979
74.724304 -132.590698 -22.331701 2.860050
88.207611 -132.590698 -22.331701 2.469108
101.690918 -132.590698 -22.331701 2.372716
115.174225 -132.590698 -22.331701 2.127668
128.657501 -132.590698 -22.331701 2.092842
142.140808 -132.590698 -22.331701 2.100893
155.624115 -132.590698 -22.331701 2.084636
169.107422 -132.590698 -22.331701 2.501614
182.590698 -132.590698 -22.331701 2.833080
196.074036 -132.590698 -22.331701 3.241596
209.557312 -132.590698 -22.331701 3.733258
223.040588 -132.590698 -22.331701 3.610439
236.523926 -132.590698 -22.331701 3.644560
250.007202 -132.590698 -22.331701 3.197433
263.490540 -132.590698 -22.331701 3.668169
276.973816 -132.590698 -22.331701 4.201756
290.457092 -132.590698 -22.331701 0.000000
303.940430 -132.590698 -22.331701 0.000000
317.423706 -132.590698 -22.331701 0.000000
330.907043 -132.590698 -22.331701 0.000000
344.390320 -132.590698 -22.331701 0.000000
-343.257996 -146.074036 -22.331701 0.000000
-329.774689 -146.074036 -22.331701 0.000000
-316.291382 -146.074036 -22.331701 0.000000
-302.808105 -146.074036 -22.331701 0.000000
-289.324799 -146.074036 -22.331701 0.000000
-275.841492 -146.074036 -22.331701 0.000000
-262.358185 -146.074036 -22.331701 0.000000
-248.874893 -146.074036 -22.331701 0.000000
-235.391602 -146.074036 -22.331701 0.000000
-221.908295 -146.074036 -22.331701 0.000000
-208.424988 -146.074036 -22.331701 0.000000
-194.941696 -146.074036 -22.331701 0.000000
-181.458389 -146.074036 -22.331701 0.000000
-167.975098 -146.074036 -22.331701 0.000000
-154.491791 -146.074036 -22.331701 0.000000
-141.008499 -146.074036 -22.331701 0.000000
-127.525192 -146.074036 -22.331701 0.000000
-114.041885 -146.074036 -22.331701 0.000000
-100.558594 -146.074036 -22.331701 0.000000
-87.075287 -146.074036 -22.331701 0.000000
-73.591980 -146.074036 -22.331701 0.000000
-60.108704 -146.074036 -22.331701 0.000000
-46.625397 -146.074036 -22.331701 6.389014
-33.142090 -146.074036 -22.331701 5.272700
-19.658783 -146.074036 -22.331701 4.450890
-6.175476 -146.074036 -22.331701 4.600126
7.307800 -146.074036 -22.331701 5.070738
20.791107 -146.074036 -22.331701 4.704414
34.274414 -146.074036 -22.331701 0.000000
47.757721 -146.074036 -22.331701 0.000000
61.240997 -146.074036 -22.331701 0.000000
74.724304 -146.074036 -22.331701 0.000000
88.207611 -146.074036 -22.331701 0.000000
101.690918 -146.074036 -22.331701 0.000000
115.174225 -146.074036 -22.331701 2.773035
128.657501 -146.074036 -22.331701 2.484564
142.140808 -146.074036 -22.331701 2.596994
155.624115 -146.074036 -22.331701 0.000000
169.107422 -146.074036 -22.331701 0.000000
182.590698 -146.074036 -22.331701 0.000000
196.074036 -146.074036 -22.331701 0.000000
209.557312 -146.074036 -22.331701 0.000000
223.040588 -146.074036 -22.331701 0.000000
236.523926 -146.074036 -22.331701 0.000000
250.007202 -146.074036 -22.331701 0.000000
263.490540 -146.074036 -22.331701 0.000000
276.973816 -146.074036 -22.331701 0.000000
290.457092 -146.074036 -22.331701 0.000000
303.940430 -146.074036 -22.331701 0.000000
317.423706 -146.074036 -22.331701 0.000000
330.907043 -146.074036 -22.331701 0.000000
344.390320 -146.074036 -22.331701 0.000000
-343.257996 -159.557312 -22.331701 0.000000
-329.774689 -159.557312 -22.331701 0.000000
-316.291382 -159.557312 -22.331701 0.000000
-302.808105 -159.557312 -22.331701 0.000000
-289.324799 -159.557312 -22.331701 0.000000
-275.841492 -159.557312 -22.331701 0.000000
-262.358185 -159.557312 -22.331701 0.000000
-248.874893 -159.557312 -22.331701 0.000000
-235.391602 -159.557312 -22.331701 0.000000
-221.908295 -159.557312 -22.331701 0.000000
-208.424988 -159.557312 -22.331701 0.000000
-194.941696 -159.557312 -22.331701 0.000000
-181.458389 -159.557312 -22.331701 0.000000
-167.975098 -159.557312 -22.331701 0.000000
-154.491791 -159.557312 -22.331701 0.000000
-141.008499 -159.557312 -22.331701 0.000000
-127.525192 -159.557312 -22.331701 0.000000
-114.041885 -159.557312 -22.331701 0.000000
-100.558594 -159.557312 -22.331701 0.000000
-87.075287 -159.557312 -22.331701 0.000000
-73.591980 -159.557312 -22.331701 0.000000
-60.108704 -159.557312 -22.331701 0.000000
-46.625397 -159.557312 -22.331701 0.000000
-33.142090 -159.557312 -22.331701 0.000000
-19.658783 -159.557312 -22.331701 0.000000
-6.175476 -159.557312 -22.331701 0.000000
7.307800 -159.557312 -22.331701 0.000000
20.791107 -159.557312 -22.331701 0.000000
34.274414 -159.557312 -22.331701 0.000000
47.757721 -159.557312 -22.331701 0.000000
61.240997 -159.557312 -22.331701 0.000000
74.724304 -159.557312 -22.331701 0.000000
88.207611 -159.557312 -22.331701 0.000000
101.690918 -159.557312 -22.331701 0.000000
115.174225 -159.557312 -22.331701 0.000000
128.657501 -159.557312 -22.331701 0.000000
142.140808 -159.557312 -22.331701 0.000000
155.624115 -159.557312 -22.331701 0.000000
169.107422 -159.557312 -22.331701 0.000000
182.590698 -159.557312 -22.331701 0.000000
196.074036 -159.557312 -22.331701 0.000000
209.557312 -159.557312 -22.331701 0.000000
223.040588 -159.557312 -22.331701 0.000000
236.523926 -159.557312 -22.331701 0.000000
250.007202 -159.557312 -22.331701 0.000000
263.490540 -159.557312 -22.331701 0.000000
276.973816 -159.557312 -22.331701 0.000000
290.457092 -159.557312 -22.331701 0.000000
303.940430 -159.557312 -22.331701 0.000000
317.423706 -159.557312 -22.331701 0.000000
330.907043 -159.557312 -22.331701 0.000000
344.390320 -159.557312 -22.331701 0.000000
-343.257996 -173.040588 -22.331701 0.000000
-329.774689 -173.040588 -22.331701 0.000000
-316.291382 -173.040588 -22.331701 0.000000
-302.808105 -173.040588 -22.331701 0.000000
-289.324799 -173.040588 -22.331701 0.000000
-275.841492 -173.040588 -22.331701 0.000000
-262.358185 -173.040588 -22.331701 0.000000
-248.874893 -173.040588 -22.331701 0.000000
-235.391602 -173.040588 -22.331701 0.000000
-221.908295 -173.040588 -22.331701 0.000000
-208.424988 -173.040588 -22.331701 0.000000
-194.941696 -173.040588 -22.331701 0.000000
-181.458389 -173.040588 -22.331701 0.000000
-167.975098 -173.040588 -22.331701 0.000000
-154.491791 -173.040588 -22.331701 0.000000
-141.008499 -173.040588 -22.331701 0.000000
-127.525192 -173.040588 -22.331701 0.000000
-114.041885 -173.040588 -22.331701 0.000000
-100.558594 -173.040588 -22.331701 0.000000
-87.075287 -173.040588 -22.331701 0.000000
-73.591980 -173.040588 -22.331701 0.000000
-60.108704 -173.040588 -22.331701 0.000000
-46.625397 -173.040588 -22.331701 0.000000
-33.142090 -173.040588 -22.331701 0.000000
-19.658783 -173.040588 -22.331701 0.000000
-6.175476 -173.040588 -22.331701 0.000000
7.307800 -173.040588 -22.331701 0.000000
20.791107 -173.040588 -22.331701 0.000000
34.274414 -173.040588 -22.331701 0.000000
47.757721 -173.040588 -22.331701 0.000000
61.240997 -173.040588 -22.331701 0.000000
74.724304 -173.040588 -22.331701 0.000000
88.207611 -173.040588 -22.331701 0.000000
101.690918 -173.040588 -22.331701 0.000000
115.174225 -173.040588 -22.331701 0.000000
128.657501 -173.040588 -22.331701 0.000000
142.140808 -173.040588 -22.331701 0.000000
155.624115 -173.040588 -22.331701 0.000000
169.107422 -173.040588 -22.331701 0.000000
182.590698 -173.040588 -22.331701 0.000000
196.074036 -173.040588 -22.331701 0.000000
209.557312 -173.040588 -22.331701 0.000000
223.040588 -173.040588 -22.331701 0.000000
236.523926 -173.040588 -22.331701 0.000000
250.007202 -173.040588 -22.331701 0.000000
263.490540 -173.040588 -22.331701 0.000000
276.973816 -173.040588 -22.331701 0.000000
290.457092 -173.040588 -22.331701 0.000000
303.940430 -173.040588 -22.331701 0.000000
317.423706 -173.040588 -22.331701 0.000000
330.907043 -173.040588 -22.331701 0.000000
344.390320 -173.040588 -22.331701 0.000000
-343.257996 -186.523926 -22.331701 0.000000
-329.774689 -186.523926 -22.331701 0.000000
-316.291382 -186.523926 -22.331701 0.000000
-302.808105 -186.523926 -22.331701 0.000000
-289.324799 -186.523926 -22.331701 0.000000
-275.841492 -186.523926 -22.331701 0.000000
-262.358185 -186.523926 -22.331701 0.000000
-248.874893 -186.523926 -22.331701 0.000000
-235.391602 -186.523926 -22.331701 0.000000
-221.908295 -186.523926 -22.331701 0.000000
-208.424988 -186.523926 -22.331701 0.000000
-194.941696 -186.523926 -22.331701 0.000000
-181.458389 -186.523926 -22.331701 0.000000
-167.975098 -186.523926 -22.331701 0.000000
-154.491791 -186.523926 -22.331701 0.000000
-141.008499 -186.523926 -22.331701 0.000000
-127.525192 -186.523926 -22.331701 0.000000
-114.041885 -186.523926 -22.331701 0.000000
-100.558594 -186.523926 -22.331701 0.000000
-87.075287 -186.523926 -22.331701 0.000000
-73.591980 -186.523926 -22.331701 0.000000
-60.108704 -186.523926 -22.331701 0.000000
-46.625397 -186.523926 -22.331701 0.000000
-33.142090 -186.523926 -22.331701 0.000000
-19.658783 -186.523926 -22.331701 0.000000
-6.175476 -186.523926 -22.331701 0.000000
7.307800 -186.523926 -22.331701 0.000000
20.791107 -186.523926 -22.331701 0.000000
34.274414 -186.523926 -22.331701 0.000000
47.757721 -186.523926 -22.331701 0.000000
61.240997 -186.523926 -22.331701 0.000000
74.724304 -186.523926 -22.331701 0.000000
88.207611 -186.523926 -22.331701 0.000000
101.690918 -186.523926 -22.331701 0.000000
115.174225 -186.523926 -22.331701 0.000000
128.657501 -186.523926 -22.331701 0.000000
142.140808 -186.523926 -22.331701 0.000000
155.624115 -186.523926 -22.331701 0.000000
169.107422 -186.523926 -22.331701 0.000000
182.590698 -186.523926 -22.331701 0.000000
196.074036 -186.523926 -22.331701 0.000000
209.557312 -186.523926 -22.331701 0.000000
223.040588 -186.523926 -22.331701 0.000000
236.523926 -186.523926 -22.331701 0.000000
250.007202 -186.523926 -22.331701 0.000000
263.490540 -186.523926 -22.331701 0.000000
276.973816 -186.523926 -22.331701 0.000000
290.457092 -186.523926 -22.331701 0.000000
303.940430 -186.523926 -22.331701 0.000000
317.423706 -186.523926 -22.331701 0.000000
330.907043 -186.523926 -22.331701 0.000000
344.390320 -186.523926 -22.331701 0.000000
-343.257996 -200.007202 -22.331701 0.000000
-329.774689 -200.007202 -22.331701 0.000000
-316.291382 -200.007202 -22.331701 0.000000
-302.808105 -200.007202 -22.331701 0.000000
-289.324799 -200.007202 -22.331701 0.000000
-275.841492 -200.007202 -22.331701 0.000000
-262.358185 -200.007202 -22.331701 0.000000
-248.874893 -200.007202 -22.331701 0.000000
-235.391602 -200.007202 -22.331701 0.000000
-221.908295 -200.007202 -22.331701 0.000000
-208.424988 -200.007202 -22.331701 0.000000
-194.941696 -200.007202 -22.331701 0.000000
-181.458389 -200.007202 -22.331701 0.000000
-167.975098 -200.007202 -22.331701 0.000000
-154.491791 -200.007202 -22.331701 0.000000
-141.008499 -200.007202 -22.331701 0.000000
-127.525192 -200.007202 -22.331701 0.000000
-114.041885 -200.007202 -22.331701 0.000000
-100.558594 -200.007202 -22.331701 0.000000
-87.075287 -200.007202 -22.331701 0.000000
-73.591980 -200.007202 -22.331701 0.000000
-60.108704 -200.007202 -22.331701 0.000000
-46.625397 -200.007202 -22.331701 0.000000
-33.142090 -200.007202 -22.331701 0.000000
-19.658783 -200.007202 -22.331701 0.000000
-6.175476 -200.007202 -22.331701 0.000000
7.307800 -200.007202 -22.331701 0.000000
20.791107 -200.007202 -22.331701 0.000000
34.274414 -200.007202 -22.331701 0.000000
47.757721 -200.007202 -22.331701 0.000000
61.240997 -200.007202 -22.331701 0.000000
74.724304 -200.007202 -22.331701 0.000000
88.207611 -200.007202 -22.331701 0.000000
101.690918 -200.007202 -22.331701 0.000000
115.174225 -200.007202 -22.331701 0.000000
128.657501 -200.007202 -22.331701 0.000000
142.140808 -200.007202 -22.331701 0.000000
155.624115 -200.007202 -22.331701 0.000000
169.107422 -200.007202 -22.331701 0.000000
182.590698 -200.007202 -22.331701 0.000000
196.074036 -200.007202 -22.331701 0.000000
209.557312 -200.007202 -22.331701 0.000000
223.040588 -200.007202 -22.331701 0.000000
236.523926 -200.007202 -22.331701 0.000000
250.007202 -200.007202 -22.331701 0.000000
263.490540 -200.007202 -22.331701 0.000000
276.973816 -200.007202 -22.331701 0.000000
290.457092 -200.007202 -22.331701 0.000000
303.940430 -200.007202 -22.331701 0.000000
317.423706 -200.007202 -22.331701 0.000000
330.907043 -200.007202 -22.331701 0.000000
344.390320 -200.007202 -22.331701 0.000000
-343.257996 393.257996 -8.848400 0.000000
-329.774689 393.257996 -8.848400 0.000000
-316.291382 393.257996 -8.848400 0.000000
-302.808105 393.257996 -8.848400 0.000000
-289.324799 393.257996 -8.848400 0.000000
-275.841492 393.257996 -8.848400 0.000000
-262.358185 393.257996 -8.848400 0.000000
-248.874893 393.257996 -8.848400 0.000000
-235.391602 393.257996 -8.848400 0.000000
-221.908295 393.257996 -8.848400 0.000000
-208.424988 393.257996 -8.848400 0.000000
-194.941696 393.257996 -8.848400 0.000000
-181.458389 393.257996 -8.848400 0.000000
-167.975098 393.257996 -8.848400 0.000000
-154.491791 393.257996 -8.848400 0.000000
-141.008499 393.257996 -8.848400 0.000000
-127.525192 393.257996 -8.848400 0.000000
-114.041885 393.257996 -8.848400 0.000000
-100.558594 393.257996 -8.848400 0.000000
-87.075287 393.257996 -8.848400 0.000000
-73.591980 393.257996 -8.848400 0.000000
-60.108704 393.257996 -8.848400 0.000000
-46.625397 393.257996 -8.848400 0.000000
-33.142090 393.257996 -8.848400 0.000000
-19.658783 393.257996 -8.848400 0.000000
-6.175476 393.257996 -8.848400 0.000000
7.307800 393.257996 -8.848400 0.000000
20.791107 393.257996 -8.848400 0.000000
34.274414 393.257996 -8.848400 0.000000
47.757721 393.257996 -8.848400 0.000000
61.240997 393.257996 -8.848400 0.000000
74.724304 393.257996 -8.848400 0.000000
88.207611 393.257996 -8.848400 0.000000
101.690918 393.257996 -8.848400 0.000000
115.174225 393.257996 -8.848400 0.000000
128.657501 393.257996 -8.848400 0.000000
142.140808 393.257996 -8.848400 0.000000
155.624115 393.257996 -8.848400 0.000000
169.107422 393.257996 -8.848400 0.000000
182.590698 393.257996 -8.848400 0.000000
196.074036 393.257996 -8.848400 0.000000
209.557312 393.257996 -8.848400 0.000000
223.040588 393.257996 -8.848400 0.000000
236.523926 393.257996 -8.848400 0.000000
250.007202 393.257996 -8.848400 0.000000
263.490540 393.257996 -8.848400 0.000000
276.973816 393.257996 -8.848400 0.000000
290.457092 393.257996 -8.848400 0.000000
303.940430 393.257996 -8.848400 0.000000
317.423706 393.257996 -8.848400 0.000000
330.907043 393.257996 -8.848400 0.000000
344.390320 393.257996 -8.848400 0.000000
-343.257996 379.774689 -8.848400 0.000000
-329.774689 379.774689 -8.848400 0.000000
-316.291382 379.774689 -8.848400 0.000000
-302.808105 379.774689 -8.848400 0.000000
-289.324799 379.774689 -8.848400 0.000000
-275.841492 379.774689 -8.848400 0.000000
-262.358185 379.774689 -8.848400 0.000000
-248.874893 379.774689 -8.848400 0.000000
-235.391602 379.774689 -8.848400 0.000000
-221.908295 379.774689 -8.848400 0.000000
-208.424988 379.774689 -8.848400 0.000000
-194.941696 379.774689 -8.848400 0.000000
-181.458389 379.774689 -8.848400 0.000000
-167.975098 379.774689 -8.848400 0.000000
-154.491791 379.774689 -8.848400 0.000000
-141.008499 379.774689 -8.848400 0.000000
-127.525192 379.774689 -8.848400 0.000000
-114.041885 379.774689 -8.848400 0.000000
-100.558594 379.774689 -8.848400 0.000000
-87.075287 379.774689 -8.848400 0.000000
-73.591980 379.774689 -8.848400 0.000000
-60.108704 379.774689 -8.848400 0.000000
-46.625397 379.774689 -8.848400 0.000000
-33.142090 379.774689 -8.848400 0.000000
-19.658783 379.774689 -8.848400 0.000000
-6.175476 379.774689 -8.848400 0.000000
7.307800 379.774689 -8.848400 0.000000
20.791107 379.774689 -8.848400 0.000000
34.274414 379.774689 -8.848400 0.000000
47.757721 379.774689 -8.848400 0.000000
61.240997 379.774689 -8.848400 0.000000
74.724304 379.774689 -8.848400 0.000000
88.207611 379.774689 -8.848400 0.000000
101.690918 379.774689 -8.848400 0.000000
115.174225 379.774689 -8.848400 0.000000
128.657501 379.774689 -8.848400 0.000000
142.140808 379.774689 -8.848400 0.000000
155.624115 379.774689 -8.848400 0.000000
169.107422 379.774689 -8.848400 0.000000
182.590698 379.774689 -8.848400 0.000000
196.074036 379.774689 -8.848400 0.000000
209.557312 379.774689 -8.848400 0.000000
223.040588 379.774689 -8.848400 0.000000
236.523926 379.774689 -8.848400 0.000000
250.007202 379.774689 -8.848400 0.000000
263.490540 379.774689 -8.848400 0.000000
276.973816 379.774689 -8.848400 0.000000
290.457092 379.774689 -8.848400 0.000000
303.940430 379.774689 -8.848400 0.000000
317.423706 379.774689 -8.848400 0.000000
330.907043 379.774689 -8.848400 0.000000
344.390320 379.774689 -8.848400 0.000000
-343.257996 366.291382 -8.848400 0.000000
-329.774689 366.291382 -8.848400 0.000000
-316.291382 366.291382 -8.848400 0.000000
-302.808105 366.291382 -8.848400 0.000000
-289.324799 366.291382 -8.848400 0.000000
-275.841492 366.291382 -8.848400 0.000000
-262.358185 366.291382 -8.848400 0.000000
-248.874893 366.291382 -8.848400 0.000000
-235.391602 366.291382 -8.848400 0.000000
-221.908295 366.291382 -8.848400 0.000000
-208.424988 366.291382 -8.848400 0.000000
-194.941696 366.291382 -8.848400 0.000000
-181.458389 366.291382 -8.848400 0.000000
-167.975098 366.291382 -8.848400 0.000000
-154.491791 366.291382 -8.848400 0.000000
-141.008499 366.291382 -8.848400 0.000000
-127.525192 366.291382 -8.848400 0.000000
-114.041885 366.291382 -8.848400 0.000000
-100.558594 366.291382 -8.848400 0.000000
-87.075287 366.291382 -8.848400 0.000000
-73.591980 366.291382 -8.848400 0.000000
-60.108704 366.291382 -8.848400 0.000000
-46.625397 366.291382 -8.848400 0.000000
-33.142090 366.291382 -8.848400 0.000000
-19.658783 366.291382 -8.848400 0.000000
-6.175476 366.291382 -8.848400 0.000000
7.307800 366.291382 -8.848400 0.000000
20.791107 366.291382 -8.848400 0.000000
34.274414 366.291382 -8.848400 0.000000
47.757721 366.291382 -8.848400 0.000000
61.240997 366.291382 -8.848400 0.000000
74.724304 366.291382 -8.848400 0.000000
88.207611 366.291382 -8.848400 0.000000
101.690918 366.291382 -8.848400 0.000000
115.174225 366.291382 -8.848400 0.000000
128.657501 366.291382 -8.848400 0.000000
142.140808 366.291382 -8.848400 0.000000
155.624115 366.291382 -8.848400 0.000000
169.107422 366.291382 -8.848400 0.000000
182.590698 366.291382 -8.848400 0.000000
196.074036 366.291382 -8.848400 0.000000
209.557312 366.291382 -8.848400 0.000000
223.040588 366.291382 -8.848400 0.000000
236.523926 366.291382 -8.848400 0.000000
250.007202 366.291382 -8.848400 0.000000
263.490540 366.291382 -8.848400 0.000000
276.973816 366.291382 -8.848400 0.000000
290.457092 366.291382 -8.848400 0.000000
303.940430 366.291382 -8.848400 0.000000
317.423706 366.291382 -8.848400 0.000000
330.907043 366.291382 -8.848400 0.000000
344.390320 366.291382 -8.848400 0.000000
-343.257996 352.808105 -8.848400 0.000000
-329.774689 352.808105 -8.848400 0.000000
-316.291382 352.808105 -8.848400 0.000000
-302.808105 352.808105 -8.848400 0.000000
-289.324799 352.808105 -8.848400 0.000000
-275.841492 352.808105 -8.848400 0.000000
-262.358185 352.808105 -8.848400 0.000000
-248.874893 352.808105 -8.848400 0.000000
-235.391602 352.808105 -8.848400 0.000000
-221.908295 352.808105 -8.848400 0.000000
-208.424988 352.808105 -8.848400 0.000000
-194.941696 352.808105 -8.848400 0.000000
-181.458389 352.808105 -8.848400 0.000000
-167.975098 352.808105 -8.848400 0.000000
-154.491791 352.808105 -8.848400 0.000000
-141.008499 352.808105 -8.848400 0.000000
-127.525192 352.808105 -8.848400 0.000000
-114.041885 352.808105 -8.848400 0.000000
-100.558594 352.808105 -8.848400 0.000000
-87.075287 352.808105 -8.848400 0.000000
-73.591980 352.808105 -8.848400 0.000000
-60.108704 352.808105 -8.848400 0.000000
-46.625397 352.808105 -8.848400 0.000000
-33.142090 352.808105 -8.848400 0.000000
-19.658783 352.808105 -8.848400 0.000000
-6.175476 352.808105 -8.848400 0.000000
7.307800 352.808105 -8.848400 0.000000
20.791107 352.808105 -8.848400 0.000000
34.274414 352.808105 -8.848400 0.000000
47.757721 352.808105 -8.848400 0.000000
61.240997 352.808105 -8.848400 0.000000
74.724304 352.808105 -8.848400 0.000000
88.207611 352.808105 -8.848400 0.000000
101.690918 352.808105 -8.848400 0.000000
115.174225 352.808105 -8.848400 0.000000
128.657501 352.808105 -8.848400 0.000000
142.140808 352.808105 -8.848400 0.000000
155.624115 352.808105 -8.848400 0.000000
169.107422 352.808105 -8.848400 0.000000
182.590698 352.808105 -8.848400 0.000000
196.074036 352.808105 -8.848400 0.000000
209.557312 352.808105 -8.848400 0.000000
223.040588 352.808105 -8.848400 0.000000
236.523926 352.808105 -8.848400 0.000000
250.007202 352.808105 -8.848400 0.000000
263.490540 352.808105 -8.848400 0.000000
276.973816 352.808105 -8.848400 0.000000
290.457092 352.808105 -8.848400 0.000000
303.940430 352.808105 -8.848400 0.000000
317.423706 352.808105 -8.848400 0.000000
330.907043 352.808105 -8.848400 0.000000
344.390320 352.808105 -8.848400 0.000000
-343.257996 339.324799 -8.848400 0.000000
-329.774689 339.324799 -8.848400 0.000000
-316.291382 339.324799 -8.848400 0.000000
-302.808105 339.324799 -8.848400 0.000000
-289.324799 339.324799 -8.848400 0.000000
-275.841492 339.324799 -8.848400 0.000000
-262.358185 339.324799 -8.848400 0.000000
-248.874893 339.324799 -8.848400 0.000000
-235.391602 339.324799 -8.848400 0.000000
-221.908295 339.324799 -8.848400 0.000000
-208.424988 339.324799 -8.848400 0.000000
-194.941696 339.324799 -8.848400 0.000000
-181.458389 339.324799 -8.848400 0.000000
-167.975098 339.324799 -8.848400 0.000000
-154.491791 339.324799 -8.848400 0.000000
-141.008499 339.324799 -8.848400 0.000000
-127.525192 339.324799 -8.848400 0.000000
-114.041885 339.324799 -8.848400 0.000000
-100.558594 339.324799 -8.848400 0.000000
-87.075287 339.324799 -8.848400 0.000000
-73.591980 339.324799 -8.848400 0.000000
-60.108704 339.324799 -8.848400 0.000000
-46.625397 339.324799 -8.848400 0.000000
-33.142090 339.324799 -8.848400 0.000000
-19.658783 339.324799 -8.848400 0.000000
-6.175476 339.324799 -8.848400 0.000000
7.307800 339.324799 -8.848400 0.000000
20.791107 339.324799 -8.848400 0.000000
34.274414 339.324799 -8.848400 0.000000
47.757721 339.324799 -8.848400 0.000000
61.240997 339.324799 -8.848400 0.000000
74.724304 339.324799 -8.848400 0.000000
88.207611 339.324799 -8.848400 0.000000
101.690918 339.324799 -8.848400 0.000000
115.174225 339.324799 -8.848400 0.000000
128.657501 339.324799 -8.848400 0.000000
142.140808 339.324799 -8.848400 0.000000
155.624115 339.324799 -8.848400 0.000000
169.107422 339.324799 -8.848400 0.000000
182.590698 339.324799 -8.848400 0.000000
196.074036 339.324799 -8.848400 0.000000
209.557312 339.324799 -8.848400 0.000000
223.040588 339.324799 -8.848400 0.000000
236.523926 339.324799 -8.848400 0.000000
250.007202 339.324799 -8.848400 0.000000
263.490540 339.324799 -8.848400 0.000000
276.973816 339.324799 -8.848400 0.000000
290.457092 339.324799 -8.848400 0.000000
303.940430 339.324799 -8.848400 0.000000
317.423706 339.324799 -8.848400 0.000000
330.907043 339.324799 -8.848400 0.000000
344.390320 339.324799 -8.848400 0.000000
-343.257996 325.841492 -8.848400 0.000000
-329.774689 325.841492 -8.848400 0.000000
-316.291382 325.841492 -8.848400 0.000000
-302.808105 325.841492 -8.848400 0.000000
-289.324799 325.841492 -8.848400 0.000000
-275.841492 325.841492 -8.848400 0.000000
-262.358185 325.841492 -8.848400 0.000000
-248.874893 325.841492 -8.848400 0.000000
-235.391602 325.841492 -8.848400 0.000000
-221.908295 325.841492 -8.848400 0.000000
-208.424988 325.841492 -8.848400 0.000000
-194.941696 325.841492 -8.848400 0.000000
-181.458389 325.841492 -8.848400 0.000000
-167.975098 325.841492 -8.848400 0.000000
-154.491791 325.841492 -8.848400 0.000000
-141.008499 325.841492 -8.848400 0.000000
-127.525192 325.841492 -8.848400 6.890473
-114.041885 325.841492 -8.848400 7.711711
-100.558594 325.841492 -8.848400 7.544602
-87.075287 325.841492 -8.848400 6.967277
-73.591980 325.841492 -8.848400 7.230988
-60.108704 325.841492 -8.848400 6.682560
-46.625397 325.841492 -8.848400 6.656356
-33.142090 325.841492 -8.848400 0.000000
-19.658783 325.841492 -8.848400 0.000000
-6.175476 325.841492 -8.848400 0.000000
7.307800 325.841492 -8.848400 0.000000
20.791107 325.841492 -8.848400 0.000000
34.274414 325.841492 -8.848400 0.000000
47.757721 325.841492 -8.848400 0.000000
61.240997 325.841492 -8.848400 0.000000
74.724304 325.841492 -8.848400 0.000000
88.207611 325.841492 -8.848400 0.000000
101.690918 325.841492 -8.848400 0.000000
115.174225 325.841492 -8.848400 0.000000
128.657501 325.841492 -8.848400 0.000000
142.140808 325.841492 -8.848400 0.000000
155.624115 325.841492 -8.848400 0.000000
169.107422 325.841492 -8.848400 0.000000
182.590698 325.841492 -8.848400 0.000000
196.074036 325.841492 -8.848400 0.000000
209.557312 325.841492 -8.848400 0.000000
223.040588 325.841492 -8.848400 0.000000
236.523926 325.841492 -8.848400 0.000000
250.007202 325.841492 -8.848400 0.000000
263.490540 325.841492 -8.848400 0.000000
276.973816 325.841492 -8.848400 0.000000
290.457092 325.841492 -8.848400 0.000000
303.940430 325.841492 -8.848400 0.000000
317.423706 325.841492 -8.848400 0.000000
330.907043 325.841492 -8.848400 0.000000
344.390320 325.841492 -8.848400 0.000000
-343.257996 312.358185 -8.848400 0.000000
-329.774689 312.358185 -8.848400 0.000000
-316.291382 312.358185 -8.848400 0.000000
-302.808105 312.358185 -8.848400 0.000000
-289.324799 312.358185 -8.848400 0.000000
-275.841492 312.358185 -8.848400 0.000000
-262.358185 312.358185 -8.848400 0.000000
-248.874893 312.358185 -8.848400 0.000000
-235.391602 312.358185 -8.848400 0.000000
-221.908295 312.358185 -8.848400 0.000000
-208.424988 312.358185 -8.848400 0.000000
-194.941696 312.358185 -8.848400 0.000000
-181.458389 312.358185 -8.848400 0.000000
-167.975098 312.358185 -8.848400 0.000000
-154.491791 312.358185 -8.848400 0.000000
-141.008499 312.358185 -8.848400 6.583550
-127.525192 312.358185 -8.848400 7.185634
-114.041885 312.358185 -8.848400 7.813856
-100.558594 312.358185 -8.848400 7.677987
-87.075287 312.358185 -8.848400 7.479407
-73.591980 312.358185 -8.848400 7.124741
-60.108704 312.358185 -8.848400 6.846635
-46.625397 312.358185 -8.848400 6.569817
-33.142090 312.358185 -8.848400 5.560009
-19.658783 312.358185 -8.848400 0.000000
-6.175476 312.358185 -8.848400 0.000000
7.307800 312.358185 -8.848400 0.000000
20.791107 312.358185 -8.848400 0.000000
34.274414 312.358185 -8.848400 0.000000
47.757721 312.358185 -8.848400 0.000000
61.240997 312.358185 -8.848400 0.000000
74.724304 312.358185 -8.848400 0.000000
88.207611 312.358185 -8.848400 0.000000
101.690918 312.358185 -8.848400 0.000000
115.174225 312.358185 -8.848400 0.000000
128.657501 312.358185 -8.848400 0.000000
142.140808 312.358185 -8.848400 0.000000
155.624115 312.358185 -8.848400 0.000000
169.107422 312.358185 -8.848400 0.000000
182.590698 312.358185 -8.848400 0.000000
196.074036 312.358185 -8.848400 0.000000
209.557312 312.358185 -8.848400 0.000000
223.040588 312.358185 -8.848400 0.000000
236.523926 312.358185 -8.848400 0.000000
250.007202 312.358185 -8.848400 0.000000
263.490540 312.358185 -8.848400 0.000000
276.973816 312.358185 -8.848400 0.000000
290.457092 312.358185 -8.848400 0.000000
303.940430 312.358185 -8.848400 0.000000
317.423706 312.358185 -8.848400 0.000000
330.907043 312.358185 -8.848400 0.000000
344.390320 312.358185 -8.848400 0.000000
-343.257996 298.874878 -8.848400 0.000000
-329.774689 298.874878 -8.848400 0.000000
-316.291382 298.874878 -8.848400 0.000000
-302.808105 298.874878 -8.848400 0.000000
-289.324799 298.874878 -8.848400 0.000000
-275.841492 298.874878 -8.848400 0.000000
-262.358185 298.874878 -8.848400 0.000000
-248.874893 298.874878 -8.848400 0.000000
-235.391602 298.874878 -8.848400 0.000000
-221.908295 298.874878 -8.848400 0.000000
-208.424988 298.874878 -8.848400 0.000000
-194.941696 298.874878 -8.848400 0.000000
-181.458389 298.874878 -8.848400 0.000000
-167.975098 298.874878 -8.848400 0.000000
-154.491791 298.874878 -8.848400 0.000000
-141.008499 298.874878 -8.848400 5.803867
-127.525192 298.874878 -8.848400 6.924161
-114.041885 298.874878 -8.848400 6.996698
-100.558594 298.874878 -8.848400 7.248017
-87.075287 298.874878 -8.848400 7.008112
-73.591980 298.874878 -8.848400 6.771879
-60.108704 298.874878 -8.848400 7.067228
-46.625397 298.874878 -8.848400 7.336319
-33.142090 298.874878 -8.848400 6.309520
-19.658783 298.874878 -8.848400 4.967579
-6.175476 298.874878 -8.848400 0.000000
7.307800 298.874878 -8.848400 0.000000
20.791107 298.874878 -8.848400 0.000000
34.274414 298.874878 -8.848400 0.000000
47.757721 298.874878 -8.848400 0.000000
61.240997 298.874878 -8.848400 0.000000
74.724304 298.874878 -8.848400 0.000000
88.207611 298.874878 -8.848400 0.000000
101.690918 298.874878 -8.848400 0.000000
115.174225 298.874878 -8.848400 0.000000
128.657501 298.874878 -8.848400 0.000000
142.140808 298.874878 -8.848400 0.000000
155.624115 298.874878 -8.848400 0.000000
169.107422 298.874878 -8.848400 0.000000
182.590698 298.874878 -8.848400 0.000000
196.074036 298.874878 -8.848400 0.000000
209.557312 298.874878 -8.848400 0.000000
223.040588 298.874878 -8.848400 0.000000
236.523926 298.874878 -8.848400 0.000000
250.007202 298.874878 -8.848400 0.000000
263.490540 298.874878 -8.848400 0.000000
276.973816 298.874878 -8.848400 0.000000
290.457092 298.874878 -8.848400 0.000000
303.940430 298.874878 -8.848400 0.000000
317.423706 298.874878 -8.848400 0.000000
330.907043 298.874878 -8.848400 0.000000
344.390320 298.874878 -8.848400 0.000000
-343.257996 285.391602 -8.848400 0.000000
-329.774689 285.391602 -8.848400 0.000000
-316.291382 285.391602 -8.848400 0.000000
-302.808105 285.391602 -8.848400 0.000000
-289.324799 285.391602 -8.848400 0.000000
-275.841492 285.391602 -8.848400 0.000000
-262.358185 285.391602 -8.848400 0.000000
-248.874893 285.391602 -8.848400 0.000000
-235.391602 285.391602 -8.848400 0.000000
-221.908295 285.391602 -8.848400 0.000000
-208.424988 285.391602 -8.848400 0.000000
-194.941696 285.391602 -8.848400 0.000000
-181.458389 285.391602 -8.848400 0.000000
-167.975098 285.391602 -8.848400 0.000000
-154.491791 285.391602 -8.848400 0.000000
-141.008499 285.391602 -8.848400 5.190900
-127.525192 285.391602 -8.848400 5.792060
-114.041885 285.391602 -8.848400 6.426520
-100.558594 285.391602 -8.848400 6.467858
-87.075287 285.391602 -8.848400 6.658703
-73.591980 285.391602 -8.848400 6.046744
-60.108704 285.391602 -8.848400 6.518778
-46.625397 285.391602 -8.848400 6.966174
-33.142090 285.391602 -8.848400 6.342179
-19.658783 285.391602 -8.848400 5.272092
-6.175476 285.391602 -8.848400 4.128690
7.307800 285.391602 -8.848400 3.536649
20.791107 285.391602 -8.848400 2.972080
34.274414 285.391602 -8.848400 0.000000
47.757721 285.391602 -8.848400 0.000000
61.240997 285.391602 -8.848400 0.000000
74.724304 285.391602 -8.848400 0.000000
88.207611 285.391602 -8.848400 0.000000
101.690918 285.391602 -8.848400 0.000000
115.174225 285.391602 -8.848400 0.000000
128.657501 285.391602 -8.848400 0.000000
142.140808 285.391602 -8.848400 0.000000
155.624115 285.391602 -8.848400 0.000000
169.107422 285.391602 -8.848400 0.000000
182.590698 285.391602 -8.848400 0.000000
196.074036 285.391602 -8.848400 0.000000
209.557312 285.391602 -8.848400 0.000000
223.040588 285.391602 -8.848400 0.000000
236.523926 285.391602 -8.848400 0.000000
250.007202 285.391602 -8.848400 0.000000
263.490540 285.391602 -8.848400 0.000000
276.973816 285.391602 -8.848400 0.000000
290.457092 285.391602 -8.848400 0.000000
303.940430 285.391602 -8.848400 0.000000
317.423706 285.391602 -8.848400 0.000000
330.907043 285.391602 -8.848400 0.000000
344.390320 285.391602 -8.848400 0.000000
-343.257996 271.908295 -8.848400 0.000000
-329.774689 271.908295 -8.848400 0.000000
-316.291382 271.908295 -8.848400 0.000000
-302.808105 271.908295 -8.848400 0.000000
-289.324799 271.908295 -8.848400 0.000000
-275.841492 271.908295 -8.848400 0.000000
-262.358185 271.908295 -8.848400 0.000000
-248.874893 271.908295 -8.848400 0.000000
-235.391602 271.908295 -8.848400 0.000000
-221.908295 271.908295 -8.848400 0.000000
-208.424988 271.908295 -8.848400 0.000000
-194.941696 271.908295 -8.848400 0.000000
-181.458389 271.908295 -8.848400 0.000000
-167.975098 271.908295 -8.848400 0.000000
-154.491791 271.908295 -8.848400 0.000000
-141.008499 271.908295 -8.848400 4.617751
-127.525192 271.908295 -8.848400 5.701627
-114.041885 271.908295 -8.848400 5.987103
-100.558594 271.908295 -8.848400 6.071195
-87.075287 271.908295 -8.848400 6.291941
-73.591980 271.908295 -8.848400 6.239210
-60.108704 271.908295 -8.848400 6.052705
-46.625397 271.908295 -8.848400 6.638530
-33.142090 271.908295 -8.848400 6.228952
-19.658783 271.908295 -8.848400 5.752232
-6.175476 271.908295 -8.848400 5.041226
7.307800 271.908295 -8.848400 4.051790
20.791107 271.908295 -8.848400 3.529955
34.274414 271.908295 -8.848400 3.185117
47.757721 271.908295 -8.848400 3.725219
61.240997 271.908295 -8.848400 0.000000
74.724304 271.908295 -8.848400 0.000000
88.207611 271.908295 -8.848400 6.928262
101.690918 271.908295 -8.848400 7.432158
115.174225 271.908295 -8.848400 6.392550
128.657501 271.908295 -8.848400 6.045560
142.140808 271.908295 -8.848400 5.009228
155.624115 271.908295 -8.848400 0.000000
169.107422 271.908295 -8.848400 0.000000
182.590698 271.908295 -8.848400 0.000000
196.074036 271.908295 -8.848400 0.000000
209.557312 271.908295 -8.848400 0.000000
223.040588 271.908295 -8.848400 0.000000
236.523926 271.908295 -8.848400 0.000000
250.007202 271.908295 -8.848400 0.000000
263.490540 271.908295 -8.848400 0.000000
276.973816 271.908295 -8.848400 0.000000
290.457092 271.908295 -8.848400 0.000000
303.940430 271.908295 -8.848400 0.000000
317.423706 271.908295 -8.848400 0.000000
330.907043 271.908295 -8.848400 0.000000
344.390320 271.908295 -8.848400 0.000000
-343.257996 258.424988 -8.848400 0.000000
-329.774689 258.424988 -8.848400 0.000000
-316.291382 258.424988 -8.848400 0.000000
-302.808105 258.424988 -8.848400 0.000000
-289.324799 258.424988 -8.848400 0.000000
-275.841492 258.424988 -8.848400 0.000000
-262.358185 258.424988 -8.848400 0.000000
-248.874893 258.424988 -8.848400 0.000000
-235.391602 258.424988 -8.848400 0.000000
-221.908295 258.424988 -8.848400 0.000000
-208.424988 258.424988 -8.848400 0.000000
-194.941696 258.424988 -8.848400 0.000000
-181.458389 258.424988 -8.848400 0.000000
-167.975098 258.424988 -8.848400 0.000000
-154.491791 258.424988 -8.848400 0.000000
-141.008499 258.424988 -8.848400 4.808277
-127.525192 258.424988 -8.848400 5.137045
-114.041885 258.424988 -8.848400 5.302626
-100.558594 258.424988 -8.848400 5.472754
-87.075287 258.424988 -8.848400 5.958711
-73.591980 258.424988 -8.848400 5.889287
-60.108704 258.424988 -8.848400 5.652272
-46.625397 258.424988 -8.848400 5.978470
-33.142090 258.424988 -8.848400 6.274569
-19.658783 258.424988 -8.848400 5.984064
-6.175476 258.424988 -8.848400 5.410731
7.307800 258.424988 -8.848400 4.677526
20.791107 258.424988 -8.848400 4.430530
34.274414 258.424988 -8.848400 4.122298
47.757721 258.424988 -8.848400 4.443556
61.240997 258.424988 -8.848400 5.713844
74.724304 258.424988 -8.848400 6.860364
88.207611 258.424988 -8.848400 6.938198
101.690918 258.424988 -8.848400 6.888914
115.174225 258.424988 -8.848400 6.088753
128.657501 258.424988 -8.848400 5.619545
142.140808 258.424988 -8.848400 5.192809
155.624115 258.424988 -8.848400 4.277400
169.107422 258.424988 -8.848400 0.000000
182.590698 258.424988 -8.848400 0.000000
196.074036 258.424988 -8.848400 0.000000
209.557312 258.424988 -8.848400 0.000000
223.040588 258.424988 -8.848400 0.000000
236.523926 258.424988 -8.848400 0.000000
250.007202 258.424988 -8.848400 0.000000
263.490540 258.424988 -8.848400 0.000000
276.973816 258.424988 -8.848400 0.000000
290.457092 258.424988 -8.848400 0.000000
303.940430 258.424988 -8.848400 0.000000
317.423706 258.424988 -8.848400 0.000000
330.907043 258.424988 -8.848400 0.000000
344.390320 258.424988 -8.848400 0.000000
-343.257996 244.941696 -8.848400 0.000000
-329.774689 244.941696 -8.848400 0.000000
-316.291382 244.941696 -8.848400 0.000000
-302.808105 244.941696 -8.848400 0.000000
-289.324799 244.941696 -8.848400 0.000000
-275.841492 244.941696 -8.848400 0.000000
-262.358185 244.941696 -8.848400 0.000000
-248.874893 244.941696 -8.848400 0.000000
-235.391602 244.941696 -8.848400 0.000000
-221.908295 244.941696 -8.848400 0.000000
-208.424988 244.941696 -8.848400 0.000000
-194.941696 244.941696 -8.848400 0.000000
-181.458389 244.941696 -8.848400 0.000000
-167.975098 244.941696 -8.848400 0.000000
-154.491791 244.941696 -8.848400 4.416218
-141.008499 244.941696 -8.848400 4.602657
-127.525192 244.941696 -8.848400 4.764710
-114.041885 244.941696 -8.848400 4.923309
-100.558594 244.941696 -8.848400 5.097159
-87.075287 244.941696 -8.848400 5.137022
-73.591980 244.941696 -8.848400 5.638336
-60.108704 244.941696 -8.848400 5.627169
-46.625397 244.941696 -8.848400 5.963562
-33.142090 244.941696 -8.848400 5.881493
-19.658783 244.941696 -8.848400 5.726463
-6.175476 244.941696 -8.848400 5.401107
7.307800 244.941696 -8.848400 4.956598
20.791107 244.941696 -8.848400 5.111819
34.274414 244.941696 -8.848400 5.578476
47.757721 244.941696 -8.848400 6.182817
61.240997 244.941696 -8.848400 6.663264
74.724304 244.941696 -8.848400 7.520866
88.207611 244.941696 -8.848400 7.019519
101.690918 244.941696 -8.848400 6.780381
115.174225 244.941696 -8.848400 5.981395
128.657501 244.941696 -8.848400 5.241486
142.140808 244.941696 -8.848400 4.762377
155.624115 244.941696 -8.848400 4.081455
169.107422 244.941696 -8.848400 3.842525
182.590698 244.941696 -8.848400 0.000000
196.074036 244.941696 -8.848400 0.000000
209.557312 244.941696 -8.848400 0.000000
223.040588 244.941696 -8.848400 0.000000
236.523926 244.941696 -8.848400 0.000000
250.007202 244.941696 -8.848400 0.000000
263.490540 244.941696 -8.848400 0.000000
276.973816 244.941696 -8.848400 0.000000
290.457092 244.941696 -8.848400 0.000000
303.940430 244.941696 -8.848400 0.000000
317.423706 244.941696 -8.848400 0.000000
330.907043 244.941696 -8.848400 0.000000
344.390320 244.941696 -8.848400 0.000000
-343.257996 231.458389 -8.848400 0.000000
-329.774689 231.458389 -8.848400 0.000000
-316.291382 231.458389 -8.848400 0.000000
-302.808105 231.458389 -8.848400 0.000000
-289.324799 231.458389 -8.848400 0.000000
-275.841492 231.458389 -8.848400 0.000000
-262.358185 231.458389 -8.848400 0.000000
-248.874893 231.458389 -8.848400 0.000000
-235.391602 231.458389 -8.848400 0.000000
-221.908295 231.458389 -8.848400 0.000000
-208.424988 231.458389 -8.848400 0.000000
-194.941696 231.458389 -8.848400 0.000000
-181.458389 231.458389 -8.848400 0.000000
-167.975098 231.458389 -8.848400 0.000000
-154.491791 231.458389 -8.848400 0.000000
-141.008499 231.458389 -8.848400 4.526120
-127.525192 231.458389 -8.848400 4.390965
-114.041885 231.458389 -8.848400 4.290410
-100.558594 231.458389 -8.848400 4.451365
-87.075287 231.458389 -8.848400 4.659781
-73.591980 231.458389 -8.848400 4.996248
-60.108704 231.458389 -8.848400 5.340600
-46.625397 231.458389 -8.848400 5.481405
-33.142090 231.458389 -8.848400 5.576029
-19.658783 231.458389 -8.848400 6.230603
-6.175476 231.458389 -8.848400 5.600818
7.307800 231.458389 -8.848400 5.196221
20.791107 231.458389 -8.848400 5.233520
34.274414 231.458389 -8.848400 6.139325
47.757721 231.458389 -8.848400 6.664789
61.240997 231.458389 -8.848400 7.373337
74.724304 231.458389 -8.848400 7.725890
88.207611 231.458389 -8.848400 7.056034
101.690918 231.458389 -8.848400 6.731404
115.174225 231.458389 -8.848400 5.677544
128.657501 231.458389 -8.848400 4.996187
142.140808 231.458389 -8.848400 4.484387
155.624115 231.458389 -8.848400 3.758746
169.107422 231.458389 -8.848400 3.802916
182.590698 231.458389 -8.848400 0.000000
196.074036 231.458389 -8.848400 0.000000
209.557312 231.458389 -8.848400 0.000000
223.040588 231.458389 -8.848400 0.000000
236.523926 231.458389 -8.848400 0.000000
250.007202 231.458389 -8.848400 0.000000
263.490540 231.458389 -8.848400 0.000000
276.973816 231.458389 -8.848400 0.000000
290.457092 231.458389 -8.848400 0.000000
303.940430 231.458389 -8.848400 0.000000
317.423706 231.458389 -8.848400 0.000000
330.907043 231.458389 -8.848400 0.000000
344.390320 231.458389 -8.848400 0.000000
-343.257996 217.975098 -8.848400 0.000000
-329.774689 217.975098 -8.848400 0.000000
-316.291382 217.975098 -8.848400 0.000000
-302.808105 217.975098 -8.848400 0.000000
-289.324799 217.975098 -8.848400 0.000000
-275.841492 217.975098 -8.848400 0.000000
-262.358185 217.975098 -8.848400 0.000000
-248.874893 217.975098 -8.848400 0.000000
-235.391602 217.975098 -8.848400 0.000000
-221.908295 217.975098 -8.848400 0.000000
-208.424988 217.975098 -8.848400 0.000000
-194.941696 217.975098 -8.848400 0.000000
-181.458389 217.975098 -8.848400 0.000000
-167.975098 217.975098 -8.848400 0.000000
-154.491791 217.975098 -8.848400 4.046075
-141.008499 217.975098 -8.848400 4.240472
-127.525192 217.975098 -8.848400 4.159758
-114.041885 217.975098 -8.848400 4.254493
-100.558594 217.975098 -8.848400 4.351502
-87.075287 217.975098 -8.848400 4.363585
-73.591980 217.975098 -8.848400 4.524083
-60.108704 217.975098 -8.848400 5.051392
-46.625397 217.975098 -8.848400 5.376410
-33.142090 217.975098 -8.848400 5.510189
-19.658783 217.975098 -8.848400 5.952946
-6.175476 217.975098 -8.848400 5.829172
7.307800 217.975098 -8.848400 5.657282
20.791107 217.975098 -8.848400 5.851878
34.274414 217.975098 -8.848400 6.675314
47.757721 217.975098 -8.848400 7.386579
61.240997 217.975098 -8.848400 7.731056
74.724304 217.975098 -8.848400 7.055741
88.207611 217.975098 -8.848400 6.216563
101.690918 217.975098 -8.848400 5.587281
115.174225 217.975098 -8.848400 5.070288
128.657501 217.975098 -8.848400 4.294037
142.140808 217.975098 -8.848400 3.885473
155.624115 217.975098 -8.848400 3.605649
169.107422 217.975098 -8.848400 3.477837
182.590698 217.975098 -8.848400 0.000000
196.074036 217.975098 -8.848400 0.000000
209.557312 217.975098 -8.848400 0.000000
223.040588 217.975098 -8.848400 0.000000
236.523926 217.975098 -8.848400 0.000000
250.007202 217.975098 -8.848400 0.000000
263.490540 217.975098 -8.848400 0.000000
276.973816 217.975098 -8.848400 0.000000
290.457092 217.975098 -8.848400 0.000000
303.940430 217.975098 -8.848400 0.000000
317.423706 217.975098 -8.848400 0.000000
330.907043 217.975098 -8.848400 0.000000
344.390320 217.975098 -8.848400 0.000000
-343.257996 204.491791 -8.848400 0.000000
-329.774689 204.491791 -8.848400 0.000000
-316.291382 204.491791 -8.848400 0.000000
-302.808105 204.491791 -8.848400 0.000000
-289.324799 204.491791 -8.848400 0.000000
-275.841492 204.491791 -8.848400 0.000000
-262.358185 204.491791 -8.848400 0.000000
-248.874893 204.491791 -8.848400 0.000000
-235.391602 204.491791 -8.848400 0.000000
-221.908295 204.491791 -8.848400 0.000000
-208.424988 204.491791 -8.848400 0.000000
-194.941696 204.491791 -8.848400 0.000000
-181.458389 204.491791 -8.848400 0.000000
-167.975098 204.491791 -8.848400 0.000000
-154.491791 204.491791 -8.848400 4.186929
-141.008499 204.491791 -8.848400 4.151522
-127.525192 204.491791 -8.848400 4.316468
-114.041885 204.491791 -8.848400 4.117767
-100.558594 204.491791 -8.848400 4.001618
-87.075287 204.491791 -8.848400 4.142647
-73.591980 204.491791 -8.848400 4.174629
-60.108704 204.491791 -8.848400 4.499331
-46.625397 204.491791 -8.848400 5.137846
-33.142090 204.491791 -8.848400 5.535447
-19.658783 204.491791 -8.848400 5.484269
-6.175476 204.491791 -8.848400 5.531834
7.307800 204.491791 -8.848400 5.700106
20.791107 204.491791 -8.848400 6.208245
34.274414 204.491791 -8.848400 7.197854
47.757721 204.491791 -8.848400 7.538251
61.240997 204.491791 -8.848400 7.307754
74.724304 204.491791 -8.848400 6.378432
88.207611 204.491791 -8.848400 5.663479
101.690918 204.491791 -8.848400 4.745852
115.174225 204.491791 -8.848400 4.139618
128.657501 204.491791 -8.848400 3.493073
142.140808 204.491791 -8.848400 3.476655
155.624115 204.491791 -8.848400 3.314809
169.107422 204.491791 -8.848400 3.143955
182.590698 204.491791 -8.848400 0.000000
196.074036 204.491791 -8.848400 0.000000
209.557312 204.491791 -8.848400 0.000000
223.040588 204.491791 -8.848400 0.000000
236.523926 204.491791 -8.848400 0.000000
250.007202 204.491791 -8.848400 0.000000
263.490540 204.491791 -8.848400 0.000000
276.973816 204.491791 -8.848400 0.000000
290.457092 204.491791 -8.848400 0.000000
303.940430 204.491791 -8.848400 0.000000
317.423706 204.491791 -8.848400 0.000000
330.907043 204.491791 -8.848400 0.000000
344.390320 204.491791 -8.848400 0.000000
-343.257996 191.008499 -8.848400 0.000000
-329.774689 191.008499 -8.848400 0.000000
-316.291382 191.008499 -8.848400 0.000000
-302.808105 191.008499 -8.848400 0.000000
-289.324799 191.008499 -8.848400 0.000000
-275.841492 191.008499 -8.848400 0.000000
-262.358185 191.008499 -8.848400 0.000000
-248.874893 191.008499 -8.848400 0.000000
-235.391602 191.008499 -8.848400 0.000000
-221.908295 191.008499 -8.848400 0.000000
-208.424988 191.008499 -8.848400 0.000000
-194.941696 191.008499 -8.848400 0.000000
-181.458389 191.008499 -8.848400 0.000000
-167.975098 191.008499 -8.848400 0.000000
-154.491791 191.008499 -8.848400 4.035388
-141.008499 191.008499 -8.848400 4.161853
-127.525192 191.008499 -8.848400 4.086597
-114.041885 191.008499 -8.848400 3.954307
-100.558594 191.008499 -8.848400 3.849102
-87.075287 191.008499 -8.848400 3.898783
-73.591980 191.008499 -8.848400 3.970272
-60.108704 191.008499 -8.848400 4.373879
-46.625397 191.008499 -8.848400 5.007640
-33.142090 191.008499 -8.848400 5.173279
-19.658783 191.008499 -8.848400 5.151284
-6.175476 191.008499 -8.848400 5.342956
7.307800 191.008499 -8.848400 5.603844
20.791107 191.008499 -8.848400 5.851665
34.274414 191.008499 -8.848400 6.548011
47.757721 191.008499 -8.848400 7.231213
61.240997 191.008499 -8.848400 6.734195
74.724304 191.008499 -8.848400 5.989871
88.207611 191.008499 -8.848400 4.934815
101.690918 191.008499 -8.848400 4.287695
115.174225 191.008499 -8.848400 3.650858
128.657501 191.008499 -8.848400 3.345798
142.140808 191.008499 -8.848400 3.146112
155.624115 191.008499 -8.848400 3.109467
169.107422 191.008499 -8.848400 0.000000
182.590698 191.008499 -8.848400 0.000000
196.074036 191.008499 -8.848400 0.000000
209.557312 191.008499 -8.848400 0.000000
223.040588 191.008499 -8.848400 0.000000
236.523926 191.008499 -8.848400 0.000000
250.007202 191.008499 -8.848400 0.000000
263.490540 191.008499 -8.848400 0.000000
276.973816 191.008499 -8.848400 0.000000
290.457092 191.008499 -8.848400 0.000000
303.940430 191.008499 -8.848400 0.000000
317.423706 191.008499 -8.848400 0.000000
330.907043 191.008499 -8.848400 0.000000
344.390320 191.008499 -8.848400 0.000000
-343.257996 177.525192 -8.848400 0.000000
-329.774689 177.525192 -8.848400 0.000000
-316.291382 177.525192 -8.848400 0.000000
-302.808105 177.525192 -8.848400 0.000000
-289.324799 177.525192 -8.848400 0.000000
-275.841492 177.525192 -8.848400 0.000000
-262.358185 177.525192 -8.848400 0.000000
-248.874893 177.525192 -8.848400 0.000000
-235.391602 177.525192 -8.848400 0.000000
-221.908295 177.525192 -8.848400 0.000000
-208.424988 177.525192 -8.848400 0.000000
-194.941696 177.525192 -8.848400 0.000000
-181.458389 177.525192 -8.848400 0.000000
-167.975098 177.525192 -8.848400 0.000000
-154.491791 177.525192 -8.848400 3.720286
-141.008499 177.525192 -8.848400 3.961424
-127.525192 177.525192 -8.848400 4.092105
-114.041885 177.525192 -8.848400 3.651201
-100.558594 177.525192 -8.848400 3.703178
-87.075287 177.525192 -8.848400 3.555253
-73.591980 177.525192 -8.848400 4.067050
-60.108704 177.525192 -8.848400 4.308690
-46.625397 177.525192 -8.848400 4.454165
-33.142090 177.525192 -8.848400 4.852013
-19.658783 177.525192 -8.848400 5.174643
-6.175476 177.525192 -8.848400 5.184513
7.307800 177.525192 -8.848400 5.212588
20.791107 177.525192 -8.848400 5.577377
34.274414 177.525192 -8.848400 6.099841
47.757721 177.525192 -8.848400 6.234203
61.240997 177.525192 -8.848400 6.046067
74.724304 177.525192 -8.848400 5.392937
88.207611 177.525192 -8.848400 4.527517
101.690918 177.525192 -8.848400 3.813496
115.174225 177.525192 -8.848400 3.411532
128.657501 177.525192 -8.848400 2.894949
142.140808 177.525192 -8.848400 2.786695
155.624115 177.525192 -8.848400 0.000000
169.107422 177.525192 -8.848400 0.000000
182.590698 177.525192 -8.848400 0.000000
196.074036 177.525192 -8.848400 0.000000
209.557312 177.525192 -8.848400 0.000000
223.040588 177.525192 -8.848400 0.000000
236.523926 177.525192 -8.848400 0.000000
250.007202 177.525192 -8.848400 0.000000
263.490540 177.525192 -8.848400 0.000000
276.973816 177.525192 -8.848400 0.000000
290.457092 177.525192 -8.848400 0.000000
303.940430 177.525192 -8.848400 0.000000
317.423706 177.525192 -8.848400 0.000000
330.907043 177.525192 -8.848400 0.000000
344.390320 177.525192 -8.848400 0.000000
-343.257996 164.041885 -8.848400 0.000000
-329.774689 164.041885 -8.848400 0.000000
-316.291382 164.041885 -8.848400 0.000000
-302.808105 164.041885 -8.848400 0.000000
-289.324799 164.041885 -8.848400 0.000000
-275.841492 164.041885 -8.848400 0.000000
-262.358185 164.041885 -8.848400 0.000000
-248.874893 164.041885 -8.848400 0.000000
-235.391602 164.041885 -8.848400 0.000000
-221.908295 164.041885 -8.848400 0.000000
-208.424988 164.041885 -8.848400 0.000000
-194.941696 164.041885 -8.848400 0.000000
-181.458389 164.041885 -8.848400 0.000000
-167.975098 164.041885 -8.848400 0.000000
-154.491791 164.041885 -8.848400 3.886611
-141.008499 164.041885 -8.848400 3.940330
-127.525192 164.041885 -8.848400 4.060955
-114.041885 164.041885 -8.848400 3.967728
-100.558594 164.041885 -8.848400 3.550690
-87.075287 164.041885 -8.848400 3.590337
-73.591980 164.041885 -8.848400 3.828951
-60.108704 164.041885 -8.848400 4.171416
-46.625397 164.041885 -8.848400 4.450070
-33.142090 164.041885 -8.848400 4.370467
-19.658783 164.041885 -8.848400 4.677888
-6.175476 164.041885 -8.848400 4.601609
7.307800 164.041885 -8.848400 5.312191
20.791107 164.041885 -8.848400 5.473772
34.274414 164.041885 -8.848400 5.268306
47.757721 164.041885 -8.848400 5.615829
61.240997 164.041885 -8.848400 5.703680
74.724304 164.041885 -8.848400 5.256239
88.207611 164.041885 -8.848400 4.449244
101.690918 164.041885 -8.848400 3.465598
115.174225 164.041885 -8.848400 3.568501
128.657501 164.041885 -8.848400 0.000000
142.140808 164.041885 -8.848400 0.000000
155.624115 164.041885 -8.848400 0.000000
169.107422 164.041885 -8.848400 0.000000
182.590698 164.041885 -8.848400 0.000000
196.074036 164.041885 -8.848400 0.000000
209.557312 164.041885 -8.848400 0.000000
223.040588 164.041885 -8.848400 0.000000
236.523926 164.041885 -8.848400 0.000000
250.007202 164.041885 -8.848400 0.000000
263.490540 164.041885 -8.848400 0.000000
276.973816 164.041885 -8.848400 0.000000
290.457092 164.041885 -8.848400 0.000000
303.940430 164.041885 -8.848400 0.000000
317.423706 164.041885 -8.848400 0.000000
330.907043 164.041885 -8.848400 0.000000
344.390320 164.041885 -8.848400 0.000000
-343.257996 150.558594 -8.848400 0.000000
-329.774689 150.558594 -8.848400 0.000000
-316.291382 150.558594 -8.848400 0.000000
-302.808105 150.558594 -8.848400 0.000000
-289.324799 150.558594 -8.848400 0.000000
-275.841492 150.558594 -8.848400 0.000000
-262.358185 150.558594 -8.848400 0.000000
-248.874893 150.558594 -8.848400 0.000000
-235.391602 150.558594 -8.848400 0.000000
-221.908295 150.558594 -8.848400 0.000000
-208.424988 150.558594 -8.848400 0.000000
-194.941696 150.558594 -8.848400 0.000000
-181.458389 150.558594 -8.848400 0.000000
-167.975098 150.558594 -8.848400 0.000000
-154.491791 150.558594 -8.848400 4.529768
-141.008499 150.558594 -8.848400 4.180298
-127.525192 150.558594 -8.848400 4.309718
-114.041885 150.558594 -8.848400 4.139591
-100.558594 150.558594 -8.848400 3.969545
-87.075287 150.558594 -8.848400 4.111985
-73.591980 150.558594 -8.848400 4.299886
-60.108704 150.558594 -8.848400 4.376238
-46.625397 150.558594 -8.848400 4.380857
-33.142090 150.558594 -8.848400 4.345549
-19.658783 150.558594 -8.848400 4.483591
-6.175476 150.558594 -8.848400 4.564371
7.307800 150.558594 -8.848400 5.361607
20.791107 150.558594 -8.848400 5.265766
34.274414 150.558594 -8.848400 5.755766
47.757721 150.558594 -8.848400 5.760437
61.240997 150.558594 -8.848400 5.741528
74.724304 150.558594 -8.848400 4.994385
88.207611 150.558594 -8.848400 4.271159
101.690918 150.558594 -8.848400 3.806010
115.174225 150.558594 -8.848400 0.000000
128.657501 150.558594 -8.848400 0.000000
142.140808 150.558594 -8.848400 0.000000
155.624115 150.558594 -8.848400 0.000000
169.107422 150.558594 -8.848400 0.000000
182.590698 150.558594 -8.848400 0.000000
196.074036 150.558594 -8.848400 0.000000
209.557312 150.558594 -8.848400 0.000000
223.040588 150.558594 -8.848400 0.000000
236.523926 150.558594 -8.848400 0.000000
250.007202 150.558594 -8.848400 0.000000
263.490540 150.558594 -8.848400 0.000000
276.973816 150.558594 -8.848400 0.000000
290.457092 150.558594 -8.848400 0.000000
303.940430 150.558594 -8.848400 0.000000
317.423706 150.558594 -8.848400 0.000000
330.907043 150.558594 -8.848400 0.000000
344.390320 150.558594 -8.848400 0.000000
-343.257996 137.075287 -8.848400 0.000000
-329.774689 137.075287 -8.848400 0.000000
-316.291382 137.075287 -8.848400 0.000000
-302.808105 137.075287 -8.848400 0.000000
-289.324799 137.075287 -8.848400 0.000000
-275.841492 137.075287 -8.848400 0.000000
-262.358185 137.075287 -8.848400 0.000000
-248.874893 137.075287 -8.848400 0.000000
-235.391602 137.075287 -8.848400 0.000000
-221.908295 137.075287 -8.848400 0.000000
-208.424988 137.075287 -8.848400 0.000000
-194.941696 137.075287 -8.848400 0.000000
-181.458389 137.075287 -8.848400 0.000000
-167.975098 137.075287 -8.848400 0.000000
-154.491791 137.075287 -8.848400 4.430893
-141.008499 137.075287 -8.848400 4.225691
-127.525192 137.075287 -8.848400 4.238976
-114.041885 137.075287 -8.848400 3.990744
-100.558594 137.075287 -8.848400 3.902163
-87.075287 137.075287 -8.848400 4.125799
-73.591980 137.075287 -8.848400 4.488009
-60.108704 137.075287 -8.848400 4.769483
-46.625397 137.075287 -8.848400 4.635278
-33.142090 137.075287 -8.848400 4.554410
-19.658783 137.075287 -8.848400 4.443146
-6.175476 137.075287 -8.848400 4.454112
7.307800 137.075287 -8.848400 4.728907
20.791107 137.075287 -8.848400 5.306063
34.274414 137.075287 -8.848400 6.184321
47.757721 137.075287 -8.848400 6.190835
61.240997 137.075287 -8.848400 5.697594
74.724304 137.075287 -8.848400 5.089928
88.207611 137.075287 -8.848400 4.526505
101.690918 137.075287 -8.848400 0.000000
115.174225 137.075287 -8.848400 0.000000
128.657501 137.075287 -8.848400 0.000000
142.140808 137.075287 -8.848400 0.000000
155.624115 137.075287 -8.848400 0.000000
169.107422 137.075287 -8.848400 0.000000
182.590698 137.075287 -8.848400 0.000000
196.074036 137.075287 -8.848400 0.000000
209.557312 137.075287 -8.848400 0.000000
223.040588 137.075287 -8.848400 0.000000
236.523926 137.075287 -8.848400 0.000000
250.007202 137.075287 -8.848400 0.000000
263.490540 137.075287 -8.848400 0.000000
276.973816 137.075287 -8.848400 0.000000
290.457092 137.075287 -8.848400 0.000000
303.940430 137.075287 -8.848400 0.000000
317.423706 137.075287 -8.848400 0.000000
330.907043 137.075287 -8.848400 0.000000
344.390320 137.075287 -8.848400 0.000000
-343.257996 123.591980 -8.848400 0.000000
-329.774689 123.591980 -8.848400 0.000000
-316.291382 123.591980 -8.848400 0.000000
-302.808105 123.591980 -8.848400 0.000000
-289.324799 123.591980 -8.848400 0.000000
-275.841492 123.591980 -8.848400 0.000000
-262.358185 123.591980 -8.848400 0.000000
-248.874893 123.591980 -8.848400 0.000000
-235.391602 123.591980 -8.848400 0.000000
-221.908295 123.591980 -8.848400 0.000000
-208.424988 123.591980 -8.848400 0.000000
-194.941696 123.591980 -8.848400 0.000000
-181.458389 123.591980 -8.848400 0.000000
-167.975098 123.591980 -8.848400 0.000000
-154.491791 123.591980 -8.848400 4.829030
-141.008499 123.591980 -8.848400 4.711953
-127.525192 123.591980 -8.848400 4.156298
-114.041885 123.591980 -8.848400 3.653291
-100.558594 123.591980 -8.848400 3.948370
-87.075287 123.591980 -8.848400 4.147617
-73.591980 123.591980 -8.848400 4.479535
-60.108704 123.591980 -8.848400 4.925685
-46.625397 123.591980 -8.848400 4.540955
-33.142090 123.591980 -8.848400 4.361188
-19.658783 123.591980 -8.848400 4.466997
-6.175476 123.591980 -8.848400 4.506536
7.307800 123.591980 -8.848400 4.898908
20.791107 123.591980 -8.848400 5.417872
34.274414 123.591980 -8.848400 5.995493
47.757721 123.591980 -8.848400 5.954983
61.240997 123.591980 -8.848400 6.097025
74.724304 123.591980 -8.848400 5.298785
88.207611 123.591980 -8.848400 4.611339
101.690918 123.591980 -8.848400 0.000000
115.174225 123.591980 -8.848400 0.000000
128.657501 123.591980 -8.848400 0.000000
142.140808 123.591980 -8.848400 0.000000
155.624115 123.591980 -8.848400 0.000000
169.107422 123.591980 -8.848400 0.000000
182.590698 123.591980 -8.848400 0.000000
196.074036 123.591980 -8.848400 0.000000
209.557312 123.591980 -8.848400 0.000000
223.040588 123.591980 -8.848400 0.000000
236.523926 123.591980 -8.848400 0.000000
250.007202 123.591980 -8.848400 0.000000
263.490540 123.591980 -8.848400 0.000000
276.973816 123.591980 -8.848400 0.000000
290.457092 123.591980 -8.848400 0.000000
303.940430 123.591980 -8.848400 0.000000
317.423706 123.591980 -8.848400 0.000000
330.907043 123.591980 -8.848400 0.000000
344.390320 123.591980 -8.848400 0.000000
-343.257996 110.108704 -8.848400 0.000000
-329.774689 110.108704 -8.848400 0.000000
-316.291382 110.108704 -8.848400 0.000000
-302.808105 110.108704 -8.848400 0.000000
-289.324799 110.108704 -8.848400 0.000000
-275.841492 110.108704 -8.848400 0.000000
-262.358185 110.108704 -8.848400 0.000000
-248.874893 110.108704 -8.848400 0.000000
-235.391602 110.108704 -8.848400 0.000000
-221.908295 110.108704 -8.848400 0.000000
-208.424988 110.108704 -8.848400 0.000000
-194.941696 110.108704 -8.848400 0.000000
-181.458389 110.108704 -8.848400 0.000000
-167.975098 110.108704 -8.848400 0.000000
-154.491791 110.108704 -8.848400 5.371957
-141.008499 110.108704 -8.848400 4.876502
-127.525192 110.108704 -8.848400 4.491667
-114.041885 110.108704 -8.848400 4.305229
-100.558594 110.108704 -8.848400 4.699554
-87.075287 110.108704 -8.848400 4.593902
-73.591980 110.108704 -8.848400 4.862901
-60.108704 110.108704 -8.848400 4.818816
-46.625397 110.108704 -8.848400 4.646969
-33.142090 110.108704 -8.848400 4.819359
-19.658783 110.108704 -8.848400 4.717273
-6.175476 110.108704 -8.848400 4.695277
7.307800 110.108704 -8.848400 5.313354
20.791107 110.108704 -8.848400 5.713868
34.274414 110.108704 -8.848400 6.322653
47.757721 110.108704 -8.848400 6.826008
61.240997 110.108704 -8.848400 6.651414
74.724304 110.108704 -8.848400 5.573605
88.207611 110.108704 -8.848400 4.685028
101.690918 110.108704 -8.848400 0.000000
115.174225 110.108704 -8.848400 0.000000
128.657501 110.108704 -8.848400 0.000000
142.140808 110.108704 -8.848400 0.000000
155.624115 110.108704 -8.848400 0.000000
169.107422 110.108704 -8.848400 0.000000
182.590698 110.108704 -8.848400 0.000000
196.074036 110.108704 -8.848400 0.000000
209.557312 110.108704 -8.848400 0.000000
223.040588 110.108704 -8.848400 0.000000
236.523926 110.108704 -8.848400 0.000000
250.007202 110.108704 -8.848400 0.000000
263.490540 110.108704 -8.848400 0.000000
276.973816 110.108704 -8.848400 0.000000
290.457092 110.108704 -8.848400 0.000000
303.940430 110.108704 -8.848400 0.000000
317.423706 110.108704 -8.848400 0.000000
330.907043 110.108704 -8.848400 0.000000
344.390320 110.108704 -8.848400 0.000000
-343.257996 96.625397 -8.848400 0.000000
-329.774689 96.625397 -8.848400 0.000000
-316.291382 96.625397 -8.848400 0.000000
-302.808105 96.625397 -8.848400 0.000000
-289.324799 96.625397 -8.848400 0.000000
-275.841492 96.625397 -8.848400 0.000000
-262.358185 96.625397 -8.848400 0.000000
-248.874893 96.625397 -8.848400 0.000000
-235.391602 96.625397 -8.848400 0.000000
-221.908295 96.625397 -8.848400 0.000000
-208.424988 96.625397 -8.848400 0.000000
-194.941696 96.625397 -8.848400 0.000000
-181.458389 96.625397 -8.848400 0.000000
-167.975098 96.625397 -8.848400 0.000000
-154.491791 96.625397 -8.848400 5.482985
-141.008499 96.625397 -8.848400 5.055193
-127.525192 96.625397 -8.848400 4.834518
-114.041885 96.625397 -8.848400 4.897504
-100.558594 96.625397 -8.848400 4.997037
-87.075287 96.625397 -8.848400 5.338428
-73.591980 96.625397 -8.848400 5.350161
-60.108704 96.625397 -8.848400 5.363739
-46.625397 96.625397 -8.848400 5.269056
-33.142090 96.625397 -8.848400 4.670549
-19.658783 96.625397 -8.848400 4.587888
-6.175476 96.625397 -8.848400 4.778001
7.307800 96.625397 -8.848400 4.845281
20.791107 96.625397 -8.848400 5.667659
34.274414 96.625397 -8.848400 6.913779
47.757721 96.625397 -8.848400 7.047624
61.240997 96.625397 -8.848400 6.654430
74.724304 96.625397 -8.848400 5.855751
88.207611 96.625397 -8.848400 5.273670
101.690918 96.625397 -8.848400 0.000000
115.174225 96.625397 -8.848400 0.000000
128.657501 96.625397 -8.848400 0.000000
142.140808 96.625397 -8.848400 0.000000
155.624115 96.625397 -8.848400 0.000000
169.107422 96.625397 -8.848400 0.000000
182.590698 96.625397 -8.848400 0.000000
196.074036 96.625397 -8.848400 0.000000
209.557312 96.625397 -8.848400 0.000000
223.040588 96.625397 -8.848400 0.000000
236.523926 96.625397 -8.848400 0.000000
250.007202 96.625397 -8.848400 0.000000
263.490540 96.625397 -8.848400 0.000000
276.973816 96.625397 -8.848400 0.000000
290.457092 96.625397 -8.848400 0.000000
303.940430 96.625397 -8.848400 0.000000
317.423706 96.625397 -8.848400 0.000000
330.907043 96.625397 -8.848400 0.000000
344.390320 96.625397 -8.848400 0.000000
-343.257996 83.142090 -8.848400 0.000000
-329.774689 83.142090 -8.848400 0.000000
-316.291382 83.142090 -8.848400 0.000000
-302.808105 83.142090 -8.848400 0.000000
-289.324799 83.142090 -8.848400 0.000000
-275.841492 83.142090 -8.848400 0.000000
-262.358185 83.142090 -8.848400 0.000000
-248.874893 83.142090 -8.848400 0.000000
-235.391602 83.142090 -8.848400 0.000000
-221.908295 83.142090 -8.848400 0.000000
-208.424988 83.142090 -8.848400 0.000000
-194.941696 83.142090 -8.848400 0.000000
-181.458389 83.142090 -8.848400 0.000000
-167.975098 83.142090 -8.848400 0.000000
-154.491791 83.142090 -8.848400 0.000000
-141.008499 83.142090 -8.848400 5.426743
-127.525192 83.142090 -8.848400 5.276086
-114.041885 83.142090 -8.848400 5.236108
-100.558594 83.142090 -8.848400 5.863896
-87.075287 83.142090 -8.848400 5.570673
-73.591980 83.142090 -8.848400 5.572267
-60.108704 83.142090 -8.848400 5.605355
-46.625397 83.142090 -8.848400 4.858933
-33.142090 83.142090 -8.848400 4.692915
-19.658783 83.142090 -8.848400 4.235482
-6.175476 83.142090 -8.848400 4.306827
7.307800 83.142090 -8.848400 5.048782
20.791107 83.142090 -8.848400 5.854465
34.274414 83.142090 -8.848400 6.272501
47.757721 83.142090 -8.848400 6.883025
61.240997 83.142090 -8.848400 6.174170
74.724304 83.142090 -8.848400 5.191707
88.207611 83.142090 -8.848400 4.841672
101.690918 83.142090 -8.848400 0.000000
115.174225 83.142090 -8.848400 0.000000
128.657501 83.142090 -8.848400 0.000000
142.140808 83.142090 -8.848400 0.000000
155.624115 83.142090 -8.848400 0.000000
169.107422 83.142090 -8.848400 0.000000
182.590698 83.142090 -8.848400 0.000000
196.074036 83.142090 -8.848400 0.000000
209.557312 83.142090 -8.848400 0.000000
223.040588 83.142090 -8.848400 0.000000
236.523926 83.142090 -8.848400 0.000000
250.007202 83.142090 -8.848400 0.000000
263.490540 83.142090 -8.848400 0.000000
276.973816 83.142090 -8.848400 0.000000
290.457092 83.142090 -8.848400 0.000000
303.940430 83.142090 -8.848400 0.000000
317.423706 83.142090 -8.848400 0.000000
330.907043 83.142090 -8.848400 0.000000
344.390320 83.142090 -8.848400 0.000000
-343.257996 69.658783 -8.848400 0.000000
-329.774689 69.658783 -8.848400 0.000000
-316.291382 69.658783 -8.848400 0.000000
-302.808105 69.658783 -8.848400 0.000000
-289.324799 69.658783 -8.848400 0.000000
-275.841492 69.658783 -8.848400 0.000000
-262.358185 69.658783 -8.848400 0.000000
-248.874893 69.658783 -8.848400 0.000000
-235.391602 69.658783 -8.848400 0.000000
-221.908295 69.658783 -8.848400 0.000000
-208.424988 69.658783 -8.848400 0.000000
-194.941696 69.658783 -8.848400 0.000000
-181.458389 69.658783 -8.848400 0.000000
-167.975098 69.658783 -8.848400 0.000000
-154.491791 69.658783 -8.848400 0.000000
-141.008499 69.658783 -8.848400 5.594037
-127.525192 69.658783 -8.848400 5.742990
-114.041885 69.658783 -8.848400 5.625638
-100.558594 69.658783 -8.848400 5.529336
-87.075287 69.658783 -8.848400 6.082281
-73.591980 69.658783 -8.848400 6.009927
-60.108704 69.658783 -8.848400 5.610669
-46.625397 69.658783 -8.848400 4.883918
-33.142090 69.658783 -8.848400 4.512301
-19.658783 69.658783 -8.848400 4.465396
-6.175476 69.658783 -8.848400 4.372430
7.307800 69.658783 -8.848400 5.085303
20.791107 69.658783 -8.848400 5.923064
34.274414 69.658783 -8.848400 6.095878
47.757721 69.658783 -8.848400 5.770299
61.240997 69.658783 -8.848400 5.552548
74.724304 69.658783 -8.848400 4.951891
88.207611 69.658783 -8.848400 4.183773
101.690918 69.658783 -8.848400 0.000000
115.174225 69.658783 -8.848400 0.000000
128.657501 69.658783 -8.848400 0.000000
142.140808 69.658783 -8.848400 0.000000
155.624115 69.658783 -8.848400 0.000000
169.107422 69.658783 -8.848400 0.000000
182.590698 69.658783 -8.848400 0.000000
196.074036 69.658783 -8.848400 0.000000
209.557312 69.658783 -8.848400 0.000000
223.040588 69.658783 -8.848400 0.000000
236.523926 69.658783 -8.848400 0.000000
250.007202 69.658783 -8.848400 0.000000
263.490540 69.658783 -8.848400 0.000000
276.973816 69.658783 -8.848400 0.000000
290.457092 69.658783 -8.848400 0.000000
303.940430 69.658783 -8.848400 0.000000
317.423706 69.658783 -8.848400 0.000000
330.907043 69.658783 -8.848400 0.000000
344.390320 69.658783 -8.848400 0.000000
-343.257996 56.175476 -8.848400 0.000000
-329.774689 56.175476 -8.848400 0.000000
-316.291382 56.175476 -8.848400 0.000000
-302.808105 56.175476 -8.848400 0.000000
-289.324799 56.175476 -8.848400 0.000000
-275.841492 56.175476 -8.848400 0.000000
-262.358185 56.175476 -8.848400 0.000000
-248.874893 56.175476 -8.848400 0.000000
-235.391602 56.175476 -8.848400 0.000000
-221.908295 56.175476 -8.848400 0.000000
-208.424988 56.175476 -8.848400 0.000000
-194.941696 56.175476 -8.848400 0.000000
-181.458389 56.175476 -8.848400 0.000000
-167.975098 56.175476 -8.848400 0.000000
-154.491791 56.175476 -8.848400 0.000000
-141.008499 56.175476 -8.848400 5.770575
-127.525192 56.175476 -8.848400 5.854902
-114.041885 56.175476 -8.848400 6.123672
-100.558594 56.175476 -8.848400 6.202706
-87.075287 56.175476 -8.848400 6.497509
-73.591980 56.175476 -8.848400 6.612061
-60.108704 56.175476 -8.848400 5.727366
-46.625397 56.175476 -8.848400 4.796550
-33.142090 56.175476 -8.848400 4.550128
-19.658783 56.175476 -8.848400 4.569735
-6.175476 56.175476 -8.848400 4.727746
7.307800 56.175476 -8.848400 5.134683
20.791107 56.175476 -8.848400 5.399666
34.274414 56.175476 -8.848400 5.772942
47.757721 56.175476 -8.848400 5.434204
61.240997 56.175476 -8.848400 4.714769
74.724304 56.175476 -8.848400 4.280819
88.207611 56.175476 -8.848400 4.057967
101.690918 56.175476 -8.848400 3.572260
115.174225 56.175476 -8.848400 0.000000
128.657501 56.175476 -8.848400 0.000000
142.140808 56.175476 -8.848400 0.000000
155.624115 56.175476 -8.848400 0.000000
169.107422 56.175476 -8.848400 0.000000
182.590698 56.175476 -8.848400 0.000000
196.074036 56.175476 -8.848400 0.000000
209.557312 56.175476 -8.848400 0.000000
223.040588 56.175476 -8.848400 0.000000
236.523926 56.175476 -8.848400 0.000000
250.007202 56.175476 -8.848400 0.000000
263.490540 56.175476 -8.848400 0.000000
276.973816 56.175476 -8.848400 0.000000
290.457092 56.175476 -8.848400 0.000000
303.940430 56.175476 -8.848400 0.000000
317.423706 56.175476 -8.848400 0.000000
330.907043 56.175476 -8.848400 0.000000
344.390320 56.175476 -8.848400 0.000000
-343.257996 42.692200 -8.848400 0.000000
-329.774689 42.692200 -8.848400 0.000000
-316.291382 42.692200 -8.848400 0.000000
-302.808105 42.692200 -8.848400 0.000000
-289.324799 42.692200 -8.848400 0.000000
-275.841492 42.692200 -8.848400 0.000000
-262.358185 42.692200 -8.848400 0.000000
-248.874893 42.692200 -8.848400 0.000000
-235.391602 42.692200 -8.848400 0.000000
-221.908295 42.692200 -8.848400 0.000000
-208.424988 42.692200 -8.848400 0.000000
-194.941696 42.692200 -8.848400 0.000000
-181.458389 42.692200 -8.848400 0.000000
-167.975098 42.692200 -8.848400 0.000000
-154.491791 42.692200 -8.848400 0.000000
-141.008499 42.692200 -8.848400 6.057544
-127.525192 42.692200 -8.848400 6.163362
-114.041885 42.692200 -8.848400 5.950600
-100.558594 42.692200 -8.848400 6.123330
-87.075287 42.692200 -8.848400 7.023754
-73.591980 42.692200 -8.848400 6.711268
-60.108704 42.692200 -8.848400 6.204876
-46.625397 42.692200 -8.848400 5.248603
-33.142090 42.692200 -8.848400 4.506759
-19.658783 42.692200 -8.848400 4.670664
-6.175476 42.692200 -8.848400 5.070511
7.307800 42.692200 -8.848400 5.186506
20.791107 42.692200 -8.848400 5.369451
34.274414 42.692200 -8.848400 5.400643
47.757721 42.692200 -8.848400 5.491347
61.240997 42.692200 -8.848400 4.731369
74.724304 42.692200 -8.848400 4.227285
88.207611 42.692200 -8.848400 4.220037
101.690918 42.692200 -8.848400 3.456001
115.174225 42.692200 -8.848400 0.000000
128.657501 42.692200 -8.848400 0.000000
142.140808 42.692200 -8.848400 0.000000
155.624115 42.692200 -8.848400 0.000000
169.107422 42.692200 -8.848400 0.000000
182.590698 42.692200 -8.848400 0.000000
196.074036 42.692200 -8.848400 0.000000
209.557312 42.692200 -8.848400 0.000000
223.040588 42.692200 -8.848400 0.000000
236.523926 42.692200 -8.848400 0.000000
250.007202 42.692200 -8.848400 0.000000
263.490540 42.692200 -8.848400 0.000000
276.973816 42.692200 -8.848400 0.000000
290.457092 42.692200 -8.848400 0.000000
303.940430 42.692200 -8.848400 0.000000
317.423706 42.692200 -8.848400 0.000000
330.907043 42.692200 -8.848400 0.000000
344.390320 42.692200 -8.848400 0.000000
-343.257996 29.208893 -8.848400 0.000000
-329.774689 29.208893 -8.848400 0.000000
-316.291382 29.208893 -8.848400 0.000000
-302.808105 29.208893 -8.848400 0.000000
-289.324799 29.208893 -8.848400 0.000000
-275.841492 29.208893 -8.848400 0.000000
-262.358185 29.208893 -8.848400 0.000000
-248.874893 29.208893 -8.848400 0.000000
-235.391602 29.208893 -8.848400 0.000000
-221.908295 29.208893 -8.848400 0.000000
-208.424988 29.208893 -8.848400 0.000000
-194.941696 29.208893 -8.848400 0.000000
-181.458389 29.208893 -8.848400 0.000000
-167.975098 29.208893 -8.848400 0.000000
-154.491791 29.208893 -8.848400 0.000000
-141.008499 29.208893 -8.848400 0.000000
-127.525192 29.208893 -8.848400 6.748138
-114.041885 29.208893 -8.848400 6.681598
-100.558594 29.208893 -8.848400 6.917012
-87.075287 29.208893 -8.848400 7.209785
-73.591980 29.208893 -8.848400 7.610717
-60.108704 29.208893 -8.848400 6.873700
-46.625397 29.208893 -8.848400 5.765348
-33.142090 29.208893 -8.848400 5.006061
-19.658783 29.208893 -8.848400 4.925770
-6.175476 29.208893 -8.848400 5.504034
7.307800 29.208893 -8.848400 5.235367
20.791107 29.208893 -8.848400 5.445083
34.274414 29.208893 -8.848400 5.403387
47.757721 29.208893 -8.848400 5.252835
61.240997 29.208893 -8.848400 4.960994
74.724304 29.208893 -8.848400 4.640889
88.207611 29.208893 -8.848400 3.870637
101.690918 29.208893 -8.848400 3.633758
115.174225 29.208893 -8.848400 3.619159
128.657501 29.208893 -8.848400 0.000000
142.140808 29.208893 -8.848400 0.000000
155.624115 29.208893 -8.848400 0.000000
169.107422 29.208893 -8.848400 0.000000
182.590698 29.208893 -8.848400 0.000000
196.074036 29.208893 -8.848400 0.000000
209.557312 29.208893 -8.848400 0.000000
223.040588 29.208893 -8.848400 0.000000
236.523926 29.208893 -8.848400 0.000000
250.007202 29.208893 -8.848400 0.000000
263.490540 29.208893 -8.848400 0.000000
276.973816 29.208893 -8.848400 0.000000
290.457092 29.208893 -8.848400 0.000000
303.940430 29.208893 -8.848400 0.000000
317.423706 29.208893 -8.848400 0.000000
330.907043 29.208893 -8.848400 0.000000
344.390320 29.208893 -8.848400 0.000000
-343.257996 15.725586 -8.848400 0.000000
-329.774689 15.725586 -8.848400 0.000000
-316.291382 15.725586 -8.848400 0.000000
-302.808105 15.725586 -8.848400 0.000000
-289.324799 15.725586 -8.848400 0.000000
-275.841492 15.725586 -8.848400 0.000000
-262.358185 15.725586 -8.848400 0.000000
-248.874893 15.725586 -8.848400 0.000000
-235.391602 15.725586 -8.848400 0.000000
-221.908295 15.725586 -8.848400 0.000000
-208.424988 15.725586 -8.848400 0.000000
-194.941696 15.725586 -8.848400 0.000000
-181.458389 15.725586 -8.848400 0.000000
-167.975098 15.725586 -8.848400 0.000000
-154.491791 15.725586 -8.848400 0.000000
-141.008499 15.725586 -8.848400 0.000000
-127.525192 15.725586 -8.848400 7.140209
-114.041885 15.725586 -8.848400 7.366168
-100.558594 15.725586 -8.848400 8.006495
-87.075287 15.725586 -8.848400 8.214793
-73.591980 15.725586 -8.848400 7.904974
-60.108704 15.725586 -8.848400 7.526135
-46.625397 15.725586 -8.848400 6.549562
-33.142090 15.725586 -8.848400 5.761919
-19.658783 15.725586 -8.848400 5.420355
-6.175476 15.725586 -8.848400 5.561740
7.307800 15.725586 -8.848400 5.350051
20.791107 15.725586 -8.848400 5.706508
34.274414 15.725586 -8.848400 5.334836
47.757721 15.725586 -8.848400 5.435951
61.240997 15.725586 -8.848400 5.240695
74.724304 15.725586 -8.848400 4.876390
88.207611 15.725586 -8.848400 4.376721
101.690918 15.725586 -8.848400 3.786182
115.174225 15.725586 -8.848400 3.432915
128.657501 15.725586 -8.848400 0.000000
142.140808 15.725586 -8.848400 0.000000
155.624115 15.725586 -8.848400 0.000000
169.107422 15.725586 -8.848400 0.000000
182.590698 15.725586 -8.848400 0.000000
196.074036 15.725586 -8.848400 0.000000
209.557312 15.725586 -8.848400 0.000000
223.040588 15.725586 -8.848400 0.000000
236.523926 15.725586 -8.848400 0.000000
250.007202 15.725586 -8.848400 0.000000
263.490540 15.725586 -8.848400 0.000000
276.973816 15.725586 -8.848400 0.000000
290.457092 15.725586 -8.848400 0.000000
303.940430 15.725586 -8.848400 0.000000
317.423706 15.725586 -8.848400 0.000000
330.907043 15.725586 -8.848400 0.000000
344.390320 15.725586 -8.848400 0.000000
-343.257996 2.242279 -8.848400 0.000000
-329.774689 2.242279 -8.848400 0.000000
-316.291382 2.242279 -8.848400 0.000000
-302.808105 2.242279 -8.848400 0.000000
-289.324799 2.242279 -8.848400 0.000000
-275.841492 2.242279 -8.848400 0.000000
-262.358185 2.242279 -8.848400 0.000000
-248.874893 2.242279 -8.848400 0.000000
-235.391602 2.242279 -8.848400 0.000000
-221.908295 2.242279 -8.848400 0.000000
-208.424988 2.242279 -8.848400 0.000000
-194.941696 2.242279 -8.848400 0.000000
-181.458389 2.242279 -8.848400 0.000000
-167.975098 2.242279 -8.848400 0.000000
-154.491791 2.242279 -8.848400 0.000000
-141.008499 2.242279 -8.848400 0.000000
-127.525192 2.242279 -8.848400 0.000000
-114.041885 2.242279 -8.848400 7.421862
-100.558594 2.242279 -8.848400 7.932837
-87.075287 2.242279 -8.848400 8.373967
-73.591980 2.242279 -8.848400 7.729520
-60.108704 2.242279 -8.848400 7.554100
-46.625397 2.242279 -8.848400 6.981871
-33.142090 2.242279 -8.848400 6.161358
-19.658783 2.242279 -8.848400 5.396483
-6.175476 2.242279 -8.848400 6.099681
7.307800 2.242279 -8.848400 5.802648
20.791107 2.242279 -8.848400 5.946604
34.274414 2.242279 -8.848400 5.539685
47.757721 2.242279 -8.848400 5.493418
61.240997 2.242279 -8.848400 5.400051
74.724304 2.242279 -8.848400 5.179499
88.207611 2.242279 -8.848400 4.532161
101.690918 2.242279 -8.848400 3.982378
115.174225 2.242279 -8.848400 3.672853
128.657501 2.242279 -8.848400 0.000000
142.140808 2.242279 -8.848400 0.000000
155.624115 2.242279 -8.848400 0.000000
169.107422 2.242279 -8.848400 0.000000
182.590698 2.242279 -8.848400 0.000000
196.074036 2.242279 -8.848400 0.000000
209.557312 2.242279 -8.848400 0.000000
223.040588 2.242279 -8.848400 0.000000
236.523926 2.242279 -8.848400 0.000000
250.007202 2.242279 -8.848400 0.000000
263.490540 2.242279 -8.848400 0.000000
276.973816 2.242279 -8.848400 0.000000
290.457092 2.242279 -8.848400 0.000000
303.940430 2.242279 -8.848400 0.000000
317.423706 2.242279 -8.848400 0.000000
330.907043 2.242279 -8.848400 0.000000
344.390320 2.242279 -8.848400 0.000000
-343.257996 -11.240997 -8.848400 0.000000
-329.774689 -11.240997 -8.848400 0.000000
-316.291382 -11.240997 -8.848400 0.000000
-302.808105 -11.240997 -8.848400 0.000000
-289.324799 -11.240997 -8.848400 0.000000
-275.841492 -11.240997 -8.848400 0.000000
-262.358185 -11.240997 -8.848400 0.000000
-248.874893 -11.240997 -8.848400 0.000000
-235.391602 -11.240997 -8.848400 0.000000
-221.908295 -11.240997 -8.848400 0.000000
-208.424988 -11.240997 -8.848400 0.000000
-194.941696 -11.240997 -8.848400 0.000000
-181.458389 -11.240997 -8.848400 0.000000
-167.975098 -11.240997 -8.848400 0.000000
-154.491791 -11.240997 -8.848400 0.000000
-141.008499 -11.240997 -8.848400 0.000000
-127.525192 -11.240997 -8.848400 0.000000
-114.041885 -11.240997 -8.848400 0.000000
-100.558594 -11.240997 -8.848400 8.184521
-87.075287 -11.240997 -8.848400 8.664466
-73.591980 -11.240997 -8.848400 8.139037
-60.108704 -11.240997 -8.848400 7.901010
-46.625397 -11.240997 -8.848400 7.280140
-33.142090 -11.240997 -8.848400 6.255101
-19.658783 -11.240997 -8.848400 5.924938
-6.175476 -11.240997 -8.848400 6.053108
7.307800 -11.240997 -8.848400 6.392685
20.791107 -11.240997 -8.848400 6.287247
34.274414 -11.240997 -8.848400 6.016751
47.757721 -11.240997 -8.848400 5.747462
61.240997 -11.240997 -8.848400 5.490228
74.724304 -11.240997 -8.848400 5.027714
88.207611 -11.240997 -8.848400 4.393628
101.690918 -11.240997 -8.848400 3.833894
115.174225 -11.240997 -8.848400 0.000000
128.657501 -11.240997 -8.848400 0.000000
142.140808 -11.240997 -8.848400 0.000000
155.624115 -11.240997 -8.848400 0.000000
169.107422 -11.240997 -8.848400 0.000000
182.590698 -11.240997 -8.848400 0.000000
196.074036 -11.240997 -8.848400 0.000000
209.557312 -11.240997 -8.848400 0.000000
223.040588 -11.240997 -8.848400 0.000000
236.523926 -11.240997 -8.848400 0.000000
250.007202 -11.240997 -8.848400 0.000000
263.490540 -11.240997 -8.848400 0.000000
276.973816 -11.240997 -8.848400 0.000000
290.457092 -11.240997 -8.848400 0.000000
303.940430 -11.240997 -8.848400 0.000000
317.423706 -11.240997 -8.848400 0.000000
330.907043 -11.240997 -8.848400 0.000000
344.390320 -11.240997 -8.848400 0.000000
-343.257996 -24.724304 -8.848400 0.000000
-329.774689 -24.724304 -8.848400 0.000000
-316.291382 -24.724304 -8.848400 0.000000
-302.808105 -24.724304 -8.848400 0.000000
-289.324799 -24.724304 -8.848400 0.000000
-275.841492 -24.724304 -8.848400 0.000000
-262.358185 -24.724304 -8.848400 0.000000
-248.874893 -24.724304 -8.848400 0.000000
-235.391602 -24.724304 -8.848400 0.000000
-221.908295 -24.724304 -8.848400 0.000000
-208.424988 -24.724304 -8.848400 0.000000
-194.941696 -24.724304 -8.848400 0.000000
-181.458389 -24.724304 -8.848400 0.000000
-167.975098 -24.724304 -8.848400 0.000000
-154.491791 -24.724304 -8.848400 0.000000
-141.008499 -24.724304 -8.848400 0.000000
-127.525192 -24.724304 -8.848400 0.000000
-114.041885 -24.724304 -8.848400 0.000000
-100.558594 -24.724304 -8.848400 8.267420
-87.075287 -24.724304 -8.848400 7.905650
-73.591980 -24.724304 -8.848400 8.055364
-60.108704 -24.724304 -8.848400 7.673527
-46.625397 -24.724304 -8.848400 7.136988
-33.142090 -24.724304 -8.848400 6.576991
-19.658783 -24.724304 -8.848400 6.317611
-6.175476 -24.724304 -8.848400 6.204955
7.307800 -24.724304 -8.848400 6.482033
20.791107 -24.724304 -8.848400 6.370347
34.274414 -24.724304 -8.848400 6.335332
47.757721 -24.724304 -8.848400 6.027170
61.240997 -24.724304 -8.848400 5.368420
74.724304 -24.724304 -8.848400 4.748542
88.207611 -24.724304 -8.848400 4.340499
101.690918 -24.724304 -8.848400 3.574087
115.174225 -24.724304 -8.848400 0.000000
128.657501 -24.724304 -8.848400 0.000000
142.140808 -24.724304 -8.848400 0.000000
155.624115 -24.724304 -8.848400 0.000000
169.107422 -24.724304 -8.848400 0.000000
182.590698 -24.724304 -8.848400 0.000000
196.074036 -24.724304 -8.848400 0.000000
209.557312 -24.724304 -8.848400 0.000000
223.040588 -24.724304 -8.848400 0.000000
236.523926 -24.724304 -8.848400 0.000000
250.007202 -24.724304 -8.848400 0.000000
263.490540 -24.724304 -8.848400 0.000000
276.973816 -24.724304 -8.848400 0.000000
290.457092 -24.724304 -8.848400 0.000000
303.940430 -24.724304 -8.848400 0.000000
317.423706 -24.724304 -8.848400 0.000000
330.907043 -24.724304 -8.848400 0.000000
344.390320 -24.724304 -8.848400 0.000000
-343.257996 -38.207611 -8.848400 0.000000
-329.774689 -38.207611 -8.848400 0.000000
-316.291382 -38.207611 -8.848400 0.000000
-302.808105 -38.207611 -8.848400 0.000000
-289.324799 -38.207611 -8.848400 0.000000
-275.841492 -38.207611 -8.848400 0.000000
-262.358185 -38.207611 -8.848400 0.000000
-248.874893 -38.207611 -8.848400 0.000000
-235.391602 -38.207611 -8.848400 0.000000
-221.908295 -38.207611 -8.848400 0.000000
-208.424988 -38.207611 -8.848400 0.000000
-194.941696 -38.207611 -8.848400 0.000000
-181.458389 -38.207611 -8.848400 0.000000
-167.975098 -38.207611 -8.848400 0.000000
-154.491791 -38.207611 -8.848400 0.000000
-141.008499 -38.207611 -8.848400 0.000000
-127.525192 -38.207611 -8.848400 0.000000
-114.041885 -38.207611 -8.848400 0.000000
-100.558594 -38.207611 -8.848400 7.740672
-87.075287 -38.207611 -8.848400 7.704733
-73.591980 -38.207611 -8.848400 7.615029
-60.108704 -38.207611 -8.848400 7.209602
-46.625397 -38.207611 -8.848400 7.154490
-33.142090 -38.207611 -8.848400 6.731462
-19.658783 -38.207611 -8.848400 6.526448
-6.175476 -38.207611 -8.848400 6.327018
7.307800 -38.207611 -8.848400 6.620319
20.791107 -38.207611 -8.848400 6.202989
34.274414 -38.207611 -8.848400 6.033566
47.757721 -38.207611 -8.848400 5.629423
61.240997 -38.207611 -8.848400 4.953396
74.724304 -38.207611 -8.848400 4.461271
88.207611 -38.207611 -8.848400 4.044877
101.690918 -38.207611 -8.848400 0.000000
115.174225 -38.207611 -8.848400 0.000000
128.657501 -38.207611 -8.848400 0.000000
142.140808 -38.207611 -8.848400 0.000000
155.624115 -38.207611 -8.848400 0.000000
169.107422 -38.207611 -8.848400 0.000000
182.590698 -38.207611 -8.848400 0.000000
196.074036 -38.207611 -8.848400 0.000000
209.557312 -38.207611 -8.848400 0.000000
223.040588 -38.207611 -8.848400 0.000000
236.523926 -38.207611 -8.848400 0.000000
250.007202 -38.207611 -8.848400 0.000000
263.490540 -38.207611 -8.848400 0.000000
276.973816 -38.207611 -8.848400 0.000000
290.457092 -38.207611 -8.848400 0.000000
303.940430 -38.207611 -8.848400 0.000000
317.423706 -38.207611 -8.848400 0.000000
330.907043 -38.207611 -8.848400 0.000000
344.390320 -38.207611 -8.848400 0.000000
-343.257996 -51.690918 -8.848400 0.000000
-329.774689 -51.690918 -8.848400 0.000000
-316.291382 -51.690918 -8.848400 0.000000
-302.808105 -51.690918 -8.848400 0.000000
-289.324799 -51.690918 -8.848400 0.000000
-275.841492 -51.690918 -8.848400 0.000000
-262.358185 -51.690918 -8.848400 0.000000
-248.874893 -51.690918 -8.848400 0.000000
-235.391602 -51.690918 -8.848400 0.000000
-221.908295 -51.690918 -8.848400 0.000000
-208.424988 -51.690918 -8.848400 0.000000
-194.941696 -51.690918 -8.848400 0.000000
-181.458389 -51.690918 -8.848400 0.000000
-167.975098 -51.690918 -8.848400 0.000000
-154.491791 -51.690918 -8.848400 0.000000
-141.008499 -51.690918 -8.848400 0.000000
-127.525192 -51.690918 -8.848400 0.000000
-114.041885 -51.690918 -8.848400 0.000000
-100.558594 -51.690918 -8.848400 0.000000
-87.075287 -51.690918 -8.848400 7.111505
-73.591980 -51.690918 -8.848400 6.754262
-60.108704 -51.690918 -8.848400 6.581863
-46.625397 -51.690918 -8.848400 6.857316
-33.142090 -51.690918 -8.848400 6.206964
-19.658783 -51.690918 -8.848400 5.839274
-6.175476 -51.690918 -8.848400 6.235059
7.307800 -51.690918 -8.848400 6.557183
20.791107 -51.690918 -8.848400 5.649532
34.274414 -51.690918 -8.848400 5.397298
47.757721 -51.690918 -8.848400 4.846778
61.240997 -51.690918 -8.848400 4.091044
74.724304 -51.690918 -8.848400 3.978160
88.207611 -51.690918 -8.848400 0.000000
101.690918 -51.690918 -8.848400 0.000000
115.174225 -51.690918 -8.848400 0.000000
128.657501 -51.690918 -8.848400 0.000000
142.140808 -51.690918 -8.848400 0.000000
155.624115 -51.690918 -8.848400 0.000000
169.107422 -51.690918 -8.848400 0.000000
182.590698 -51.690918 -8.848400 0.000000
196.074036 -51.690918 -8.848400 0.000000
209.557312 -51.690918 -8.848400 0.000000
223.040588 -51.690918 -8.848400 0.000000
236.523926 -51.690918 -8.848400 0.000000
250.007202 -51.690918 -8.848400 0.000000
263.490540 -51.690918 -8.848400 0.000000
276.973816 -51.690918 -8.848400 0.000000
290.457092 -51.690918 -8.848400 0.000000
303.940430 -51.690918 -8.848400 0.000000
317.423706 -51.690918 -8.848400 0.000000
330.907043 -51.690918 -8.848400 0.000000
344.390320 -51.690918 -8.848400 0.000000
-343.257996 -65.174225 -8.848400 0.000000
-329.774689 -65.174225 -8.848400 0.000000
-316.291382 -65.174225 -8.848400 0.000000
-302.808105 -65.174225 -8.848400 0.000000
-289.324799 -65.174225 -8.848400 0.000000
-275.841492 -65.174225 -8.848400 0.000000
-262.358185 -65.174225 -8.848400 0.000000
-248.874893 -65.174225 -8.848400 0.000000
-235.391602 -65.174225 -8.848400 0.000000
-221.908295 -65.174225 -8.848400 0.000000
-208.424988 -65.174225 -8.848400 0.000000
-194.941696 -65.174225 -8.848400 0.000000
-181.458389 -65.174225 -8.848400 0.000000
-167.975098 -65.174225 -8.848400 0.000000
-154.491791 -65.174225 -8.848400 0.000000
-141.008499 -65.174225 -8.848400 0.000000
-127.525192 -65.174225 -8.848400 0.000000
-114.041885 -65.174225 -8.848400 0.000000
-100.558594 -65.174225 -8.848400 0.000000
-87.075287 -65.174225 -8.848400 7.038249
-73.591980 -65.174225 -8.848400 6.579473
-60.108704 -65.174225 -8.848400 6.139590
-46.625397 -65.174225 -8.848400 5.959196
-33.142090 -65.174225 -8.848400 5.498871
-19.658783 -65.174225 -8.848400 5.215906
-6.175476 -65.174225 -8.848400 5.557483
7.307800 -65.174225 -8.848400 5.717023
20.791107 -65.174225 -8.848400 5.411417
34.274414 -65.174225 -8.848400 4.909704
47.757721 -65.174225 -8.848400 4.590164
61.240997 -65.174225 -8.848400 0.000000
74.724304 -65.174225 -8.848400 0.000000
88.207611 -65.174225 -8.848400 0.000000
101.690918 -65.174225 -8.848400 0.000000
115.174225 -65.174225 -8.848400 0.000000
128.657501 -65.174225 -8.848400 0.000000
142.140808 -65.174225 -8.848400 0.000000
155.624115 -65.174225 -8.848400 0.000000
169.107422 -65.174225 -8.848400 0.000000
182.590698 -65.174225 -8.848400 0.000000
196.074036 -65.174225 -8.848400 0.000000
209.557312 -65.174225 -8.848400 0.000000
223.040588 -65.174225 -8.848400 0.000000
236.523926 -65.174225 -8.848400 0.000000
250.007202 -65.174225 -8.848400 0.000000
263.490540 -65.174225 -8.848400 0.000000
276.973816 -65.174225 -8.848400 0.000000
290.457092 -65.174225 -8.848400 0.000000
303.940430 -65.174225 -8.848400 0.000000
317.423706 -65.174225 -8.848400 0.000000
330.907043 -65.174225 -8.848400 0.000000
344.390320 -65.174225 -8.848400 0.000000
-343.257996 -78.657501 -8.848400 0.000000
-329.774689 -78.657501 -8.848400 0.000000
-316.291382 -78.657501 -8.848400 0.000000
-302.808105 -78.657501 -8.848400 0.000000
-289.324799 -78.657501 -8.848400 0.000000
-275.841492 -78.657501 -8.848400 0.000000
-262.358185 -78.657501 -8.848400 0.000000
-248.874893 -78.657501 -8.848400 0.000000
-235.391602 -78.657501 -8.848400 0.000000
-221.908295 -78.657501 -8.848400 0.000000
-208.424988 -78.657501 -8.848400 0.000000
-194.941696 -78.657501 -8.848400 0.000000
-181.458389 -78.657501 -8.848400 0.000000
-167.975098 -78.657501 -8.848400 0.000000
-154.491791 -78.657501 -8.848400 0.000000
-141.008499 -78.657501 -8.848400 0.000000
-127.525192 -78.657501 -8.848400 0.000000
-114.041885 -78.657501 -8.848400 0.000000
-100.558594 -78.657501 -8.848400 0.000000
-87.075287 -78.657501 -8.848400 0.000000
-73.591980 -78.657501 -8.848400 6.867667
-60.108704 -78.657501 -8.848400 6.176975
-46.625397 -78.657501 -8.848400 5.647649
-33.142090 -78.657501 -8.848400 4.986019
-19.658783 -78.657501 -8.848400 4.737986
-6.175476 -78.657501 -8.848400 4.961035
7.307800 -78.657501 -8.848400 4.832734
20.791107 -78.657501 -8.848400 4.875000
34.274414 -78.657501 -8.848400 4.406758
47.757721 -78.657501 -8.848400 0.000000
61.240997 -78.657501 -8.848400 0.000000
74.724304 -78.657501 -8.848400 0.000000
88.207611 -78.657501 -8.848400 0.000000
101.690918 -78.657501 -8.848400 0.000000
115.174225 -78.657501 -8.848400 0.000000
128.657501 -78.657501 -8.848400 0.000000
142.140808 -78.657501 -8.848400 0.000000
155.624115 -78.657501 -8.848400 0.000000
169.107422 -78.657501 -8.848400 0.000000
182.590698 -78.657501 -8.848400 0.000000
196.074036 -78.657501 -8.848400 0.000000
209.557312 -78.657501 -8.848400 0.000000
223.040588 -78.657501 -8.848400 0.000000
236.523926 -78.657501 -8.848400 0.000000
250.007202 -78.657501 -8.848400 0.000000
263.490540 -78.657501 -8.848400 0.000000
276.973816 -78.657501 -8.848400 0.000000
290.457092 -78.657501 -8.848400 0.000000
303.940430 -78.657501 -8.848400 0.000000
317.423706 -78.657501 -8.848400 0.000000
330.907043 -78.657501 -8.848400 0.000000
344.390320 -78.657501 -8.848400 0.000000
-343.257996 -92.140808 -8.848400 0.000000
-329.774689 -92.140808 -8.848400 0.000000
-316.291382 -92.140808 -8.848400 0.000000
-302.808105 -92.140808 -8.848400 0.000000
-289.324799 -92.140808 -8.848400 0.000000
-275.841492 -92.140808 -8.848400 0.000000
-262.358185 -92.140808 -8.848400 0.000000
-248.874893 -92.140808 -8.848400 0.000000
-235.391602 -92.140808 -8.848400 0.000000
-221.908295 -92.140808 -8.848400 0.000000
-208.424988 -92.140808 -8.848400 0.000000
-194.941696 -92.140808 -8.848400 0.000000
-181.458389 -92.140808 -8.848400 0.000000
-167.975098 -92.140808 -8.848400 0.000000
-154.491791 -92.140808 -8.848400 0.000000
-141.008499 -92.140808 -8.848400 0.000000
-127.525192 -92.140808 -8.848400 0.000000
-114.041885 -92.140808 -8.848400 0.000000
-100.558594 -92.140808 -8.848400 0.000000
-87.075287 -92.140808 -8.848400 0.000000
-73.591980 -92.140808 -8.848400 7.368201
-60.108704 -92.140808 -8.848400 5.681181
-46.625397 -92.140808 -8.848400 5.156039
-33.142090 -92.140808 -8.848400 4.666349
-19.658783 -92.140808 -8.848400 4.198588
-6.175476 -92.140808 -8.848400 4.075152
7.307800 -92.140808 -8.848400 0.000000
20.791107 -92.140808 -8.848400 0.000000
34.274414 -92.140808 -8.848400 0.000000
47.757721 -92.140808 -8.848400 0.000000
61.240997 -92.140808 -8.848400 0.000000
74.724304 -92.140808 -8.848400 0.000000
88.207611 -92.140808 -8.848400 0.000000
101.690918 -92.140808 -8.848400 0.000000
115.174225 -92.140808 -8.848400 0.000000
128.657501 -92.140808 -8.848400 0.000000
142.140808 -92.140808 -8.848400 0.000000
155.624115 -92.140808 -8.848400 0.000000
169.107422 -92.140808 -8.848400 0.000000
182.590698 -92.140808 -8.848400 0.000000
196.074036 -92.140808 -8.848400 0.000000
209.557312 -92.140808 -8.848400 0.000000
223.040588 -92.140808 -8.848400 0.000000
236.523926 -92.140808 -8.848400 0.000000
250.007202 -92.140808 -8.848400 0.000000
263.490540 -92.140808 -8.848400 0.000000
276.973816 -92.140808 -8.848400 0.000000
290.457092 -92.140808 -8.848400 0.000000
303.940430 -92.140808 -8.848400 0.000000
317.423706 -92.140808 -8.848400 0.000000
330.907043 -92.140808 -8.848400 0.000000
344.390320 -92.140808 -8.848400 0.000000
-343.257996 -105.624115 -8.848400 0.000000
-329.774689 -105.624115 -8.848400 0.000000
-316.291382 -105.624115 -8.848400 0.000000
-302.808105 -105.624115 -8.848400 0.000000
-289.324799 -105.624115 -8.848400 0.000000
-275.841492 -105.624115 -8.848400 0.000000
-262.358185 -105.624115 -8.848400 0.000000
-248.874893 -105.624115 -8.848400 0.000000
-235.391602 -105.624115 -8.848400 0.000000
-221.908295 -105.624115 -8.848400 0.000000
-208.424988 -105.624115 -8.848400 0.000000
-194.941696 -105.624115 -8.848400 0.000000
-181.458389 -105.624115 -8.848400 0.000000
-167.975098 -105.624115 -8.848400 0.000000
-154.491791 -105.624115 -8.848400 0.000000
-141.008499 -105.624115 -8.848400 0.000000
-127.525192 -105.624115 -8.848400 0.000000
-114.041885 -105.624115 -8.848400 0.000000
-100.558594 -105.624115 -8.848400 0.000000
-87.075287 -105.624115 -8.848400 0.000000
-73.591980 -105.624115 -8.848400 0.000000
-60.108704 -105.624115 -8.848400 0.000000
-46.625397 -105.624115 -8.848400 0.000000
-33.142090 -105.624115 -8.848400 0.000000
-19.658783 -105.624115 -8.848400 0.000000
-6.175476 -105.624115 -8.848400 0.000000
7.307800 -105.624115 -8.848400 0.000000
20.791107 -105.624115 -8.848400 0.000000
34.274414 -105.624115 -8.848400 0.000000
47.757721 -105.624115 -8.848400 0.000000
61.240997 -105.624115 -8.848400 0.000000
74.724304 -105.624115 -8.848400 0.000000
88.207611 -105.624115 -8.848400 0.000000
101.690918 -105.624115 -8.848400 0.000000
115.174225 -105.624115 -8.848400 0.000000
128.657501 -105.624115 -8.848400 0.000000
142.140808 -105.624115 -8.848400 0.000000
155.624115 -105.624115 -8.848400 0.000000
169.107422 -105.624115 -8.848400 0.000000
182.590698 -105.624115 -8.848400 0.000000
196.074036 -105.624115 -8.848400 0.000000
209.557312 -105.624115 -8.848400 0.000000
223.040588 -105.624115 -8.848400 0.000000
236.523926 -105.624115 -8.848400 0.000000
250.007202 -105.624115 -8.848400 0.000000
263.490540 -105.624115 -8.848400 0.000000
276.973816 -105.624115 -8.848400 0.000000
290.457092 -105.624115 -8.848400 0.000000
303.940430 -105.624115 -8.848400 0.000000
317.423706 -105.624115 -8.848400 0.000000
330.907043 -105.624115 -8.848400 0.000000
344.390320 -105.624115 -8.848400 0.000000
-343.257996 -119.107422 -8.848400 0.000000
-329.774689 -119.107422 -8.848400 0.000000
-316.291382 -119.107422 -8.848400 0.000000
-302.808105 -119.107422 -8.848400 0.000000
-289.324799 -119.107422 -8.848400 0.000000
-275.841492 -119.107422 -8.848400 0.000000
-262.358185 -119.107422 -8.848400 0.000000
-248.874893 -119.107422 -8.848400 0.000000
-235.391602 -119.107422 -8.848400 0.000000
-221.908295 -119.107422 -8.848400 0.000000
-208.424988 -119.107422 -8.848400 0.000000
-194.941696 -119.107422 -8.848400 0.000000
-181.458389 -119.107422 -8.848400 0.000000
-167.975098 -119.107422 -8.848400 0.000000
-154.491791 -119.107422 -8.848400 0.000000
-141.008499 -119.107422 -8.848400 0.000000
-127.525192 -119.107422 -8.848400 0.000000
-114.041885 -119.107422 -8.848400 0.000000
-100.558594 -119.107422 -8.848400 0.000000
-87.075287 -119.107422 -8.848400 0.000000
-73.591980 -119.107422 -8.848400 0.000000
-60.108704 -119.107422 -8.848400 0.000000
-46.625397 -119.107422 -8.848400 0.000000
-33.142090 -119.107422 -8.848400 0.000000
-19.658783 -119.107422 -8.848400 0.000000
-6.175476 -119.107422 -8.848400 0.000000
7.307800 -119.107422 -8.848400 0.000000
20.791107 -119.107422 -8.848400 0.000000
34.274414 -119.107422 -8.848400 0.000000
47.757721 -119.107422 -8.848400 0.000000
61.240997 -119.107422 -8.848400 0.000000
74.724304 -119.107422 -8.848400 0.000000
88.207611 -119.107422 -8.848400 0.000000
101.690918 -119.107422 -8.848400 0.000000
115.174225 -119.107422 -8.848400 0.000000
128.657501 -119.107422 -8.848400 0.000000
142.140808 -119.107422 -8.848400 0.000000
155.624115 -119.107422 -8.848400 0.000000
169.107422 -119.107422 -8.848400 0.000000
182.590698 -119.107422 -8.848400 0.000000
196.074036 -119.107422 -8.848400 0.000000
209.557312 -119.107422 -8.848400 0.000000
223.040588 -119.107422 -8.848400 0.000000
236.523926 -119.107422 -8.848400 0.000000
250.007202 -119.107422 -8.848400 0.000000
263.490540 -119.107422 -8.848400 0.000000
276.973816 -119.107422 -8.848400 0.000000
290.457092 -119.107422 -8.848400 0.000000
303.940430 -119.107422 -8.848400 0.000000
317.423706 -119.107422 -8.848400 0.000000
330.907043 -119.107422 -8.848400 0.000000
344.390320 -119.107422 -8.848400 0.000000
-343.257996 -132.590698 -8.848400 0.000000
-329.774689 -132.590698 -8.848400 0.000000
-316.291382 -132.590698 -8.848400 0.000000
-302.808105 -132.590698 -8.848400 0.000000
-289.324799 -132.590698 -8.848400 0.000000
-275.841492 -132.590698 -8.848400 0.000000
-262.358185 -132.590698 -8.848400 0.000000
-248.874893 -132.590698 -8.848400 0.000000
-235.391602 -132.590698 -8.848400 0.000000
-221.908295 -132.590698 -8.848400 0.000000
-208.424988 -132.590698 -8.848400 0.000000
-194.941696 -132.590698 -8.848400 0.000000
-181.458389 -132.590698 -8.848400 0.000000
-167.975098 -132.590698 -8.848400 0.000000
-154.491791 -132.590698 -8.848400 0.000000
-141.008499 -132.590698 -8.848400 0.000000
-127.525192 -132.590698 -8.848400 0.000000
-114.041885 -132.590698 -8.848400 0.000000
-100.558594 -132.590698 -8.848400 0.000000
-87.075287 -132.590698 -8.848400 0.000000
-73.591980 -132.590698 -8.848400 0.000000
-60.108704 -132.590698 -8.848400 0.000000
-46.625397 -132.590698 -8.848400 0.000000
-33.142090 -132.590698 -8.848400 0.000000
-19.658783 -132.590698 -8.848400 0.000000
-6.175476 -132.590698 -8.848400 0.000000
7.307800 -132.590698 -8.848400 0.000000
20.791107 -132.590698 -8.848400 0.000000
34.274414 -132.590698 -8.848400 0.000000
47.757721 -132.590698 -8.848400 0.000000
61.240997 -132.590698 -8.848400 0.000000
74.724304 -132.590698 -8.848400 0.000000
88.207611 -132.590698 -8.848400 0.000000
101.690918 -132.590698 -8.848400 0.000000
115.174225 -132.590698 -8.848400 0.000000
128.657501 -132.590698 -8.848400 0.000000
142.140808 -132.590698 -8.848400 0.000000
155.624115 -132.590698 -8.848400 0.000000
169.107422 -132.590698 -8.848400 0.000000
182.590698 -132.590698 -8.848400 0.000000
196.074036 -132.590698 -8.848400 0.000000
209.557312 -132.590698 -8.848400 0.000000
223.040588 -132.590698 -8.848400 0.000000
236.523926 -132.590698 -8.848400 0.000000
250.007202 -132.590698 -8.848400 0.000000
263.490540 -132.590698 -8.848400 0.000000
276.973816 -132.590698 -8.848400 0.000000
290.457092 -132.590698 -8.848400 0.000000
303.940430 -132.590698 -8.848400 0.000000
317.423706 -132.590698 -8.848400 0.000000
330.907043 -132.590698 -8.848400 0.000000
344.390320 -132.590698 -8.848400 0.000000
-343.257996 -146.074036 -8.848400 0.000000
-329.774689 -146.074036 -8.848400 0.000000
-316.291382 -146.074036 -8.848400 0.000000
-302.808105 -146.074036 -8.848400 0.000000
-289.324799 -146.074036 -8.848400 0.000000
-275.841492 -146.074036 -8.848400 0.000000
-262.358185 -146.074036 -8.848400 0.000000
-248.874893 -146.074036 -8.848400 0.000000
-235.391602 -146.074036 -8.848400 0.000000
-221.908295 -146.074036 -8.848400 0.000000
-208.424988 -146.074036 -8.848400 0.000000
-194.941696 -146.074036 -8.848400 0.000000
-181.458389 -146.074036 -8.848400 0.000000
-167.975098 -146.074036 -8.848400 0.000000
-154.491791 -146.074036 -8.848400 0.000000
-141.008499 -146.074036 -8.848400 0.000000
-127.525192 -146.074036 -8.848400 0.000000
-114.041885 -146.074036 -8.848400 0.000000
-100.558594 -146.074036 -8.848400 0.000000
-87.075287 -146.074036 -8.848400 0.000000
-73.591980 -146.074036 -8.848400 0.000000
-60.108704 -146.074036 -8.848400 0.000000
-46.625397 -146.074036 -8.848400 0.000000
-33.142090 -146.074036 -8.848400 0.000000
-19.658783 -146.074036 -8.848400 0.000000
-6.175476 -146.074036 -8.848400 0.000000
7.307800 -146.074036 -8.848400 0.000000
20.791107 -146.074036 -8.848400 0.000000
34.274414 -146.074036 -8.848400 0.000000
47.757721 -146.074036 -8.848400 0.000000
61.240997 -146.074036 -8.848400 0.000000
74.724304 -146.074036 -8.848400 0.000000
88.207611 -146.074036 -8.848400 0.000000
101.690918 -146.074036 -8.848400 0.000000
115.174225 -146.074036 -8.848400 0.000000
128.657501 -146.074036 -8.848400 0.000000
142.140808 -146.074036 -8.848400 0.000000
155.624115 -146.074036 -8.848400 0.000000
169.107422 -146.074036 -8.848400 0.000000
182.590698 -146.074036 -8.848400 0.000000
196.074036 -146.074036 -8.848400 0.000000
209.557312 -146.074036 -8.848400 0.000000
223.040588 -146.074036 -8.848400 0.000000
236.523926 -146.074036 -8.848400 0.000000
250.007202 -146.074036 -8.848400 0.000000
263.490540 -146.074036 -8.848400 0.000000
276.973816 -146.074036 -8.848400 0.000000
290.457092 -146.074036 -8.848400 0.000000
303.940430 -146.074036 -8.848400 0.000000
317.423706 -146.074036 -8.848400 0.000000
330.907043 -146.074036 -8.848400 0.000000
344.390320 -146.074036 -8.848400 0.000000
-343.257996 -159.557312 -8.848400 0.000000
-329.774689 -159.557312 -8.848400 0.000000
-316.291382 -159.557312 -8.848400 0.000000
-302.808105 -159.557312 -8.848400 0.000000
-289.324799 -159.557312 -8.848400 0.000000
-275.841492 -159.557312 -8.848400 0.000000
-262.358185 -159.557312 -8.848400 0.000000
-248.874893 -159.557312 -8.848400 0.000000
-235.391602 -159.557312 -8.848400 0.000000
-221.908295 -159.557312 -8.848400 0.000000
-208.424988 -159.557312 -8.848400 0.000000
-194.941696 -159.557312 -8.848400 0.000000
-181.458389 -159.557312 -8.848400 0.000000
-167.975098 -159.557312 -8.848400 0.000000
-154.491791 -159.557312 -8.848400 0.000000
-141.008499 -159.557312 -8.848400 0.000000
-127.525192 -159.557312 -8.848400 0.000000
-114.041885 -159.557312 -8.848400 0.000000
-100.558594 -159.557312 -8.848400 0.000000
-87.075287 -159.557312 -8.848400 0.000000
-73.591980 -159.557312 -8.848400 0.000000
-60.108704 -159.557312 -8.848400 0.000000
-46.625397 -159.557312 -8.848400 0.000000
-33.142090 -159.557312 -8.848400 0.000000
-19.658783 -159.557312 -8.848400 0.000000
-6.175476 -159.557312 -8.848400 0.000000
7.307800 -159.557312 -8.848400 0.000000
20.791107 -159.557312 -8.848400 0.000000
34.274414 -159.557312 -8.848400 0.000000
47.757721 -159.557312 -8.848400 0.000000
61.240997 -159.557312 -8.848400 0.000000
74.724304 -159.557312 -8.848400 0.000000
88.207611 -159.557312 -8.848400 0.000000
101.690918 -159.557312 -8.848400 0.000000
115.174225 -159.557312 -8.848400 0.000000
128.657501 -159.557312 -8.848400 0.000000
142.140808 -159.557312 -8.848400 0.000000
155.624115 -159.557312 -8.848400 0.000000
169.107422 -159.557312 -8.848400 0.000000
182.590698 -159.557312 -8.848400 0.000000
196.074036 -159.557312 -8.848400 0.000000
209.557312 -159.557312 -8.848400 0.000000
223.040588 -159.557312 -8.848400 0.000000
236.523926 -159.557312 -8.848400 0.000000
250.007202 -159.557312 -8.848400 0.000000
263.490540 -159.557312 -8.848400 0.000000
276.973816 -159.557312 -8.848400 0.000000
290.457092 -159.557312 -8.848400 0.000000
303.940430 -159.557312 -8.848400 0.000000
317.423706 -159.557312 -8.848400 0.000000
330.907043 -159.557312 -8.848400 0.000000
344.390320 -159.557312 -8.848400 0.000000
-343.257996 -173.040588 -8.848400 0.000000
-329.774689 -173.040588 -8.848400 0.000000
-316.291382 -173.040588 -8.848400 0.000000
-302.808105 -173.040588 -8.848400 0.000000
-289.324799 -173.040588 -8.848400 0.000000
-275.841492 -173.040588 -8.848400 0.000000
-262.358185 -173.040588 -8.848400 0.000000
-248.874893 -173.040588 -8.848400 0.000000
-235.391602 -173.040588 -8.848400 0.000000
-221.908295 -173.040588 -8.848400 0.000000
-208.424988 -173.040588 -8.848400 0.000000
-194.941696 -173.040588 -8.848400 0.000000
-181.458389 -173.040588 -8.848400 0.000000
-167.975098 -173.040588 -8.848400 0.000000
-154.491791 -173.040588 -8.848400 0.000000
-141.008499 -173.040588 -8.848400 0.000000
-127.525192 -173.040588 -8.848400 0.000000
-114.041885 -173.040588 -8.848400 0.000000
-100.558594 -173.040588 -8.848400 0.000000
-87.075287 -173.040588 -8.848400 0.000000
-73.591980 -173.040588 -8.848400 0.000000
-60.108704 -173.040588 -8.848400 0.000000
-46.625397 -173.040588 -8.848400 0.000000
-33.142090 -173.040588 -8.848400 0.000000
-19.658783 -173.040588 -8.848400 0.000000
-6.175476 -173.040588 -8.848400 0.000000
7.307800 -173.040588 -8.848400 0.000000
20.791107 -173.040588 -8.848400 0.000000
34.274414 -173.040588 -8.848400 0.000000
47.757721 -173.040588 -8.848400 0.000000
61.240997 -173.040588 -8.848400 0.000000
74.724304 -173.040588 -8.848400 0.000000
88.207611 -173.040588 -8.848400 0.000000
101.690918 -173.040588 -8.848400 0.000000
115.174225 -173.040588 -8.848400 0.000000
128.657501 -173.040588 -8.848400 0.000000
142.140808 -173.040588 -8.848400 0.000000
155.624115 -173.040588 -8.848400 0.000000
169.107422 -173.040588 -8.848400 0.000000
182.590698 -173.040588 -8.848400 0.000000
196.074036 -173.040588 -8.848400 0.000000
209.557312 -173.040588 -8.848400 0.000000
223.040588 -173.040588 -8.848400 0.000000
236.523926 -173.040588 -8.848400 0.000000
250.007202 -173.040588 -8.848400 0.000000
263.490540 -173.040588 -8.848400 0.000000
276.973816 -173.040588 -8.848400 0.000000
290.457092 -173.040588 -8.848400 0.000000
303.940430 -173.040588 -8.848400 0.000000
317.423706 -173.040588 -8.848400 0.000000
330.907043 -173.040588 -8.848400 0.000000
344.390320 -173.040588 -8.848400 0.000000
-343.257996 -186.523926 -8.848400 0.000000
-329.774689 -186.523926 -8.848400 0.000000
-316.291382 -186.523926 -8.848400 0.000000
-302.808105 -186.523926 -8.848400 0.000000
-289.324799 -186.523926 -8.848400 0.000000
-275.841492 -186.523926 -8.848400 0.000000
-262.358185 -186.523926 -8.848400 0.000000
-248.874893 -186.523926 -8.848400 0.000000
-235.391602 -186.523926 -8.848400 0.000000
-221.908295 -186.523926 -8.848400 0.000000
-208.424988 -186.523926 -8.848400 0.000000
-194.941696 -186.523926 -8.848400 0.000000
-181.458389 -186.523926 -8.848400 0.000000
-167.975098 -186.523926 -8.848400 0.000000
-154.491791 -186.523926 -8.848400 0.000000
-141.008499 -186.523926 -8.848400 0.000000
-127.525192 -186.523926 -8.848400 0.000000
-114.041885 -186.523926 -8.848400 0.000000
-100.558594 -186.523926 -8.848400 0.000000
-87.075287 -186.523926 -8.848400 0.000000
-73.591980 -186.523926 -8.848400 0.000000
-60.108704 -186.523926 -8.848400 0.000000
-46.625397 -186.523926 -8.848400 0.000000
-33.142090 -186.523926 -8.848400 0.000000
-19.658783 -186.523926 -8.848400 0.000000
-6.175476 -186.523926 -8.848400 0.000000
7.307800 -186.523926 -8.848400 0.000000
20.791107 -186.523926 -8.848400 0.000000
34.274414 -186.523926 -8.848400 0.000000
47.757721 -186.523926 -8.848400 0.000000
61.240997 -186.523926 -8.848400 0.000000
74.724304 -186.523926 -8.848400 0.000000
88.207611 -186.523926 -8.848400 0.000000
101.690918 -186.523926 -8.848400 0.000000
115.174225 -186.523926 -8.848400 0.000000
128.657501 -186.523926 -8.848400 0.000000
142.140808 -186.523926 -8.848400 0.000000
155.624115 -186.523926 -8.848400 0.000000
169.107422 -186.523926 -8.848400 0.000000
182.590698 -186.523926 -8.848400 0.000000
196.074036 -186.523926 -8.848400 0.000000
209.557312 -186.523926 -8.848400 0.000000
223.040588 -186.523926 -8.848400 0.000000
236.523926 -186.523926 -8.848400 0.000000
250.007202 -186.523926 -8.848400 0.000000
263.490540 -186.523926 -8.848400 0.000000
276.973816 -186.523926 -8.848400 0.000000
290.457092 -186.523926 -8.848400 0.000000
303.940430 -186.523926 -8.848400 0.000000
317.423706 -186.523926 -8.848400 0.000000
330.907043 -186.523926 -8.848400 0.000000
344.390320 -186.523926 -8.848400 0.000000
-343.257996 -200.007202 -8.848400 0.000000
-329.774689 -200.007202 -8.848400 0.000000
-316.291382 -200.007202 -8.848400 0.000000
-302.808105 -200.007202 -8.848400 0.000000
-289.324799 -200.007202 -8.848400 0.000000
-275.841492 -200.007202 -8.848400 0.000000
-262.358185 -200.007202 -8.848400 0.000000
-248.874893 -200.007202 -8.848400 0.000000
-235.391602 -200.007202 -8.848400 0.000000
-221.908295 -200.007202 -8.848400 0.000000
-208.424988 -200.007202 -8.848400 0.000000
-194.941696 -200.007202 -8.848400 0.000000
-181.458389 -200.007202 -8.848400 0.000000
-167.975098 -200.007202 -8.848400 0.000000
-154.491791 -200.007202 -8.848400 0.000000
-141.008499 -200.007202 -8.848400 0.000000
-127.525192 -200.007202 -8.848400 0.000000
-114.041885 -200.007202 -8.848400 0.000000
-100.558594 -200.007202 -8.848400 0.000000
-87.075287 -200.007202 -8.848400 0.000000
-73.591980 -200.007202 -8.848400 0.000000
-60.108704 -200.007202 -8.848400 0.000000
-46.625397 -200.007202 -8.848400 0.000000
-33.142090 -200.007202 -8.848400 0.000000
-19.658783 -200.007202 -8.848400 0.000000
-6.175476 -200.007202 -8.848400 0.000000
7.307800 -200.007202 -8.848400 0.000000
20.791107 -200.007202 -8.848400 0.000000
34.274414 -200.007202 -8.848400 0.000000
47.757721 -200.007202 -8.848400 0.000000
61.240997 -200.007202 -8.848400 0.000000
74.724304 -200.007202 -8.848400 0.000000
88.207611 -200.007202 -8.848400 0.000000
101.690918 -200.007202 -8.848400 0.000000
115.174225 -200.007202 -8.848400 0.000000
128.657501 -200.007202 -8.848400 0.000000
142.140808 -200.007202 -8.848400 0.000000
155.624115 -200.007202 -8.848400 0.000000
169.107422 -200.007202 -8.848400 0.000000
182.590698 -200.007202 -8.848400 0.000000
196.074036 -200.007202 -8.848400 0.000000
209.557312 -200.007202 -8.848400 0.000000
223.040588 -200.007202 -8.848400 0.000000
236.523926 -200.007202 -8.848400 0.000000
250.007202 -200.007202 -8.848400 0.000000
263.490540 -200.007202 -8.848400 0.000000
276.973816 -200.007202 -8.848400 0.000000
290.457092 -200.007202 -8.848400 0.000000
303.940430 -200.007202 -8.848400 0.000000
317.423706 -200.007202 -8.848400 0.000000
330.907043 -200.007202 -8.848400 0.000000
344.390320 -200.007202 -8.848400 0.000000
