TITLE = "B00006"
VARIABLES = "X", "Y", "Z", "Reynold stress ZZ"
ZONE T="Frame 1" I=52, J=45, K=4, F=POINT
-343.257996 393.257996 -49.298302 0.000000
-329.774689 393.257996 -49.298302 0.000000
-316.291382 393.257996 -49.298302 0.000000
-302.808105 393.257996 -49.298302 0.000000
-289.324799 393.257996 -49.298302 0.000000
-275.841492 393.257996 -49.298302 0.000000
-262.358185 393.257996 -49.298302 0.000000
-248.874893 393.257996 -49.298302 0.000000
-235.391602 393.257996 -49.298302 0.000000
-221.908295 393.257996 -49.298302 0.000000
-208.424988 393.257996 -49.298302 0.000000
-194.941696 393.257996 -49.298302 0.000000
-181.458389 393.257996 -49.298302 0.000000
-167.975098 393.257996 -49.298302 0.000000
-154.491791 393.257996 -49.298302 0.000000
-141.008499 393.257996 -49.298302 0.000000
-127.525192 393.257996 -49.298302 0.000000
-114.041885 393.257996 -49.298302 0.000000
-100.558594 393.257996 -49.298302 0.000000
-87.075287 393.257996 -49.298302 0.000000
-73.591980 393.257996 -49.298302 0.000000
-60.108704 393.257996 -49.298302 0.000000
-46.625397 393.257996 -49.298302 0.000000
-33.142090 393.257996 -49.298302 0.000000
-19.658783 393.257996 -49.298302 0.000000
-6.175476 393.257996 -49.298302 0.000000
7.307800 393.257996 -49.298302 0.000000
20.791107 393.257996 -49.298302 0.000000
34.274414 393.257996 -49.298302 0.000000
47.757721 393.257996 -49.298302 0.000000
61.240997 393.257996 -49.298302 0.000000
74.724304 393.257996 -49.298302 0.000000
88.207611 393.257996 -49.298302 0.000000
101.690918 393.257996 -49.298302 0.000000
115.174225 393.257996 -49.298302 0.000000
128.657501 393.257996 -49.298302 0.000000
142.140808 393.257996 -49.298302 0.000000
155.624115 393.257996 -49.298302 0.000000
169.107422 393.257996 -49.298302 0.000000
182.590698 393.257996 -49.298302 0.000000
196.074036 393.257996 -49.298302 0.000000
209.557312 393.257996 -49.298302 0.000000
223.040588 393.257996 -49.298302 0.000000
236.523926 393.257996 -49.298302 0.000000
250.007202 393.257996 -49.298302 0.000000
263.490540 393.257996 -49.298302 0.000000
276.973816 393.257996 -49.298302 0.000000
290.457092 393.257996 -49.298302 0.000000
303.940430 393.257996 -49.298302 0.000000
317.423706 393.257996 -49.298302 0.000000
330.907043 393.257996 -49.298302 0.000000
344.390320 393.257996 -49.298302 0.000000
-343.257996 379.774689 -49.298302 0.000000
-329.774689 379.774689 -49.298302 0.000000
-316.291382 379.774689 -49.298302 0.000000
-302.808105 379.774689 -49.298302 0.000000
-289.324799 379.774689 -49.298302 0.000000
-275.841492 379.774689 -49.298302 0.000000
-262.358185 379.774689 -49.298302 0.000000
-248.874893 379.774689 -49.298302 0.000000
-235.391602 379.774689 -49.298302 0.000000
-221.908295 379.774689 -49.298302 0.000000
-208.424988 379.774689 -49.298302 0.000000
-194.941696 379.774689 -49.298302 0.000000
-181.458389 379.774689 -49.298302 0.000000
-167.975098 379.774689 -49.298302 0.000000
-154.491791 379.774689 -49.298302 0.000000
-141.008499 379.774689 -49.298302 0.000000
-127.525192 379.774689 -49.298302 0.000000
-114.041885 379.774689 -49.298302 0.000000
-100.558594 379.774689 -49.298302 0.000000
-87.075287 379.774689 -49.298302 0.000000
-73.591980 379.774689 -49.298302 0.000000
-60.108704 379.774689 -49.298302 0.000000
-46.625397 379.774689 -49.298302 0.000000
-33.142090 379.774689 -49.298302 0.000000
-19.658783 379.774689 -49.298302 0.000000
-6.175476 379.774689 -49.298302 0.000000
7.307800 379.774689 -49.298302 0.000000
20.791107 379.774689 -49.298302 0.000000
34.274414 379.774689 -49.298302 0.000000
47.757721 379.774689 -49.298302 0.000000
61.240997 379.774689 -49.298302 0.000000
74.724304 379.774689 -49.298302 0.000000
88.207611 379.774689 -49.298302 0.000000
101.690918 379.774689 -49.298302 0.000000
115.174225 379.774689 -49.298302 0.000000
128.657501 379.774689 -49.298302 0.000000
142.140808 379.774689 -49.298302 0.000000
155.624115 379.774689 -49.298302 0.000000
169.107422 379.774689 -49.298302 0.000000
182.590698 379.774689 -49.298302 0.000000
196.074036 379.774689 -49.298302 0.000000
209.557312 379.774689 -49.298302 0.000000
223.040588 379.774689 -49.298302 0.000000
236.523926 379.774689 -49.298302 0.000000
250.007202 379.774689 -49.298302 0.000000
263.490540 379.774689 -49.298302 0.000000
276.973816 379.774689 -49.298302 0.000000
290.457092 379.774689 -49.298302 0.000000
303.940430 379.774689 -49.298302 0.000000
317.423706 379.774689 -49.298302 0.000000
330.907043 379.774689 -49.298302 0.000000
344.390320 379.774689 -49.298302 0.000000
-343.257996 366.291382 -49.298302 0.000000
-329.774689 366.291382 -49.298302 0.000000
-316.291382 366.291382 -49.298302 0.000000
-302.808105 366.291382 -49.298302 0.000000
-289.324799 366.291382 -49.298302 0.000000
-275.841492 366.291382 -49.298302 0.000000
-262.358185 366.291382 -49.298302 0.000000
-248.874893 366.291382 -49.298302 0.000000
-235.391602 366.291382 -49.298302 0.000000
-221.908295 366.291382 -49.298302 0.000000
-208.424988 366.291382 -49.298302 0.000000
-194.941696 366.291382 -49.298302 0.000000
-181.458389 366.291382 -49.298302 0.000000
-167.975098 366.291382 -49.298302 0.000000
-154.491791 366.291382 -49.298302 0.000000
-141.008499 366.291382 -49.298302 0.000000
-127.525192 366.291382 -49.298302 0.000000
-114.041885 366.291382 -49.298302 0.000000
-100.558594 366.291382 -49.298302 0.000000
-87.075287 366.291382 -49.298302 0.000000
-73.591980 366.291382 -49.298302 0.000000
-60.108704 366.291382 -49.298302 0.000000
-46.625397 366.291382 -49.298302 0.000000
-33.142090 366.291382 -49.298302 0.000000
-19.658783 366.291382 -49.298302 0.000000
-6.175476 366.291382 -49.298302 0.000000
7.307800 366.291382 -49.298302 0.000000
20.791107 366.291382 -49.298302 0.000000
34.274414 366.291382 -49.298302 0.000000
47.757721 366.291382 -49.298302 0.000000
61.240997 366.291382 -49.298302 0.000000
74.724304 366.291382 -49.298302 0.000000
88.207611 366.291382 -49.298302 0.000000
101.690918 366.291382 -49.298302 0.000000
115.174225 366.291382 -49.298302 0.000000
128.657501 366.291382 -49.298302 0.000000
142.140808 366.291382 -49.298302 0.000000
155.624115 366.291382 -49.298302 0.000000
169.107422 366.291382 -49.298302 0.000000
182.590698 366.291382 -49.298302 0.000000
196.074036 366.291382 -49.298302 0.000000
209.557312 366.291382 -49.298302 0.000000
223.040588 366.291382 -49.298302 0.000000
236.523926 366.291382 -49.298302 0.000000
250.007202 366.291382 -49.298302 0.000000
263.490540 366.291382 -49.298302 0.000000
276.973816 366.291382 -49.298302 0.000000
290.457092 366.291382 -49.298302 0.000000
303.940430 366.291382 -49.298302 0.000000
317.423706 366.291382 -49.298302 0.000000
330.907043 366.291382 -49.298302 0.000000
344.390320 366.291382 -49.298302 0.000000
-343.257996 352.808105 -49.298302 0.000000
-329.774689 352.808105 -49.298302 0.000000
-316.291382 352.808105 -49.298302 0.000000
-302.808105 352.808105 -49.298302 0.000000
-289.324799 352.808105 -49.298302 0.000000
-275.841492 352.808105 -49.298302 0.000000
-262.358185 352.808105 -49.298302 0.000000
-248.874893 352.808105 -49.298302 0.000000
-235.391602 352.808105 -49.298302 0.000000
-221.908295 352.808105 -49.298302 0.000000
-208.424988 352.808105 -49.298302 0.000000
-194.941696 352.808105 -49.298302 0.000000
-181.458389 352.808105 -49.298302 8.026437
-167.975098 352.808105 -49.298302 10.399138
-154.491791 352.808105 -49.298302 11.386219
-141.008499 352.808105 -49.298302 11.707000
-127.525192 352.808105 -49.298302 11.294801
-114.041885 352.808105 -49.298302 10.975313
-100.558594 352.808105 -49.298302 10.021919
-87.075287 352.808105 -49.298302 10.301417
-73.591980 352.808105 -49.298302 10.134655
-60.108704 352.808105 -49.298302 9.704281
-46.625397 352.808105 -49.298302 8.635322
-33.142090 352.808105 -49.298302 6.308267
-19.658783 352.808105 -49.298302 4.559974
-6.175476 352.808105 -49.298302 3.718931
7.307800 352.808105 -49.298302 3.724623
20.791107 352.808105 -49.298302 3.150363
34.274414 352.808105 -49.298302 3.275204
47.757721 352.808105 -49.298302 3.614966
61.240997 352.808105 -49.298302 3.575424
74.724304 352.808105 -49.298302 4.034111
88.207611 352.808105 -49.298302 4.223847
101.690918 352.808105 -49.298302 5.005265
115.174225 352.808105 -49.298302 5.850228
128.657501 352.808105 -49.298302 6.800006
142.140808 352.808105 -49.298302 0.000000
155.624115 352.808105 -49.298302 0.000000
169.107422 352.808105 -49.298302 0.000000
182.590698 352.808105 -49.298302 0.000000
196.074036 352.808105 -49.298302 0.000000
209.557312 352.808105 -49.298302 0.000000
223.040588 352.808105 -49.298302 0.000000
236.523926 352.808105 -49.298302 0.000000
250.007202 352.808105 -49.298302 0.000000
263.490540 352.808105 -49.298302 0.000000
276.973816 352.808105 -49.298302 0.000000
290.457092 352.808105 -49.298302 0.000000
303.940430 352.808105 -49.298302 0.000000
317.423706 352.808105 -49.298302 0.000000
330.907043 352.808105 -49.298302 0.000000
344.390320 352.808105 -49.298302 0.000000
-343.257996 339.324799 -49.298302 0.000000
-329.774689 339.324799 -49.298302 0.000000
-316.291382 339.324799 -49.298302 0.000000
-302.808105 339.324799 -49.298302 0.000000
-289.324799 339.324799 -49.298302 0.000000
-275.841492 339.324799 -49.298302 0.000000
-262.358185 339.324799 -49.298302 8.722090
-248.874893 339.324799 -49.298302 6.492040
-235.391602 339.324799 -49.298302 5.656227
-221.908295 339.324799 -49.298302 6.222084
-208.424988 339.324799 -49.298302 6.812360
-194.941696 339.324799 -49.298302 7.909586
-181.458389 339.324799 -49.298302 8.489906
-167.975098 339.324799 -49.298302 9.478268
-154.491791 339.324799 -49.298302 10.562013
-141.008499 339.324799 -49.298302 9.980013
-127.525192 339.324799 -49.298302 10.228656
-114.041885 339.324799 -49.298302 9.837872
-100.558594 339.324799 -49.298302 8.732576
-87.075287 339.324799 -49.298302 8.603457
-73.591980 339.324799 -49.298302 9.333887
-60.108704 339.324799 -49.298302 9.090161
-46.625397 339.324799 -49.298302 7.954624
-33.142090 339.324799 -49.298302 6.775197
-19.658783 339.324799 -49.298302 4.916414
-6.175476 339.324799 -49.298302 3.713008
7.307800 339.324799 -49.298302 3.740694
20.791107 339.324799 -49.298302 3.438739
34.274414 339.324799 -49.298302 3.784748
47.757721 339.324799 -49.298302 4.206369
61.240997 339.324799 -49.298302 4.569137
74.724304 339.324799 -49.298302 4.803560
88.207611 339.324799 -49.298302 5.607214
101.690918 339.324799 -49.298302 6.443792
115.174225 339.324799 -49.298302 7.964293
128.657501 339.324799 -49.298302 8.264482
142.140808 339.324799 -49.298302 8.649619
155.624115 339.324799 -49.298302 8.777555
169.107422 339.324799 -49.298302 9.316529
182.590698 339.324799 -49.298302 8.279485
196.074036 339.324799 -49.298302 7.780439
209.557312 339.324799 -49.298302 7.880184
223.040588 339.324799 -49.298302 8.204417
236.523926 339.324799 -49.298302 8.387866
250.007202 339.324799 -49.298302 9.411538
263.490540 339.324799 -49.298302 15.986355
276.973816 339.324799 -49.298302 0.000000
290.457092 339.324799 -49.298302 0.000000
303.940430 339.324799 -49.298302 0.000000
317.423706 339.324799 -49.298302 0.000000
330.907043 339.324799 -49.298302 0.000000
344.390320 339.324799 -49.298302 0.000000
-343.257996 325.841492 -49.298302 0.000000
-329.774689 325.841492 -49.298302 0.000000
-316.291382 325.841492 -49.298302 0.000000
-302.808105 325.841492 -49.298302 0.000000
-289.324799 325.841492 -49.298302 8.471095
-275.841492 325.841492 -49.298302 6.361481
-262.358185 325.841492 -49.298302 5.624903
-248.874893 325.841492 -49.298302 4.958616
-235.391602 325.841492 -49.298302 4.573784
-221.908295 325.841492 -49.298302 5.260142
-208.424988 325.841492 -49.298302 6.342474
-194.941696 325.841492 -49.298302 7.222355
-181.458389 325.841492 -49.298302 8.111193
-167.975098 325.841492 -49.298302 8.644395
-154.491791 325.841492 -49.298302 9.005746
-141.008499 325.841492 -49.298302 9.110559
-127.525192 325.841492 -49.298302 8.979589
-114.041885 325.841492 -49.298302 8.079570
-100.558594 325.841492 -49.298302 7.853739
-87.075287 325.841492 -49.298302 7.610371
-73.591980 325.841492 -49.298302 7.964032
-60.108704 325.841492 -49.298302 7.768425
-46.625397 325.841492 -49.298302 7.531335
-33.142090 325.841492 -49.298302 6.585006
-19.658783 325.841492 -49.298302 5.069059
-6.175476 325.841492 -49.298302 4.506309
7.307800 325.841492 -49.298302 4.010360
20.791107 325.841492 -49.298302 3.621843
34.274414 325.841492 -49.298302 4.181409
47.757721 325.841492 -49.298302 4.555621
61.240997 325.841492 -49.298302 4.873033
74.724304 325.841492 -49.298302 5.757637
88.207611 325.841492 -49.298302 6.552677
101.690918 325.841492 -49.298302 8.356315
115.174225 325.841492 -49.298302 9.474444
128.657501 325.841492 -49.298302 10.010231
142.140808 325.841492 -49.298302 10.041181
155.624115 325.841492 -49.298302 9.695439
169.107422 325.841492 -49.298302 9.134478
182.590698 325.841492 -49.298302 8.349622
196.074036 325.841492 -49.298302 7.040832
209.557312 325.841492 -49.298302 7.102143
223.040588 325.841492 -49.298302 8.381267
236.523926 325.841492 -49.298302 7.687545
250.007202 325.841492 -49.298302 7.596192
263.490540 325.841492 -49.298302 8.594347
276.973816 325.841492 -49.298302 10.258337
290.457092 325.841492 -49.298302 0.000000
303.940430 325.841492 -49.298302 0.000000
317.423706 325.841492 -49.298302 0.000000
330.907043 325.841492 -49.298302 0.000000
344.390320 325.841492 -49.298302 0.000000
-343.257996 312.358185 -49.298302 0.000000
-329.774689 312.358185 -49.298302 0.000000
-316.291382 312.358185 -49.298302 0.000000
-302.808105 312.358185 -49.298302 0.000000
-289.324799 312.358185 -49.298302 4.070827
-275.841492 312.358185 -49.298302 4.188488
-262.358185 312.358185 -49.298302 3.838156
-248.874893 312.358185 -49.298302 3.546789
-235.391602 312.358185 -49.298302 3.746466
-221.908295 312.358185 -49.298302 4.478846
-208.424988 312.358185 -49.298302 5.673726
-194.941696 312.358185 -49.298302 7.048805
-181.458389 312.358185 -49.298302 7.810746
-167.975098 312.358185 -49.298302 8.227036
-154.491791 312.358185 -49.298302 8.079186
-141.008499 312.358185 -49.298302 8.126030
-127.525192 312.358185 -49.298302 7.963218
-114.041885 312.358185 -49.298302 7.108261
-100.558594 312.358185 -49.298302 6.698255
-87.075287 312.358185 -49.298302 6.585815
-73.591980 312.358185 -49.298302 7.006383
-60.108704 312.358185 -49.298302 6.660108
-46.625397 312.358185 -49.298302 6.667199
-33.142090 312.358185 -49.298302 6.361419
-19.658783 312.358185 -49.298302 5.331974
-6.175476 312.358185 -49.298302 5.039767
7.307800 312.358185 -49.298302 4.479827
20.791107 312.358185 -49.298302 4.321815
34.274414 312.358185 -49.298302 4.379463
47.757721 312.358185 -49.298302 4.741438
61.240997 312.358185 -49.298302 5.134096
74.724304 312.358185 -49.298302 5.933252
88.207611 312.358185 -49.298302 7.460595
101.690918 312.358185 -49.298302 8.462896
115.174225 312.358185 -49.298302 9.635194
128.657501 312.358185 -49.298302 9.629224
142.140808 312.358185 -49.298302 9.838601
155.624115 312.358185 -49.298302 9.562876
169.107422 312.358185 -49.298302 9.011349
182.590698 312.358185 -49.298302 8.686301
196.074036 312.358185 -49.298302 8.309913
209.557312 312.358185 -49.298302 7.354507
223.040588 312.358185 -49.298302 7.077935
236.523926 312.358185 -49.298302 6.566229
250.007202 312.358185 -49.298302 5.558056
263.490540 312.358185 -49.298302 6.014502
276.973816 312.358185 -49.298302 6.476984
290.457092 312.358185 -49.298302 7.584614
303.940430 312.358185 -49.298302 0.000000
317.423706 312.358185 -49.298302 0.000000
330.907043 312.358185 -49.298302 0.000000
344.390320 312.358185 -49.298302 0.000000
-343.257996 298.874878 -49.298302 0.000000
-329.774689 298.874878 -49.298302 0.000000
-316.291382 298.874878 -49.298302 0.000000
-302.808105 298.874878 -49.298302 0.000000
-289.324799 298.874878 -49.298302 3.081908
-275.841492 298.874878 -49.298302 2.449986
-262.358185 298.874878 -49.298302 2.536306
-248.874893 298.874878 -49.298302 2.412037
-235.391602 298.874878 -49.298302 2.857723
-221.908295 298.874878 -49.298302 4.283142
-208.424988 298.874878 -49.298302 5.550279
-194.941696 298.874878 -49.298302 6.881793
-181.458389 298.874878 -49.298302 7.544787
-167.975098 298.874878 -49.298302 8.087132
-154.491791 298.874878 -49.298302 7.520700
-141.008499 298.874878 -49.298302 7.391126
-127.525192 298.874878 -49.298302 6.978175
-114.041885 298.874878 -49.298302 6.431959
-100.558594 298.874878 -49.298302 5.712500
-87.075287 298.874878 -49.298302 5.856935
-73.591980 298.874878 -49.298302 5.762806
-60.108704 298.874878 -49.298302 5.656636
-46.625397 298.874878 -49.298302 6.078407
-33.142090 298.874878 -49.298302 6.142869
-19.658783 298.874878 -49.298302 6.237960
-6.175476 298.874878 -49.298302 5.233237
7.307800 298.874878 -49.298302 5.008527
20.791107 298.874878 -49.298302 4.820186
34.274414 298.874878 -49.298302 4.552148
47.757721 298.874878 -49.298302 4.760616
61.240997 298.874878 -49.298302 5.552913
74.724304 298.874878 -49.298302 6.776206
88.207611 298.874878 -49.298302 8.258215
101.690918 298.874878 -49.298302 9.038079
115.174225 298.874878 -49.298302 9.818707
128.657501 298.874878 -49.298302 10.330433
142.140808 298.874878 -49.298302 10.321874
155.624115 298.874878 -49.298302 9.445299
169.107422 298.874878 -49.298302 9.709358
182.590698 298.874878 -49.298302 9.173180
196.074036 298.874878 -49.298302 7.928252
209.557312 298.874878 -49.298302 7.009178
223.040588 298.874878 -49.298302 6.481429
236.523926 298.874878 -49.298302 5.460053
250.007202 298.874878 -49.298302 4.164317
263.490540 298.874878 -49.298302 4.221266
276.973816 298.874878 -49.298302 4.247783
290.457092 298.874878 -49.298302 4.254777
303.940430 298.874878 -49.298302 0.000000
317.423706 298.874878 -49.298302 0.000000
330.907043 298.874878 -49.298302 0.000000
344.390320 298.874878 -49.298302 0.000000
-343.257996 285.391602 -49.298302 0.000000
-329.774689 285.391602 -49.298302 0.000000
-316.291382 285.391602 -49.298302 0.000000
-302.808105 285.391602 -49.298302 1.816312
-289.324799 285.391602 -49.298302 1.882573
-275.841492 285.391602 -49.298302 1.787179
-262.358185 285.391602 -49.298302 1.957605
-248.874893 285.391602 -49.298302 2.207984
-235.391602 285.391602 -49.298302 3.018195
-221.908295 285.391602 -49.298302 4.240540
-208.424988 285.391602 -49.298302 5.491164
-194.941696 285.391602 -49.298302 6.732185
-181.458389 285.391602 -49.298302 7.533129
-167.975098 285.391602 -49.298302 7.952131
-154.491791 285.391602 -49.298302 7.509363
-141.008499 285.391602 -49.298302 6.902005
-127.525192 285.391602 -49.298302 6.508605
-114.041885 285.391602 -49.298302 6.721087
-100.558594 285.391602 -49.298302 5.606831
-87.075287 285.391602 -49.298302 5.733418
-73.591980 285.391602 -49.298302 5.287354
-60.108704 285.391602 -49.298302 5.237960
-46.625397 285.391602 -49.298302 5.555090
-33.142090 285.391602 -49.298302 6.422661
-19.658783 285.391602 -49.298302 5.741010
-6.175476 285.391602 -49.298302 5.023255
7.307800 285.391602 -49.298302 4.941460
20.791107 285.391602 -49.298302 5.187594
34.274414 285.391602 -49.298302 5.100951
47.757721 285.391602 -49.298302 5.061728
61.240997 285.391602 -49.298302 5.762711
74.724304 285.391602 -49.298302 6.545587
88.207611 285.391602 -49.298302 7.995580
101.690918 285.391602 -49.298302 8.537151
115.174225 285.391602 -49.298302 8.350138
128.657501 285.391602 -49.298302 9.320962
142.140808 285.391602 -49.298302 8.542235
155.624115 285.391602 -49.298302 8.732522
169.107422 285.391602 -49.298302 9.485427
182.590698 285.391602 -49.298302 9.587933
196.074036 285.391602 -49.298302 8.700646
209.557312 285.391602 -49.298302 7.085086
223.040588 285.391602 -49.298302 6.240667
236.523926 285.391602 -49.298302 4.860570
250.007202 285.391602 -49.298302 3.304196
263.490540 285.391602 -49.298302 2.970966
276.973816 285.391602 -49.298302 3.073678
290.457092 285.391602 -49.298302 3.687969
303.940430 285.391602 -49.298302 0.000000
317.423706 285.391602 -49.298302 0.000000
330.907043 285.391602 -49.298302 0.000000
344.390320 285.391602 -49.298302 0.000000
-343.257996 271.908295 -49.298302 0.000000
-329.774689 271.908295 -49.298302 0.000000
-316.291382 271.908295 -49.298302 0.000000
-302.808105 271.908295 -49.298302 1.268932
-289.324799 271.908295 -49.298302 1.490355
-275.841492 271.908295 -49.298302 1.529573
-262.358185 271.908295 -49.298302 1.751977
-248.874893 271.908295 -49.298302 2.084553
-235.391602 271.908295 -49.298302 2.681073
-221.908295 271.908295 -49.298302 3.791739
-208.424988 271.908295 -49.298302 5.021972
-194.941696 271.908295 -49.298302 6.464715
-181.458389 271.908295 -49.298302 7.543072
-167.975098 271.908295 -49.298302 7.471894
-154.491791 271.908295 -49.298302 6.940315
-141.008499 271.908295 -49.298302 6.605266
-127.525192 271.908295 -49.298302 6.397765
-114.041885 271.908295 -49.298302 6.037555
-100.558594 271.908295 -49.298302 5.186870
-87.075287 271.908295 -49.298302 5.163012
-73.591980 271.908295 -49.298302 5.164445
-60.108704 271.908295 -49.298302 5.311236
-46.625397 271.908295 -49.298302 5.781048
-33.142090 271.908295 -49.298302 5.929749
-19.658783 271.908295 -49.298302 5.533134
-6.175476 271.908295 -49.298302 4.906053
7.307800 271.908295 -49.298302 5.308911
20.791107 271.908295 -49.298302 5.585370
34.274414 271.908295 -49.298302 5.037910
47.757721 271.908295 -49.298302 5.599452
61.240997 271.908295 -49.298302 5.716846
74.724304 271.908295 -49.298302 6.289810
88.207611 271.908295 -49.298302 7.418365
101.690918 271.908295 -49.298302 7.177406
115.174225 271.908295 -49.298302 7.493181
128.657501 271.908295 -49.298302 7.616775
142.140808 271.908295 -49.298302 7.205958
155.624115 271.908295 -49.298302 7.560358
169.107422 271.908295 -49.298302 8.936197
182.590698 271.908295 -49.298302 9.491028
196.074036 271.908295 -49.298302 8.834974
209.557312 271.908295 -49.298302 7.566456
223.040588 271.908295 -49.298302 5.998992
236.523926 271.908295 -49.298302 4.416188
250.007202 271.908295 -49.298302 2.908581
263.490540 271.908295 -49.298302 2.550126
276.973816 271.908295 -49.298302 2.610641
290.457092 271.908295 -49.298302 2.766058
303.940430 271.908295 -49.298302 0.000000
317.423706 271.908295 -49.298302 0.000000
330.907043 271.908295 -49.298302 0.000000
344.390320 271.908295 -49.298302 0.000000
-343.257996 258.424988 -49.298302 0.000000
-329.774689 258.424988 -49.298302 0.000000
-316.291382 258.424988 -49.298302 0.000000
-302.808105 258.424988 -49.298302 0.994149
-289.324799 258.424988 -49.298302 1.323743
-275.841492 258.424988 -49.298302 1.387851
-262.358185 258.424988 -49.298302 1.551661
-248.874893 258.424988 -49.298302 1.837547
-235.391602 258.424988 -49.298302 2.565212
-221.908295 258.424988 -49.298302 3.420552
-208.424988 258.424988 -49.298302 4.461624
-194.941696 258.424988 -49.298302 5.819819
-181.458389 258.424988 -49.298302 6.553045
-167.975098 258.424988 -49.298302 6.811440
-154.491791 258.424988 -49.298302 6.263564
-141.008499 258.424988 -49.298302 5.867516
-127.525192 258.424988 -49.298302 6.007477
-114.041885 258.424988 -49.298302 5.873510
-100.558594 258.424988 -49.298302 5.359304
-87.075287 258.424988 -49.298302 5.139942
-73.591980 258.424988 -49.298302 4.982370
-60.108704 258.424988 -49.298302 5.337896
-46.625397 258.424988 -49.298302 5.588932
-33.142090 258.424988 -49.298302 5.633303
-19.658783 258.424988 -49.298302 5.395537
-6.175476 258.424988 -49.298302 5.161499
7.307800 258.424988 -49.298302 5.007348
20.791107 258.424988 -49.298302 5.284323
34.274414 258.424988 -49.298302 5.124671
47.757721 258.424988 -49.298302 5.208985
61.240997 258.424988 -49.298302 5.267368
74.724304 258.424988 -49.298302 6.593830
88.207611 258.424988 -49.298302 6.040753
101.690918 258.424988 -49.298302 6.116335
115.174225 258.424988 -49.298302 6.316175
128.657501 258.424988 -49.298302 6.433659
142.140808 258.424988 -49.298302 6.692898
155.624115 258.424988 -49.298302 6.954240
169.107422 258.424988 -49.298302 7.768336
182.590698 258.424988 -49.298302 8.825326
196.074036 258.424988 -49.298302 9.083844
209.557312 258.424988 -49.298302 8.086577
223.040588 258.424988 -49.298302 6.196329
236.523926 258.424988 -49.298302 4.469718
250.007202 258.424988 -49.298302 2.618723
263.490540 258.424988 -49.298302 1.908049
276.973816 258.424988 -49.298302 1.703829
290.457092 258.424988 -49.298302 1.907018
303.940430 258.424988 -49.298302 0.000000
317.423706 258.424988 -49.298302 0.000000
330.907043 258.424988 -49.298302 0.000000
344.390320 258.424988 -49.298302 0.000000
-343.257996 244.941696 -49.298302 0.000000
-329.774689 244.941696 -49.298302 0.000000
-316.291382 244.941696 -49.298302 0.000000
-302.808105 244.941696 -49.298302 0.822555
-289.324799 244.941696 -49.298302 1.037813
-275.841492 244.941696 -49.298302 1.147357
-262.358185 244.941696 -49.298302 1.323442
-248.874893 244.941696 -49.298302 1.835833
-235.391602 244.941696 -49.298302 2.450035
-221.908295 244.941696 -49.298302 3.442137
-208.424988 244.941696 -49.298302 4.521390
-194.941696 244.941696 -49.298302 5.247595
-181.458389 244.941696 -49.298302 5.938659
-167.975098 244.941696 -49.298302 6.065578
-154.491791 244.941696 -49.298302 5.721449
-141.008499 244.941696 -49.298302 5.759851
-127.525192 244.941696 -49.298302 5.771332
-114.041885 244.941696 -49.298302 6.068668
-100.558594 244.941696 -49.298302 5.445894
-87.075287 244.941696 -49.298302 4.852742
-73.591980 244.941696 -49.298302 4.568958
-60.108704 244.941696 -49.298302 4.974852
-46.625397 244.941696 -49.298302 5.171258
-33.142090 244.941696 -49.298302 5.473985
-19.658783 244.941696 -49.298302 5.334292
-6.175476 244.941696 -49.298302 5.325260
7.307800 244.941696 -49.298302 5.428042
20.791107 244.941696 -49.298302 5.197098
34.274414 244.941696 -49.298302 4.899415
47.757721 244.941696 -49.298302 4.988992
61.240997 244.941696 -49.298302 5.275044
74.724304 244.941696 -49.298302 5.477985
88.207611 244.941696 -49.298302 5.519207
101.690918 244.941696 -49.298302 4.994011
115.174225 244.941696 -49.298302 5.077886
128.657501 244.941696 -49.298302 5.561788
142.140808 244.941696 -49.298302 5.707050
155.624115 244.941696 -49.298302 6.442927
169.107422 244.941696 -49.298302 7.179526
182.590698 244.941696 -49.298302 7.602407
196.074036 244.941696 -49.298302 8.451215
209.557312 244.941696 -49.298302 7.575137
223.040588 244.941696 -49.298302 6.108432
236.523926 244.941696 -49.298302 4.436801
250.007202 244.941696 -49.298302 2.564236
263.490540 244.941696 -49.298302 1.659843
276.973816 244.941696 -49.298302 1.494486
290.457092 244.941696 -49.298302 1.692482
303.940430 244.941696 -49.298302 0.000000
317.423706 244.941696 -49.298302 0.000000
330.907043 244.941696 -49.298302 0.000000
344.390320 244.941696 -49.298302 0.000000
-343.257996 231.458389 -49.298302 0.000000
-329.774689 231.458389 -49.298302 0.000000
-316.291382 231.458389 -49.298302 0.000000
-302.808105 231.458389 -49.298302 0.724425
-289.324799 231.458389 -49.298302 1.113580
-275.841492 231.458389 -49.298302 1.248446
-262.358185 231.458389 -49.298302 1.450523
-248.874893 231.458389 -49.298302 1.880287
-235.391602 231.458389 -49.298302 2.597274
-221.908295 231.458389 -49.298302 3.579990
-208.424988 231.458389 -49.298302 4.469128
-194.941696 231.458389 -49.298302 5.250858
-181.458389 231.458389 -49.298302 5.694665
-167.975098 231.458389 -49.298302 5.841672
-154.491791 231.458389 -49.298302 5.569779
-141.008499 231.458389 -49.298302 5.599394
-127.525192 231.458389 -49.298302 5.814759
-114.041885 231.458389 -49.298302 5.630017
-100.558594 231.458389 -49.298302 5.524141
-87.075287 231.458389 -49.298302 5.055806
-73.591980 231.458389 -49.298302 4.548143
-60.108704 231.458389 -49.298302 4.676923
-46.625397 231.458389 -49.298302 4.725649
-33.142090 231.458389 -49.298302 5.322688
-19.658783 231.458389 -49.298302 5.218026
-6.175476 231.458389 -49.298302 5.241114
7.307800 231.458389 -49.298302 5.015452
20.791107 231.458389 -49.298302 4.377543
34.274414 231.458389 -49.298302 4.474040
47.757721 231.458389 -49.298302 4.611751
61.240997 231.458389 -49.298302 4.477971
74.724304 231.458389 -49.298302 4.620054
88.207611 231.458389 -49.298302 4.728088
101.690918 231.458389 -49.298302 4.381038
115.174225 231.458389 -49.298302 4.743662
128.657501 231.458389 -49.298302 5.131013
142.140808 231.458389 -49.298302 5.598184
155.624115 231.458389 -49.298302 5.809952
169.107422 231.458389 -49.298302 6.148950
182.590698 231.458389 -49.298302 6.938051
196.074036 231.458389 -49.298302 7.497761
209.557312 231.458389 -49.298302 7.258477
223.040588 231.458389 -49.298302 5.677569
236.523926 231.458389 -49.298302 3.847712
250.007202 231.458389 -49.298302 2.338938
263.490540 231.458389 -49.298302 1.388631
276.973816 231.458389 -49.298302 1.231681
290.457092 231.458389 -49.298302 1.273239
303.940430 231.458389 -49.298302 0.000000
317.423706 231.458389 -49.298302 0.000000
330.907043 231.458389 -49.298302 0.000000
344.390320 231.458389 -49.298302 0.000000
-343.257996 217.975098 -49.298302 0.000000
-329.774689 217.975098 -49.298302 0.000000
-316.291382 217.975098 -49.298302 0.000000
-302.808105 217.975098 -49.298302 0.926295
-289.324799 217.975098 -49.298302 1.207518
-275.841492 217.975098 -49.298302 1.351694
-262.358185 217.975098 -49.298302 1.682437
-248.874893 217.975098 -49.298302 2.172630
-235.391602 217.975098 -49.298302 2.939426
-221.908295 217.975098 -49.298302 3.830395
-208.424988 217.975098 -49.298302 4.428547
-194.941696 217.975098 -49.298302 5.317023
-181.458389 217.975098 -49.298302 5.617588
-167.975098 217.975098 -49.298302 5.613457
-154.491791 217.975098 -49.298302 5.311272
-141.008499 217.975098 -49.298302 5.367705
-127.525192 217.975098 -49.298302 5.697638
-114.041885 217.975098 -49.298302 5.742866
-100.558594 217.975098 -49.298302 5.618210
-87.075287 217.975098 -49.298302 5.142939
-73.591980 217.975098 -49.298302 5.110754
-60.108704 217.975098 -49.298302 4.867217
-46.625397 217.975098 -49.298302 4.683695
-33.142090 217.975098 -49.298302 4.895421
-19.658783 217.975098 -49.298302 5.103481
-6.175476 217.975098 -49.298302 4.956932
7.307800 217.975098 -49.298302 4.799691
20.791107 217.975098 -49.298302 4.343264
34.274414 217.975098 -49.298302 4.434834
47.757721 217.975098 -49.298302 4.544913
61.240997 217.975098 -49.298302 4.546465
74.724304 217.975098 -49.298302 4.770956
88.207611 217.975098 -49.298302 5.076771
101.690918 217.975098 -49.298302 4.751713
115.174225 217.975098 -49.298302 5.029396
128.657501 217.975098 -49.298302 4.808262
142.140808 217.975098 -49.298302 5.089090
155.624115 217.975098 -49.298302 5.156003
169.107422 217.975098 -49.298302 5.755491
182.590698 217.975098 -49.298302 6.663178
196.074036 217.975098 -49.298302 7.068313
209.557312 217.975098 -49.298302 6.535853
223.040588 217.975098 -49.298302 4.931772
236.523926 217.975098 -49.298302 3.223657
250.007202 217.975098 -49.298302 1.978570
263.490540 217.975098 -49.298302 1.303030
276.973816 217.975098 -49.298302 1.129417
290.457092 217.975098 -49.298302 0.973785
303.940430 217.975098 -49.298302 0.000000
317.423706 217.975098 -49.298302 0.000000
330.907043 217.975098 -49.298302 0.000000
344.390320 217.975098 -49.298302 0.000000
-343.257996 204.491791 -49.298302 0.000000
-329.774689 204.491791 -49.298302 0.000000
-316.291382 204.491791 -49.298302 0.000000
-302.808105 204.491791 -49.298302 0.962480
-289.324799 204.491791 -49.298302 1.413014
-275.841492 204.491791 -49.298302 1.546406
-262.358185 204.491791 -49.298302 1.889282
-248.874893 204.491791 -49.298302 2.397553
-235.391602 204.491791 -49.298302 3.015362
-221.908295 204.491791 -49.298302 3.708103
-208.424988 204.491791 -49.298302 4.302555
-194.941696 204.491791 -49.298302 4.820667
-181.458389 204.491791 -49.298302 5.229068
-167.975098 204.491791 -49.298302 5.638770
-154.491791 204.491791 -49.298302 5.273501
-141.008499 204.491791 -49.298302 5.735226
-127.525192 204.491791 -49.298302 6.182141
-114.041885 204.491791 -49.298302 5.779082
-100.558594 204.491791 -49.298302 6.133790
-87.075287 204.491791 -49.298302 6.285147
-73.591980 204.491791 -49.298302 5.730466
-60.108704 204.491791 -49.298302 5.319508
-46.625397 204.491791 -49.298302 4.941415
-33.142090 204.491791 -49.298302 4.543108
-19.658783 204.491791 -49.298302 4.836360
-6.175476 204.491791 -49.298302 4.564984
7.307800 204.491791 -49.298302 4.792025
20.791107 204.491791 -49.298302 5.141267
34.274414 204.491791 -49.298302 5.108399
47.757721 204.491791 -49.298302 5.025552
61.240997 204.491791 -49.298302 4.858851
74.724304 204.491791 -49.298302 5.002944
88.207611 204.491791 -49.298302 5.062981
101.690918 204.491791 -49.298302 5.065837
115.174225 204.491791 -49.298302 5.368014
128.657501 204.491791 -49.298302 5.116549
142.140808 204.491791 -49.298302 4.669904
155.624115 204.491791 -49.298302 4.752147
169.107422 204.491791 -49.298302 5.467101
182.590698 204.491791 -49.298302 6.048491
196.074036 204.491791 -49.298302 6.532459
209.557312 204.491791 -49.298302 5.831833
223.040588 204.491791 -49.298302 4.102981
236.523926 204.491791 -49.298302 2.608681
250.007202 204.491791 -49.298302 1.712756
263.490540 204.491791 -49.298302 1.196211
276.973816 204.491791 -49.298302 0.910961
290.457092 204.491791 -49.298302 0.807599
303.940430 204.491791 -49.298302 0.000000
317.423706 204.491791 -49.298302 0.000000
330.907043 204.491791 -49.298302 0.000000
344.390320 204.491791 -49.298302 0.000000
-343.257996 191.008499 -49.298302 0.000000
-329.774689 191.008499 -49.298302 0.000000
-316.291382 191.008499 -49.298302 0.000000
-302.808105 191.008499 -49.298302 1.013828
-289.324799 191.008499 -49.298302 1.490011
-275.841492 191.008499 -49.298302 1.772517
-262.358185 191.008499 -49.298302 2.140125
-248.874893 191.008499 -49.298302 2.644390
-235.391602 191.008499 -49.298302 3.478621
-221.908295 191.008499 -49.298302 4.141048
-208.424988 191.008499 -49.298302 4.468333
-194.941696 191.008499 -49.298302 5.059194
-181.458389 191.008499 -49.298302 5.252498
-167.975098 191.008499 -49.298302 5.832622
-154.491791 191.008499 -49.298302 5.370525
-141.008499 191.008499 -49.298302 5.868934
-127.525192 191.008499 -49.298302 6.227881
-114.041885 191.008499 -49.298302 6.522818
-100.558594 191.008499 -49.298302 6.650672
-87.075287 191.008499 -49.298302 6.684140
-73.591980 191.008499 -49.298302 6.519018
-60.108704 191.008499 -49.298302 5.606771
-46.625397 191.008499 -49.298302 5.010552
-33.142090 191.008499 -49.298302 4.380804
-19.658783 191.008499 -49.298302 4.479617
-6.175476 191.008499 -49.298302 4.486751
7.307800 191.008499 -49.298302 4.738004
20.791107 191.008499 -49.298302 4.963371
34.274414 191.008499 -49.298302 4.829578
47.757721 191.008499 -49.298302 4.957043
61.240997 191.008499 -49.298302 5.174807
74.724304 191.008499 -49.298302 4.860854
88.207611 191.008499 -49.298302 4.668555
101.690918 191.008499 -49.298302 5.126903
115.174225 191.008499 -49.298302 5.488400
128.657501 191.008499 -49.298302 5.155077
142.140808 191.008499 -49.298302 4.721481
155.624115 191.008499 -49.298302 4.508558
169.107422 191.008499 -49.298302 5.050191
182.590698 191.008499 -49.298302 5.662030
196.074036 191.008499 -49.298302 5.382436
209.557312 191.008499 -49.298302 4.619875
223.040588 191.008499 -49.298302 3.248508
236.523926 191.008499 -49.298302 2.110406
250.007202 191.008499 -49.298302 1.357698
263.490540 191.008499 -49.298302 1.026654
276.973816 191.008499 -49.298302 0.794225
290.457092 191.008499 -49.298302 0.760524
303.940430 191.008499 -49.298302 0.000000
317.423706 191.008499 -49.298302 0.000000
330.907043 191.008499 -49.298302 0.000000
344.390320 191.008499 -49.298302 0.000000
-343.257996 177.525192 -49.298302 0.000000
-329.774689 177.525192 -49.298302 0.000000
-316.291382 177.525192 -49.298302 0.000000
-302.808105 177.525192 -49.298302 1.328518
-289.324799 177.525192 -49.298302 1.633019
-275.841492 177.525192 -49.298302 1.909408
-262.358185 177.525192 -49.298302 2.592235
-248.874893 177.525192 -49.298302 3.210006
-235.391602 177.525192 -49.298302 3.831295
-221.908295 177.525192 -49.298302 4.167138
-208.424988 177.525192 -49.298302 4.594590
-194.941696 177.525192 -49.298302 5.219399
-181.458389 177.525192 -49.298302 5.617756
-167.975098 177.525192 -49.298302 5.711747
-154.491791 177.525192 -49.298302 5.809048
-141.008499 177.525192 -49.298302 6.072970
-127.525192 177.525192 -49.298302 6.485534
-114.041885 177.525192 -49.298302 6.814368
-100.558594 177.525192 -49.298302 7.391060
-87.075287 177.525192 -49.298302 7.017241
-73.591980 177.525192 -49.298302 6.539135
-60.108704 177.525192 -49.298302 5.858340
-46.625397 177.525192 -49.298302 5.305055
-33.142090 177.525192 -49.298302 4.644219
-19.658783 177.525192 -49.298302 3.910514
-6.175476 177.525192 -49.298302 4.326277
7.307800 177.525192 -49.298302 4.395392
20.791107 177.525192 -49.298302 4.818706
34.274414 177.525192 -49.298302 4.815043
47.757721 177.525192 -49.298302 4.983873
61.240997 177.525192 -49.298302 4.622375
74.724304 177.525192 -49.298302 5.128771
88.207611 177.525192 -49.298302 5.126466
101.690918 177.525192 -49.298302 5.252820
115.174225 177.525192 -49.298302 4.841755
128.657501 177.525192 -49.298302 4.681040
142.140808 177.525192 -49.298302 4.819129
155.624115 177.525192 -49.298302 4.732890
169.107422 177.525192 -49.298302 4.714198
182.590698 177.525192 -49.298302 4.813719
196.074036 177.525192 -49.298302 4.266254
209.557312 177.525192 -49.298302 3.630873
223.040588 177.525192 -49.298302 2.690687
236.523926 177.525192 -49.298302 1.690108
250.007202 177.525192 -49.298302 1.135095
263.490540 177.525192 -49.298302 0.873990
276.973816 177.525192 -49.298302 0.780996
290.457092 177.525192 -49.298302 0.744332
303.940430 177.525192 -49.298302 0.000000
317.423706 177.525192 -49.298302 0.000000
330.907043 177.525192 -49.298302 0.000000
344.390320 177.525192 -49.298302 0.000000
-343.257996 164.041885 -49.298302 0.000000
-329.774689 164.041885 -49.298302 0.000000
-316.291382 164.041885 -49.298302 0.000000
-302.808105 164.041885 -49.298302 1.569701
-289.324799 164.041885 -49.298302 1.938572
-275.841492 164.041885 -49.298302 2.144293
-262.358185 164.041885 -49.298302 2.991226
-248.874893 164.041885 -49.298302 3.455914
-235.391602 164.041885 -49.298302 3.953253
-221.908295 164.041885 -49.298302 4.474353
-208.424988 164.041885 -49.298302 4.901087
-194.941696 164.041885 -49.298302 5.249329
-181.458389 164.041885 -49.298302 5.492621
-167.975098 164.041885 -49.298302 5.851317
-154.491791 164.041885 -49.298302 5.819862
-141.008499 164.041885 -49.298302 6.303095
-127.525192 164.041885 -49.298302 6.990788
-114.041885 164.041885 -49.298302 7.175856
-100.558594 164.041885 -49.298302 7.413980
-87.075287 164.041885 -49.298302 7.175949
-73.591980 164.041885 -49.298302 6.553185
-60.108704 164.041885 -49.298302 6.124641
-46.625397 164.041885 -49.298302 5.405684
-33.142090 164.041885 -49.298302 4.757238
-19.658783 164.041885 -49.298302 4.242176
-6.175476 164.041885 -49.298302 4.205916
7.307800 164.041885 -49.298302 4.580612
20.791107 164.041885 -49.298302 4.799420
34.274414 164.041885 -49.298302 4.828142
47.757721 164.041885 -49.298302 4.883532
61.240997 164.041885 -49.298302 5.133352
74.724304 164.041885 -49.298302 5.142790
88.207611 164.041885 -49.298302 4.985495
101.690918 164.041885 -49.298302 5.186032
115.174225 164.041885 -49.298302 4.480831
128.657501 164.041885 -49.298302 4.447824
142.140808 164.041885 -49.298302 4.554811
155.624115 164.041885 -49.298302 4.566833
169.107422 164.041885 -49.298302 4.428019
182.590698 164.041885 -49.298302 4.172691
196.074036 164.041885 -49.298302 3.640860
209.557312 164.041885 -49.298302 2.960505
223.040588 164.041885 -49.298302 1.910904
236.523926 164.041885 -49.298302 1.308888
250.007202 164.041885 -49.298302 0.891342
263.490540 164.041885 -49.298302 0.784390
276.973816 164.041885 -49.298302 0.673644
290.457092 164.041885 -49.298302 0.607125
303.940430 164.041885 -49.298302 0.000000
317.423706 164.041885 -49.298302 0.000000
330.907043 164.041885 -49.298302 0.000000
344.390320 164.041885 -49.298302 0.000000
-343.257996 150.558594 -49.298302 0.000000
-329.774689 150.558594 -49.298302 0.000000
-316.291382 150.558594 -49.298302 0.000000
-302.808105 150.558594 -49.298302 2.137491
-289.324799 150.558594 -49.298302 2.524706
-275.841492 150.558594 -49.298302 2.685977
-262.358185 150.558594 -49.298302 3.106652
-248.874893 150.558594 -49.298302 3.865097
-235.391602 150.558594 -49.298302 4.461982
-221.908295 150.558594 -49.298302 4.869549
-208.424988 150.558594 -49.298302 4.893009
-194.941696 150.558594 -49.298302 5.464051
-181.458389 150.558594 -49.298302 5.807051
-167.975098 150.558594 -49.298302 5.974114
-154.491791 150.558594 -49.298302 6.469020
-141.008499 150.558594 -49.298302 7.182065
-127.525192 150.558594 -49.298302 7.404301
-114.041885 150.558594 -49.298302 7.335503
-100.558594 150.558594 -49.298302 7.418527
-87.075287 150.558594 -49.298302 7.333829
-73.591980 150.558594 -49.298302 6.933611
-60.108704 150.558594 -49.298302 6.361825
-46.625397 150.558594 -49.298302 5.413262
-33.142090 150.558594 -49.298302 4.557343
-19.658783 150.558594 -49.298302 4.334853
-6.175476 150.558594 -49.298302 4.288700
7.307800 150.558594 -49.298302 4.591182
20.791107 150.558594 -49.298302 4.939370
34.274414 150.558594 -49.298302 5.224168
47.757721 150.558594 -49.298302 4.971404
61.240997 150.558594 -49.298302 5.601109
74.724304 150.558594 -49.298302 5.758750
88.207611 150.558594 -49.298302 5.417158
101.690918 150.558594 -49.298302 4.793394
115.174225 150.558594 -49.298302 4.201331
128.657501 150.558594 -49.298302 4.268681
142.140808 150.558594 -49.298302 4.290112
155.624115 150.558594 -49.298302 4.205621
169.107422 150.558594 -49.298302 3.877095
182.590698 150.558594 -49.298302 3.545708
196.074036 150.558594 -49.298302 3.160155
209.557312 150.558594 -49.298302 2.135619
223.040588 150.558594 -49.298302 1.497557
236.523926 150.558594 -49.298302 1.078175
250.007202 150.558594 -49.298302 0.760224
263.490540 150.558594 -49.298302 0.659595
276.973816 150.558594 -49.298302 0.608197
290.457092 150.558594 -49.298302 0.536646
303.940430 150.558594 -49.298302 0.000000
317.423706 150.558594 -49.298302 0.000000
330.907043 150.558594 -49.298302 0.000000
344.390320 150.558594 -49.298302 0.000000
-343.257996 137.075287 -49.298302 0.000000
-329.774689 137.075287 -49.298302 0.000000
-316.291382 137.075287 -49.298302 0.000000
-302.808105 137.075287 -49.298302 2.109332
-289.324799 137.075287 -49.298302 2.814797
-275.841492 137.075287 -49.298302 2.828068
-262.358185 137.075287 -49.298302 3.372290
-248.874893 137.075287 -49.298302 4.038517
-235.391602 137.075287 -49.298302 4.602313
-221.908295 137.075287 -49.298302 4.832221
-208.424988 137.075287 -49.298302 5.090159
-194.941696 137.075287 -49.298302 5.641214
-181.458389 137.075287 -49.298302 6.139883
-167.975098 137.075287 -49.298302 6.680248
-154.491791 137.075287 -49.298302 6.904093
-141.008499 137.075287 -49.298302 7.997341
-127.525192 137.075287 -49.298302 8.201168
-114.041885 137.075287 -49.298302 8.454136
-100.558594 137.075287 -49.298302 8.054427
-87.075287 137.075287 -49.298302 7.789159
-73.591980 137.075287 -49.298302 7.573413
-60.108704 137.075287 -49.298302 6.512114
-46.625397 137.075287 -49.298302 5.494676
-33.142090 137.075287 -49.298302 4.889696
-19.658783 137.075287 -49.298302 4.737434
-6.175476 137.075287 -49.298302 4.539132
7.307800 137.075287 -49.298302 4.196323
20.791107 137.075287 -49.298302 5.019845
34.274414 137.075287 -49.298302 5.606706
47.757721 137.075287 -49.298302 5.550543
61.240997 137.075287 -49.298302 5.465868
74.724304 137.075287 -49.298302 6.317163
88.207611 137.075287 -49.298302 5.835016
101.690918 137.075287 -49.298302 4.750296
115.174225 137.075287 -49.298302 4.305421
128.657501 137.075287 -49.298302 4.297222
142.140808 137.075287 -49.298302 4.153593
155.624115 137.075287 -49.298302 3.950758
169.107422 137.075287 -49.298302 3.474614
182.590698 137.075287 -49.298302 2.850982
196.074036 137.075287 -49.298302 2.338547
209.557312 137.075287 -49.298302 1.682754
223.040588 137.075287 -49.298302 1.228694
236.523926 137.075287 -49.298302 0.931257
250.007202 137.075287 -49.298302 0.730892
263.490540 137.075287 -49.298302 0.605505
276.973816 137.075287 -49.298302 0.545509
290.457092 137.075287 -49.298302 0.480012
303.940430 137.075287 -49.298302 0.000000
317.423706 137.075287 -49.298302 0.000000
330.907043 137.075287 -49.298302 0.000000
344.390320 137.075287 -49.298302 0.000000
-343.257996 123.591980 -49.298302 0.000000
-329.774689 123.591980 -49.298302 0.000000
-316.291382 123.591980 -49.298302 0.000000
-302.808105 123.591980 -49.298302 0.000000
-289.324799 123.591980 -49.298302 2.792933
-275.841492 123.591980 -49.298302 2.936910
-262.358185 123.591980 -49.298302 3.398463
-248.874893 123.591980 -49.298302 3.818008
-235.391602 123.591980 -49.298302 4.762315
-221.908295 123.591980 -49.298302 5.028554
-208.424988 123.591980 -49.298302 5.596111
-194.941696 123.591980 -49.298302 6.236813
-181.458389 123.591980 -49.298302 6.390399
-167.975098 123.591980 -49.298302 7.405253
-154.491791 123.591980 -49.298302 7.864140
-141.008499 123.591980 -49.298302 8.583186
-127.525192 123.591980 -49.298302 8.974357
-114.041885 123.591980 -49.298302 9.254598
-100.558594 123.591980 -49.298302 9.088766
-87.075287 123.591980 -49.298302 8.710459
-73.591980 123.591980 -49.298302 7.925070
-60.108704 123.591980 -49.298302 6.942171
-46.625397 123.591980 -49.298302 5.574485
-33.142090 123.591980 -49.298302 4.881835
-19.658783 123.591980 -49.298302 4.654838
-6.175476 123.591980 -49.298302 4.434622
7.307800 123.591980 -49.298302 4.361442
20.791107 123.591980 -49.298302 4.767303
34.274414 123.591980 -49.298302 5.900228
47.757721 123.591980 -49.298302 6.257247
61.240997 123.591980 -49.298302 6.408089
74.724304 123.591980 -49.298302 6.512689
88.207611 123.591980 -49.298302 6.312138
101.690918 123.591980 -49.298302 5.046554
115.174225 123.591980 -49.298302 4.284459
128.657501 123.591980 -49.298302 4.176309
142.140808 123.591980 -49.298302 3.989640
155.624115 123.591980 -49.298302 3.747068
169.107422 123.591980 -49.298302 3.253958
182.590698 123.591980 -49.298302 2.638844
196.074036 123.591980 -49.298302 1.832590
209.557312 123.591980 -49.298302 1.389625
223.040588 123.591980 -49.298302 1.081266
236.523926 123.591980 -49.298302 0.825774
250.007202 123.591980 -49.298302 0.667573
263.490540 123.591980 -49.298302 0.586390
276.973816 123.591980 -49.298302 0.511180
290.457092 123.591980 -49.298302 0.439534
303.940430 123.591980 -49.298302 0.000000
317.423706 123.591980 -49.298302 0.000000
330.907043 123.591980 -49.298302 0.000000
344.390320 123.591980 -49.298302 0.000000
-343.257996 110.108704 -49.298302 0.000000
-329.774689 110.108704 -49.298302 0.000000
-316.291382 110.108704 -49.298302 0.000000
-302.808105 110.108704 -49.298302 0.000000
-289.324799 110.108704 -49.298302 3.107148
-275.841492 110.108704 -49.298302 3.176782
-262.358185 110.108704 -49.298302 3.475786
-248.874893 110.108704 -49.298302 4.309224
-235.391602 110.108704 -49.298302 4.629475
-221.908295 110.108704 -49.298302 5.252156
-208.424988 110.108704 -49.298302 5.485077
-194.941696 110.108704 -49.298302 6.408024
-181.458389 110.108704 -49.298302 7.052290
-167.975098 110.108704 -49.298302 8.133925
-154.491791 110.108704 -49.298302 8.824853
-141.008499 110.108704 -49.298302 9.366724
-127.525192 110.108704 -49.298302 10.626982
-114.041885 110.108704 -49.298302 11.061076
-100.558594 110.108704 -49.298302 9.841559
-87.075287 110.108704 -49.298302 9.348758
-73.591980 110.108704 -49.298302 8.774479
-60.108704 110.108704 -49.298302 7.047039
-46.625397 110.108704 -49.298302 5.972524
-33.142090 110.108704 -49.298302 5.226175
-19.658783 110.108704 -49.298302 4.326687
-6.175476 110.108704 -49.298302 4.507177
7.307800 110.108704 -49.298302 4.614500
20.791107 110.108704 -49.298302 5.013543
34.274414 110.108704 -49.298302 5.990846
47.757721 110.108704 -49.298302 6.887940
61.240997 110.108704 -49.298302 7.094779
74.724304 110.108704 -49.298302 7.029247
88.207611 110.108704 -49.298302 6.689836
101.690918 110.108704 -49.298302 5.608838
115.174225 110.108704 -49.298302 4.568455
128.657501 110.108704 -49.298302 4.192531
142.140808 110.108704 -49.298302 3.818696
155.624115 110.108704 -49.298302 3.325773
169.107422 110.108704 -49.298302 2.651485
182.590698 110.108704 -49.298302 2.111221
196.074036 110.108704 -49.298302 1.536789
209.557312 110.108704 -49.298302 1.216309
223.040588 110.108704 -49.298302 0.915653
236.523926 110.108704 -49.298302 0.767204
250.007202 110.108704 -49.298302 0.601065
263.490540 110.108704 -49.298302 0.523084
276.973816 110.108704 -49.298302 0.453020
290.457092 110.108704 -49.298302 0.399406
303.940430 110.108704 -49.298302 0.000000
317.423706 110.108704 -49.298302 0.000000
330.907043 110.108704 -49.298302 0.000000
344.390320 110.108704 -49.298302 0.000000
-343.257996 96.625397 -49.298302 0.000000
-329.774689 96.625397 -49.298302 0.000000
-316.291382 96.625397 -49.298302 0.000000
-302.808105 96.625397 -49.298302 0.000000
-289.324799 96.625397 -49.298302 3.209172
-275.841492 96.625397 -49.298302 3.465724
-262.358185 96.625397 -49.298302 3.752626
-248.874893 96.625397 -49.298302 4.392746
-235.391602 96.625397 -49.298302 4.822393
-221.908295 96.625397 -49.298302 4.942779
-208.424988 96.625397 -49.298302 5.521399
-194.941696 96.625397 -49.298302 6.349109
-181.458389 96.625397 -49.298302 7.259269
-167.975098 96.625397 -49.298302 9.392805
-154.491791 96.625397 -49.298302 10.993256
-141.008499 96.625397 -49.298302 12.185209
-127.525192 96.625397 -49.298302 12.794834
-114.041885 96.625397 -49.298302 12.661948
-100.558594 96.625397 -49.298302 11.743508
-87.075287 96.625397 -49.298302 9.921093
-73.591980 96.625397 -49.298302 8.325973
-60.108704 96.625397 -49.298302 7.115539
-46.625397 96.625397 -49.298302 6.223460
-33.142090 96.625397 -49.298302 5.350379
-19.658783 96.625397 -49.298302 4.410529
-6.175476 96.625397 -49.298302 4.091479
7.307800 96.625397 -49.298302 4.566347
20.791107 96.625397 -49.298302 5.398106
34.274414 96.625397 -49.298302 6.144404
47.757721 96.625397 -49.298302 7.686325
61.240997 96.625397 -49.298302 7.721831
74.724304 96.625397 -49.298302 7.571464
88.207611 96.625397 -49.298302 7.768274
101.690918 96.625397 -49.298302 6.532288
115.174225 96.625397 -49.298302 5.476106
128.657501 96.625397 -49.298302 4.172164
142.140808 96.625397 -49.298302 3.752743
155.624115 96.625397 -49.298302 3.106892
169.107422 96.625397 -49.298302 2.603760
182.590698 96.625397 -49.298302 2.221905
196.074036 96.625397 -49.298302 1.474234
209.557312 96.625397 -49.298302 1.156110
223.040588 96.625397 -49.298302 0.897529
236.523926 96.625397 -49.298302 0.736985
250.007202 96.625397 -49.298302 0.598099
263.490540 96.625397 -49.298302 0.487425
276.973816 96.625397 -49.298302 0.439511
290.457092 96.625397 -49.298302 0.409071
303.940430 96.625397 -49.298302 0.000000
317.423706 96.625397 -49.298302 0.000000
330.907043 96.625397 -49.298302 0.000000
344.390320 96.625397 -49.298302 0.000000
-343.257996 83.142090 -49.298302 0.000000
-329.774689 83.142090 -49.298302 0.000000
-316.291382 83.142090 -49.298302 0.000000
-302.808105 83.142090 -49.298302 0.000000
-289.324799 83.142090 -49.298302 3.909209
-275.841492 83.142090 -49.298302 4.007232
-262.358185 83.142090 -49.298302 3.972599
-248.874893 83.142090 -49.298302 4.419422
-235.391602 83.142090 -49.298302 4.781866
-221.908295 83.142090 -49.298302 5.130109
-208.424988 83.142090 -49.298302 5.530111
-194.941696 83.142090 -49.298302 7.018494
-181.458389 83.142090 -49.298302 8.087481
-167.975098 83.142090 -49.298302 10.565682
-154.491791 83.142090 -49.298302 12.830797
-141.008499 83.142090 -49.298302 14.164953
-127.525192 83.142090 -49.298302 14.563398
-114.041885 83.142090 -49.298302 13.983107
-100.558594 83.142090 -49.298302 13.280997
-87.075287 83.142090 -49.298302 10.545165
-73.591980 83.142090 -49.298302 9.088070
-60.108704 83.142090 -49.298302 7.572885
-46.625397 83.142090 -49.298302 6.840317
-33.142090 83.142090 -49.298302 5.392242
-19.658783 83.142090 -49.298302 4.665907
-6.175476 83.142090 -49.298302 4.502845
7.307800 83.142090 -49.298302 4.872847
20.791107 83.142090 -49.298302 5.476347
34.274414 83.142090 -49.298302 6.490928
47.757721 83.142090 -49.298302 7.549369
61.240997 83.142090 -49.298302 8.256547
74.724304 83.142090 -49.298302 8.513885
88.207611 83.142090 -49.298302 8.713007
101.690918 83.142090 -49.298302 7.646747
115.174225 83.142090 -49.298302 6.874210
128.657501 83.142090 -49.298302 5.172230
142.140808 83.142090 -49.298302 4.320422
155.624115 83.142090 -49.298302 3.431794
169.107422 83.142090 -49.298302 2.656768
182.590698 83.142090 -49.298302 2.063993
196.074036 83.142090 -49.298302 1.383381
209.557312 83.142090 -49.298302 1.163888
223.040588 83.142090 -49.298302 0.981970
236.523926 83.142090 -49.298302 0.777054
250.007202 83.142090 -49.298302 0.642189
263.490540 83.142090 -49.298302 0.545515
276.973816 83.142090 -49.298302 0.474649
290.457092 83.142090 -49.298302 0.451003
303.940430 83.142090 -49.298302 0.000000
317.423706 83.142090 -49.298302 0.000000
330.907043 83.142090 -49.298302 0.000000
344.390320 83.142090 -49.298302 0.000000
-343.257996 69.658783 -49.298302 0.000000
-329.774689 69.658783 -49.298302 0.000000
-316.291382 69.658783 -49.298302 0.000000
-302.808105 69.658783 -49.298302 0.000000
-289.324799 69.658783 -49.298302 3.902503
-275.841492 69.658783 -49.298302 4.333519
-262.358185 69.658783 -49.298302 3.959717
-248.874893 69.658783 -49.298302 4.144009
-235.391602 69.658783 -49.298302 4.416119
-221.908295 69.658783 -49.298302 4.972214
-208.424988 69.658783 -49.298302 5.678409
-194.941696 69.658783 -49.298302 7.196323
-181.458389 69.658783 -49.298302 9.370966
-167.975098 69.658783 -49.298302 12.259103
-154.491791 69.658783 -49.298302 14.110564
-141.008499 69.658783 -49.298302 15.652041
-127.525192 69.658783 -49.298302 16.661953
-114.041885 69.658783 -49.298302 16.143829
-100.558594 69.658783 -49.298302 14.322923
-87.075287 69.658783 -49.298302 11.868987
-73.591980 69.658783 -49.298302 10.222995
-60.108704 69.658783 -49.298302 9.200265
-46.625397 69.658783 -49.298302 7.275877
-33.142090 69.658783 -49.298302 5.977479
-19.658783 69.658783 -49.298302 5.211656
-6.175476 69.658783 -49.298302 4.657986
7.307800 69.658783 -49.298302 5.037002
20.791107 69.658783 -49.298302 5.342492
34.274414 69.658783 -49.298302 6.351936
47.757721 69.658783 -49.298302 7.567595
61.240997 69.658783 -49.298302 8.192274
74.724304 69.658783 -49.298302 9.270348
88.207611 69.658783 -49.298302 9.729319
101.690918 69.658783 -49.298302 8.713825
115.174225 69.658783 -49.298302 8.261264
128.657501 69.658783 -49.298302 6.072037
142.140808 69.658783 -49.298302 4.998016
155.624115 69.658783 -49.298302 3.781380
169.107422 69.658783 -49.298302 3.000900
182.590698 69.658783 -49.298302 2.333285
196.074036 69.658783 -49.298302 1.691873
209.557312 69.658783 -49.298302 1.158941
223.040588 69.658783 -49.298302 1.031909
236.523926 69.658783 -49.298302 0.873238
250.007202 69.658783 -49.298302 0.730081
263.490540 69.658783 -49.298302 0.648527
276.973816 69.658783 -49.298302 0.553763
290.457092 69.658783 -49.298302 0.524576
303.940430 69.658783 -49.298302 0.000000
317.423706 69.658783 -49.298302 0.000000
330.907043 69.658783 -49.298302 0.000000
344.390320 69.658783 -49.298302 0.000000
-343.257996 56.175476 -49.298302 0.000000
-329.774689 56.175476 -49.298302 0.000000
-316.291382 56.175476 -49.298302 0.000000
-302.808105 56.175476 -49.298302 0.000000
-289.324799 56.175476 -49.298302 3.867542
-275.841492 56.175476 -49.298302 4.280166
-262.358185 56.175476 -49.298302 3.959724
-248.874893 56.175476 -49.298302 3.883951
-235.391602 56.175476 -49.298302 4.053944
-221.908295 56.175476 -49.298302 4.742303
-208.424988 56.175476 -49.298302 6.455553
-194.941696 56.175476 -49.298302 8.548135
-181.458389 56.175476 -49.298302 11.295044
-167.975098 56.175476 -49.298302 14.769043
-154.491791 56.175476 -49.298302 17.146761
-141.008499 56.175476 -49.298302 18.154118
-127.525192 56.175476 -49.298302 16.732449
-114.041885 56.175476 -49.298302 16.861195
-100.558594 56.175476 -49.298302 15.716377
-87.075287 56.175476 -49.298302 13.403460
-73.591980 56.175476 -49.298302 10.363873
-60.108704 56.175476 -49.298302 9.015223
-46.625397 56.175476 -49.298302 7.325737
-33.142090 56.175476 -49.298302 6.162815
-19.658783 56.175476 -49.298302 5.743106
-6.175476 56.175476 -49.298302 4.907944
7.307800 56.175476 -49.298302 5.086129
20.791107 56.175476 -49.298302 5.055943
34.274414 56.175476 -49.298302 5.633410
47.757721 56.175476 -49.298302 6.823869
61.240997 56.175476 -49.298302 8.060146
74.724304 56.175476 -49.298302 8.878302
88.207611 56.175476 -49.298302 9.628836
101.690918 56.175476 -49.298302 9.314465
115.174225 56.175476 -49.298302 8.059402
128.657501 56.175476 -49.298302 6.723706
142.140808 56.175476 -49.298302 5.600818
155.624115 56.175476 -49.298302 4.260710
169.107422 56.175476 -49.298302 3.430203
182.590698 56.175476 -49.298302 2.841810
196.074036 56.175476 -49.298302 1.933774
209.557312 56.175476 -49.298302 1.391555
223.040588 56.175476 -49.298302 1.101290
236.523926 56.175476 -49.298302 1.150914
250.007202 56.175476 -49.298302 0.922805
263.490540 56.175476 -49.298302 0.759745
276.973816 56.175476 -49.298302 0.642288
290.457092 56.175476 -49.298302 0.695485
303.940430 56.175476 -49.298302 0.000000
317.423706 56.175476 -49.298302 0.000000
330.907043 56.175476 -49.298302 0.000000
344.390320 56.175476 -49.298302 0.000000
-343.257996 42.692200 -49.298302 0.000000
-329.774689 42.692200 -49.298302 0.000000
-316.291382 42.692200 -49.298302 0.000000
-302.808105 42.692200 -49.298302 0.000000
-289.324799 42.692200 -49.298302 3.866614
-275.841492 42.692200 -49.298302 4.078213
-262.358185 42.692200 -49.298302 3.806789
-248.874893 42.692200 -49.298302 3.478612
-235.391602 42.692200 -49.298302 4.077815
-221.908295 42.692200 -49.298302 5.273186
-208.424988 42.692200 -49.298302 7.266526
-194.941696 42.692200 -49.298302 9.862469
-181.458389 42.692200 -49.298302 12.894200
-167.975098 42.692200 -49.298302 17.756174
-154.491791 42.692200 -49.298302 19.176695
-141.008499 42.692200 -49.298302 20.245377
-127.525192 42.692200 -49.298302 18.699810
-114.041885 42.692200 -49.298302 17.881910
-100.558594 42.692200 -49.298302 16.140938
-87.075287 42.692200 -49.298302 13.093817
-73.591980 42.692200 -49.298302 10.173193
-60.108704 42.692200 -49.298302 8.744991
-46.625397 42.692200 -49.298302 7.258409
-33.142090 42.692200 -49.298302 6.630061
-19.658783 42.692200 -49.298302 5.573853
-6.175476 42.692200 -49.298302 5.804375
7.307800 42.692200 -49.298302 5.221877
20.791107 42.692200 -49.298302 4.885101
34.274414 42.692200 -49.298302 5.316599
47.757721 42.692200 -49.298302 7.025257
61.240997 42.692200 -49.298302 7.518685
74.724304 42.692200 -49.298302 8.379916
88.207611 42.692200 -49.298302 8.773420
101.690918 42.692200 -49.298302 8.855632
115.174225 42.692200 -49.298302 8.291942
128.657501 42.692200 -49.298302 6.835308
142.140808 42.692200 -49.298302 6.140696
155.624115 42.692200 -49.298302 5.214750
169.107422 42.692200 -49.298302 4.095790
182.590698 42.692200 -49.298302 3.275011
196.074036 42.692200 -49.298302 2.190426
209.557312 42.692200 -49.298302 1.618874
223.040588 42.692200 -49.298302 1.326441
236.523926 42.692200 -49.298302 1.207154
250.007202 42.692200 -49.298302 1.007501
263.490540 42.692200 -49.298302 0.929255
276.973816 42.692200 -49.298302 0.867249
290.457092 42.692200 -49.298302 0.874721
303.940430 42.692200 -49.298302 0.000000
317.423706 42.692200 -49.298302 0.000000
330.907043 42.692200 -49.298302 0.000000
344.390320 42.692200 -49.298302 0.000000
-343.257996 29.208893 -49.298302 0.000000
-329.774689 29.208893 -49.298302 0.000000
-316.291382 29.208893 -49.298302 0.000000
-302.808105 29.208893 -49.298302 0.000000
-289.324799 29.208893 -49.298302 3.369641
-275.841492 29.208893 -49.298302 3.470281
-262.358185 29.208893 -49.298302 3.665631
-248.874893 29.208893 -49.298302 3.905573
-235.391602 29.208893 -49.298302 4.168033
-221.908295 29.208893 -49.298302 5.441912
-208.424988 29.208893 -49.298302 7.940360
-194.941696 29.208893 -49.298302 11.060745
-181.458389 29.208893 -49.298302 14.047330
-167.975098 29.208893 -49.298302 18.833006
-154.491791 29.208893 -49.298302 20.524254
-141.008499 29.208893 -49.298302 22.717655
-127.525192 29.208893 -49.298302 19.248903
-114.041885 29.208893 -49.298302 18.765890
-100.558594 29.208893 -49.298302 15.940743
-87.075287 29.208893 -49.298302 13.392931
-73.591980 29.208893 -49.298302 10.578628
-60.108704 29.208893 -49.298302 8.559407
-46.625397 29.208893 -49.298302 7.772428
-33.142090 29.208893 -49.298302 6.953626
-19.658783 29.208893 -49.298302 5.683767
-6.175476 29.208893 -49.298302 5.517746
7.307800 29.208893 -49.298302 4.957880
20.791107 29.208893 -49.298302 4.788327
34.274414 29.208893 -49.298302 5.256010
47.757721 29.208893 -49.298302 5.952070
61.240997 29.208893 -49.298302 6.823554
74.724304 29.208893 -49.298302 7.644801
88.207611 29.208893 -49.298302 8.910094
101.690918 29.208893 -49.298302 8.989722
115.174225 29.208893 -49.298302 8.134263
128.657501 29.208893 -49.298302 6.842481
142.140808 29.208893 -49.298302 6.513813
155.624115 29.208893 -49.298302 5.567262
169.107422 29.208893 -49.298302 4.726573
182.590698 29.208893 -49.298302 3.558754
196.074036 29.208893 -49.298302 2.587535
209.557312 29.208893 -49.298302 1.884715
223.040588 29.208893 -49.298302 1.569731
236.523926 29.208893 -49.298302 1.432147
250.007202 29.208893 -49.298302 1.193669
263.490540 29.208893 -49.298302 1.084961
276.973816 29.208893 -49.298302 0.913477
290.457092 29.208893 -49.298302 0.984782
303.940430 29.208893 -49.298302 0.000000
317.423706 29.208893 -49.298302 0.000000
330.907043 29.208893 -49.298302 0.000000
344.390320 29.208893 -49.298302 0.000000
-343.257996 15.725586 -49.298302 0.000000
-329.774689 15.725586 -49.298302 0.000000
-316.291382 15.725586 -49.298302 0.000000
-302.808105 15.725586 -49.298302 0.000000
-289.324799 15.725586 -49.298302 2.751469
-275.841492 15.725586 -49.298302 3.593948
-262.358185 15.725586 -49.298302 2.940468
-248.874893 15.725586 -49.298302 4.111553
-235.391602 15.725586 -49.298302 4.051476
-221.908295 15.725586 -49.298302 4.525623
-208.424988 15.725586 -49.298302 7.319241
-194.941696 15.725586 -49.298302 10.854029
-181.458389 15.725586 -49.298302 14.371054
-167.975098 15.725586 -49.298302 19.060987
-154.491791 15.725586 -49.298302 23.231777
-141.008499 15.725586 -49.298302 23.692284
-127.525192 15.725586 -49.298302 21.989872
-114.041885 15.725586 -49.298302 19.098484
-100.558594 15.725586 -49.298302 16.115240
-87.075287 15.725586 -49.298302 13.927760
-73.591980 15.725586 -49.298302 12.049976
-60.108704 15.725586 -49.298302 8.717965
-46.625397 15.725586 -49.298302 8.005526
-33.142090 15.725586 -49.298302 7.013525
-19.658783 15.725586 -49.298302 5.841602
-6.175476 15.725586 -49.298302 5.289044
7.307800 15.725586 -49.298302 4.848691
20.791107 15.725586 -49.298302 4.693703
34.274414 15.725586 -49.298302 5.061574
47.757721 15.725586 -49.298302 5.799923
61.240997 15.725586 -49.298302 6.827469
74.724304 15.725586 -49.298302 8.257587
88.207611 15.725586 -49.298302 8.842512
101.690918 15.725586 -49.298302 8.692657
115.174225 15.725586 -49.298302 8.290249
128.657501 15.725586 -49.298302 7.290235
142.140808 15.725586 -49.298302 6.694440
155.624115 15.725586 -49.298302 5.895057
169.107422 15.725586 -49.298302 4.854818
182.590698 15.725586 -49.298302 3.740967
196.074036 15.725586 -49.298302 2.876878
209.557312 15.725586 -49.298302 2.075544
223.040588 15.725586 -49.298302 1.780259
236.523926 15.725586 -49.298302 1.699528
250.007202 15.725586 -49.298302 1.530860
263.490540 15.725586 -49.298302 1.364799
276.973816 15.725586 -49.298302 1.292863
290.457092 15.725586 -49.298302 1.211037
303.940430 15.725586 -49.298302 0.000000
317.423706 15.725586 -49.298302 0.000000
330.907043 15.725586 -49.298302 0.000000
344.390320 15.725586 -49.298302 0.000000
-343.257996 2.242279 -49.298302 0.000000
-329.774689 2.242279 -49.298302 0.000000
-316.291382 2.242279 -49.298302 0.000000
-302.808105 2.242279 -49.298302 0.000000
-289.324799 2.242279 -49.298302 2.767431
-275.841492 2.242279 -49.298302 2.482079
-262.358185 2.242279 -49.298302 2.405492
-248.874893 2.242279 -49.298302 3.879191
-235.391602 2.242279 -49.298302 4.157252
-221.908295 2.242279 -49.298302 5.745984
-208.424988 2.242279 -49.298302 8.317439
-194.941696 2.242279 -49.298302 11.933137
-181.458389 2.242279 -49.298302 15.748692
-167.975098 2.242279 -49.298302 20.036713
-154.491791 2.242279 -49.298302 23.588043
-141.008499 2.242279 -49.298302 24.542891
-127.525192 2.242279 -49.298302 23.620342
-114.041885 2.242279 -49.298302 20.387545
-100.558594 2.242279 -49.298302 15.825438
-87.075287 2.242279 -49.298302 14.098531
-73.591980 2.242279 -49.298302 12.058195
-60.108704 2.242279 -49.298302 10.175009
-46.625397 2.242279 -49.298302 8.751837
-33.142090 2.242279 -49.298302 6.618678
-19.658783 2.242279 -49.298302 5.597548
-6.175476 2.242279 -49.298302 5.537059
7.307800 2.242279 -49.298302 5.176926
20.791107 2.242279 -49.298302 5.076917
34.274414 2.242279 -49.298302 5.396488
47.757721 2.242279 -49.298302 6.111578
61.240997 2.242279 -49.298302 7.400403
74.724304 2.242279 -49.298302 8.985650
88.207611 2.242279 -49.298302 9.132586
101.690918 2.242279 -49.298302 9.076282
115.174225 2.242279 -49.298302 8.551476
128.657501 2.242279 -49.298302 7.928605
142.140808 2.242279 -49.298302 6.403034
155.624115 2.242279 -49.298302 5.989105
169.107422 2.242279 -49.298302 4.943792
182.590698 2.242279 -49.298302 4.004655
196.074036 2.242279 -49.298302 3.289232
209.557312 2.242279 -49.298302 2.502920
223.040588 2.242279 -49.298302 2.094789
236.523926 2.242279 -49.298302 1.858978
250.007202 2.242279 -49.298302 1.698664
263.490540 2.242279 -49.298302 1.545905
276.973816 2.242279 -49.298302 1.469373
290.457092 2.242279 -49.298302 1.209709
303.940430 2.242279 -49.298302 0.000000
317.423706 2.242279 -49.298302 0.000000
330.907043 2.242279 -49.298302 0.000000
344.390320 2.242279 -49.298302 0.000000
-343.257996 -11.240997 -49.298302 0.000000
-329.774689 -11.240997 -49.298302 0.000000
-316.291382 -11.240997 -49.298302 0.000000
-302.808105 -11.240997 -49.298302 0.000000
-289.324799 -11.240997 -49.298302 2.284960
-275.841492 -11.240997 -49.298302 2.366362
-262.358185 -11.240997 -49.298302 2.231325
-248.874893 -11.240997 -49.298302 2.517246
-235.391602 -11.240997 -49.298302 4.934086
-221.908295 -11.240997 -49.298302 6.616204
-208.424988 -11.240997 -49.298302 8.782017
-194.941696 -11.240997 -49.298302 12.713794
-181.458389 -11.240997 -49.298302 15.633883
-167.975098 -11.240997 -49.298302 19.660137
-154.491791 -11.240997 -49.298302 21.992908
-141.008499 -11.240997 -49.298302 23.094490
-127.525192 -11.240997 -49.298302 23.343456
-114.041885 -11.240997 -49.298302 20.123158
-100.558594 -11.240997 -49.298302 18.681252
-87.075287 -11.240997 -49.298302 14.859744
-73.591980 -11.240997 -49.298302 12.736299
-60.108704 -11.240997 -49.298302 10.331460
-46.625397 -11.240997 -49.298302 8.638936
-33.142090 -11.240997 -49.298302 6.842189
-19.658783 -11.240997 -49.298302 5.779959
-6.175476 -11.240997 -49.298302 5.826793
7.307800 -11.240997 -49.298302 5.906687
20.791107 -11.240997 -49.298302 5.457539
34.274414 -11.240997 -49.298302 6.052817
47.757721 -11.240997 -49.298302 6.948036
61.240997 -11.240997 -49.298302 8.678740
74.724304 -11.240997 -49.298302 9.813319
88.207611 -11.240997 -49.298302 10.085416
101.690918 -11.240997 -49.298302 9.338231
115.174225 -11.240997 -49.298302 8.283066
128.657501 -11.240997 -49.298302 7.757700
142.140808 -11.240997 -49.298302 6.547800
155.624115 -11.240997 -49.298302 5.514093
169.107422 -11.240997 -49.298302 4.707003
182.590698 -11.240997 -49.298302 4.170502
196.074036 -11.240997 -49.298302 3.305063
209.557312 -11.240997 -49.298302 2.574837
223.040588 -11.240997 -49.298302 2.213127
236.523926 -11.240997 -49.298302 2.020221
250.007202 -11.240997 -49.298302 1.756455
263.490540 -11.240997 -49.298302 1.806915
276.973816 -11.240997 -49.298302 1.955866
290.457092 -11.240997 -49.298302 1.387124
303.940430 -11.240997 -49.298302 0.000000
317.423706 -11.240997 -49.298302 0.000000
330.907043 -11.240997 -49.298302 0.000000
344.390320 -11.240997 -49.298302 0.000000
-343.257996 -24.724304 -49.298302 0.000000
-329.774689 -24.724304 -49.298302 0.000000
-316.291382 -24.724304 -49.298302 0.000000
-302.808105 -24.724304 -49.298302 0.000000
-289.324799 -24.724304 -49.298302 2.883604
-275.841492 -24.724304 -49.298302 3.138468
-262.358185 -24.724304 -49.298302 2.878310
-248.874893 -24.724304 -49.298302 3.795175
-235.391602 -24.724304 -49.298302 5.211465
-221.908295 -24.724304 -49.298302 5.952965
-208.424988 -24.724304 -49.298302 9.729280
-194.941696 -24.724304 -49.298302 13.635222
-181.458389 -24.724304 -49.298302 17.562199
-167.975098 -24.724304 -49.298302 20.494696
-154.491791 -24.724304 -49.298302 21.308384
-141.008499 -24.724304 -49.298302 22.484091
-127.525192 -24.724304 -49.298302 23.296114
-114.041885 -24.724304 -49.298302 22.035847
-100.558594 -24.724304 -49.298302 19.404509
-87.075287 -24.724304 -49.298302 15.399138
-73.591980 -24.724304 -49.298302 13.498837
-60.108704 -24.724304 -49.298302 11.539809
-46.625397 -24.724304 -49.298302 9.018580
-33.142090 -24.724304 -49.298302 8.348795
-19.658783 -24.724304 -49.298302 7.251143
-6.175476 -24.724304 -49.298302 6.673506
7.307800 -24.724304 -49.298302 6.534893
20.791107 -24.724304 -49.298302 6.479267
34.274414 -24.724304 -49.298302 7.335385
47.757721 -24.724304 -49.298302 8.404627
61.240997 -24.724304 -49.298302 10.066229
74.724304 -24.724304 -49.298302 11.041024
88.207611 -24.724304 -49.298302 11.287193
101.690918 -24.724304 -49.298302 10.171507
115.174225 -24.724304 -49.298302 8.096883
128.657501 -24.724304 -49.298302 7.010107
142.140808 -24.724304 -49.298302 5.975568
155.624115 -24.724304 -49.298302 5.076483
169.107422 -24.724304 -49.298302 4.511607
182.590698 -24.724304 -49.298302 3.868540
196.074036 -24.724304 -49.298302 3.101540
209.557312 -24.724304 -49.298302 2.573591
223.040588 -24.724304 -49.298302 2.234227
236.523926 -24.724304 -49.298302 2.063098
250.007202 -24.724304 -49.298302 1.978365
263.490540 -24.724304 -49.298302 2.094670
276.973816 -24.724304 -49.298302 2.001376
290.457092 -24.724304 -49.298302 1.544656
303.940430 -24.724304 -49.298302 0.000000
317.423706 -24.724304 -49.298302 0.000000
330.907043 -24.724304 -49.298302 0.000000
344.390320 -24.724304 -49.298302 0.000000
-343.257996 -38.207611 -49.298302 0.000000
-329.774689 -38.207611 -49.298302 0.000000
-316.291382 -38.207611 -49.298302 0.000000
-302.808105 -38.207611 -49.298302 0.000000
-289.324799 -38.207611 -49.298302 4.271754
-275.841492 -38.207611 -49.298302 4.034022
-262.358185 -38.207611 -49.298302 3.993489
-248.874893 -38.207611 -49.298302 4.761669
-235.391602 -38.207611 -49.298302 5.277432
-221.908295 -38.207611 -49.298302 6.015239
-208.424988 -38.207611 -49.298302 11.820284
-194.941696 -38.207611 -49.298302 15.351995
-181.458389 -38.207611 -49.298302 18.940449
-167.975098 -38.207611 -49.298302 20.163143
-154.491791 -38.207611 -49.298302 21.504677
-141.008499 -38.207611 -49.298302 21.285671
-127.525192 -38.207611 -49.298302 22.665810
-114.041885 -38.207611 -49.298302 21.358660
-100.558594 -38.207611 -49.298302 18.418390
-87.075287 -38.207611 -49.298302 16.973211
-73.591980 -38.207611 -49.298302 14.480426
-60.108704 -38.207611 -49.298302 11.850375
-46.625397 -38.207611 -49.298302 9.764242
-33.142090 -38.207611 -49.298302 8.316205
-19.658783 -38.207611 -49.298302 7.500204
-6.175476 -38.207611 -49.298302 7.973934
7.307800 -38.207611 -49.298302 7.512106
20.791107 -38.207611 -49.298302 8.017403
34.274414 -38.207611 -49.298302 9.526909
47.757721 -38.207611 -49.298302 11.520771
61.240997 -38.207611 -49.298302 12.357860
74.724304 -38.207611 -49.298302 11.894128
88.207611 -38.207611 -49.298302 11.724236
101.690918 -38.207611 -49.298302 9.988037
115.174225 -38.207611 -49.298302 8.264860
128.657501 -38.207611 -49.298302 6.780079
142.140808 -38.207611 -49.298302 5.094497
155.624115 -38.207611 -49.298302 4.702516
169.107422 -38.207611 -49.298302 4.204164
182.590698 -38.207611 -49.298302 3.640047
196.074036 -38.207611 -49.298302 3.035483
209.557312 -38.207611 -49.298302 2.593847
223.040588 -38.207611 -49.298302 2.234792
236.523926 -38.207611 -49.298302 2.173921
250.007202 -38.207611 -49.298302 2.100796
263.490540 -38.207611 -49.298302 2.340775
276.973816 -38.207611 -49.298302 2.214176
290.457092 -38.207611 -49.298302 2.191472
303.940430 -38.207611 -49.298302 0.000000
317.423706 -38.207611 -49.298302 0.000000
330.907043 -38.207611 -49.298302 0.000000
344.390320 -38.207611 -49.298302 0.000000
-343.257996 -51.690918 -49.298302 0.000000
-329.774689 -51.690918 -49.298302 0.000000
-316.291382 -51.690918 -49.298302 0.000000
-302.808105 -51.690918 -49.298302 0.000000
-289.324799 -51.690918 -49.298302 7.804675
-275.841492 -51.690918 -49.298302 6.046355
-262.358185 -51.690918 -49.298302 5.507688
-248.874893 -51.690918 -49.298302 5.144191
-235.391602 -51.690918 -49.298302 6.871126
-221.908295 -51.690918 -49.298302 7.081846
-208.424988 -51.690918 -49.298302 13.547173
-194.941696 -51.690918 -49.298302 20.138773
-181.458389 -51.690918 -49.298302 21.266695
-167.975098 -51.690918 -49.298302 21.780474
-154.491791 -51.690918 -49.298302 23.697784
-141.008499 -51.690918 -49.298302 22.869295
-127.525192 -51.690918 -49.298302 21.521881
-114.041885 -51.690918 -49.298302 20.452965
-100.558594 -51.690918 -49.298302 18.082481
-87.075287 -51.690918 -49.298302 16.475328
-73.591980 -51.690918 -49.298302 13.506085
-60.108704 -51.690918 -49.298302 12.402494
-46.625397 -51.690918 -49.298302 10.323147
-33.142090 -51.690918 -49.298302 9.374358
-19.658783 -51.690918 -49.298302 8.404189
-6.175476 -51.690918 -49.298302 9.693210
7.307800 -51.690918 -49.298302 9.705137
20.791107 -51.690918 -49.298302 10.008308
34.274414 -51.690918 -49.298302 11.810150
47.757721 -51.690918 -49.298302 12.196801
61.240997 -51.690918 -49.298302 11.920218
74.724304 -51.690918 -49.298302 10.742019
88.207611 -51.690918 -49.298302 10.148585
101.690918 -51.690918 -49.298302 8.130441
115.174225 -51.690918 -49.298302 6.694283
128.657501 -51.690918 -49.298302 5.708213
142.140808 -51.690918 -49.298302 4.906538
155.624115 -51.690918 -49.298302 4.487798
169.107422 -51.690918 -49.298302 4.125090
182.590698 -51.690918 -49.298302 3.730970
196.074036 -51.690918 -49.298302 3.091094
209.557312 -51.690918 -49.298302 2.587705
223.040588 -51.690918 -49.298302 2.533811
236.523926 -51.690918 -49.298302 2.542525
250.007202 -51.690918 -49.298302 2.479775
263.490540 -51.690918 -49.298302 2.627498
276.973816 -51.690918 -49.298302 1.928834
290.457092 -51.690918 -49.298302 2.364643
303.940430 -51.690918 -49.298302 0.000000
317.423706 -51.690918 -49.298302 0.000000
330.907043 -51.690918 -49.298302 0.000000
344.390320 -51.690918 -49.298302 0.000000
-343.257996 -65.174225 -49.298302 0.000000
-329.774689 -65.174225 -49.298302 0.000000
-316.291382 -65.174225 -49.298302 0.000000
-302.808105 -65.174225 -49.298302 0.000000
-289.324799 -65.174225 -49.298302 8.709933
-275.841492 -65.174225 -49.298302 4.587060
-262.358185 -65.174225 -49.298302 4.481926
-248.874893 -65.174225 -49.298302 6.975063
-235.391602 -65.174225 -49.298302 9.455548
-221.908295 -65.174225 -49.298302 11.319774
-208.424988 -65.174225 -49.298302 16.747805
-194.941696 -65.174225 -49.298302 25.598909
-181.458389 -65.174225 -49.298302 0.000000
-167.975098 -65.174225 -49.298302 0.000000
-154.491791 -65.174225 -49.298302 0.000000
-141.008499 -65.174225 -49.298302 24.928436
-127.525192 -65.174225 -49.298302 24.026663
-114.041885 -65.174225 -49.298302 24.082932
-100.558594 -65.174225 -49.298302 20.092920
-87.075287 -65.174225 -49.298302 16.489431
-73.591980 -65.174225 -49.298302 13.661994
-60.108704 -65.174225 -49.298302 12.103491
-46.625397 -65.174225 -49.298302 11.288892
-33.142090 -65.174225 -49.298302 10.661198
-19.658783 -65.174225 -49.298302 10.079624
-6.175476 -65.174225 -49.298302 11.534004
7.307800 -65.174225 -49.298302 11.627404
20.791107 -65.174225 -49.298302 11.553436
34.274414 -65.174225 -49.298302 12.482966
47.757721 -65.174225 -49.298302 12.095146
61.240997 -65.174225 -49.298302 11.518650
74.724304 -65.174225 -49.298302 9.777625
88.207611 -65.174225 -49.298302 8.090096
101.690918 -65.174225 -49.298302 6.492883
115.174225 -65.174225 -49.298302 5.320896
128.657501 -65.174225 -49.298302 4.652497
142.140808 -65.174225 -49.298302 4.486801
155.624115 -65.174225 -49.298302 4.418387
169.107422 -65.174225 -49.298302 4.058125
182.590698 -65.174225 -49.298302 3.548918
196.074036 -65.174225 -49.298302 3.196378
209.557312 -65.174225 -49.298302 3.084418
223.040588 -65.174225 -49.298302 2.774458
236.523926 -65.174225 -49.298302 3.096216
250.007202 -65.174225 -49.298302 2.785481
263.490540 -65.174225 -49.298302 2.746096
276.973816 -65.174225 -49.298302 3.608558
290.457092 -65.174225 -49.298302 4.272016
303.940430 -65.174225 -49.298302 0.000000
317.423706 -65.174225 -49.298302 0.000000
330.907043 -65.174225 -49.298302 0.000000
344.390320 -65.174225 -49.298302 0.000000
-343.257996 -78.657501 -49.298302 0.000000
-329.774689 -78.657501 -49.298302 0.000000
-316.291382 -78.657501 -49.298302 0.000000
-302.808105 -78.657501 -49.298302 0.000000
-289.324799 -78.657501 -49.298302 7.830201
-275.841492 -78.657501 -49.298302 7.894699
-262.358185 -78.657501 -49.298302 10.441379
-248.874893 -78.657501 -49.298302 15.119652
-235.391602 -78.657501 -49.298302 0.000000
-221.908295 -78.657501 -49.298302 0.000000
-208.424988 -78.657501 -49.298302 0.000000
-194.941696 -78.657501 -49.298302 0.000000
-181.458389 -78.657501 -49.298302 0.000000
-167.975098 -78.657501 -49.298302 0.000000
-154.491791 -78.657501 -49.298302 0.000000
-141.008499 -78.657501 -49.298302 31.399851
-127.525192 -78.657501 -49.298302 29.639101
-114.041885 -78.657501 -49.298302 27.130243
-100.558594 -78.657501 -49.298302 22.040297
-87.075287 -78.657501 -49.298302 17.447495
-73.591980 -78.657501 -49.298302 16.483786
-60.108704 -78.657501 -49.298302 14.546004
-46.625397 -78.657501 -49.298302 13.887152
-33.142090 -78.657501 -49.298302 12.038294
-19.658783 -78.657501 -49.298302 11.817482
-6.175476 -78.657501 -49.298302 12.557057
7.307800 -78.657501 -49.298302 12.887897
20.791107 -78.657501 -49.298302 13.123935
34.274414 -78.657501 -49.298302 12.837391
47.757721 -78.657501 -49.298302 11.071779
61.240997 -78.657501 -49.298302 9.227267
74.724304 -78.657501 -49.298302 7.556886
88.207611 -78.657501 -49.298302 6.231883
101.690918 -78.657501 -49.298302 5.610764
115.174225 -78.657501 -49.298302 4.792512
128.657501 -78.657501 -49.298302 4.267356
142.140808 -78.657501 -49.298302 4.181899
155.624115 -78.657501 -49.298302 4.334264
169.107422 -78.657501 -49.298302 3.640124
182.590698 -78.657501 -49.298302 3.329100
196.074036 -78.657501 -49.298302 3.110028
209.557312 -78.657501 -49.298302 3.078792
223.040588 -78.657501 -49.298302 3.276507
236.523926 -78.657501 -49.298302 3.495263
250.007202 -78.657501 -49.298302 3.157311
263.490540 -78.657501 -49.298302 3.628179
276.973816 -78.657501 -49.298302 3.895748
290.457092 -78.657501 -49.298302 2.437308
303.940430 -78.657501 -49.298302 0.000000
317.423706 -78.657501 -49.298302 0.000000
330.907043 -78.657501 -49.298302 0.000000
344.390320 -78.657501 -49.298302 0.000000
-343.257996 -92.140808 -49.298302 0.000000
-329.774689 -92.140808 -49.298302 0.000000
-316.291382 -92.140808 -49.298302 0.000000
-302.808105 -92.140808 -49.298302 0.000000
-289.324799 -92.140808 -49.298302 14.335493
-275.841492 -92.140808 -49.298302 13.677838
-262.358185 -92.140808 -49.298302 22.969097
-248.874893 -92.140808 -49.298302 0.000000
-235.391602 -92.140808 -49.298302 0.000000
-221.908295 -92.140808 -49.298302 0.000000
-208.424988 -92.140808 -49.298302 0.000000
-194.941696 -92.140808 -49.298302 0.000000
-181.458389 -92.140808 -49.298302 0.000000
-167.975098 -92.140808 -49.298302 0.000000
-154.491791 -92.140808 -49.298302 0.000000
-141.008499 -92.140808 -49.298302 0.000000
-127.525192 -92.140808 -49.298302 33.867489
-114.041885 -92.140808 -49.298302 32.466290
-100.558594 -92.140808 -49.298302 26.360809
-87.075287 -92.140808 -49.298302 22.054415
-73.591980 -92.140808 -49.298302 18.828485
-60.108704 -92.140808 -49.298302 16.819508
-46.625397 -92.140808 -49.298302 15.836181
-33.142090 -92.140808 -49.298302 15.534136
-19.658783 -92.140808 -49.298302 14.870723
-6.175476 -92.140808 -49.298302 14.480410
7.307800 -92.140808 -49.298302 14.251946
20.791107 -92.140808 -49.298302 13.440466
34.274414 -92.140808 -49.298302 11.763211
47.757721 -92.140808 -49.298302 8.760139
61.240997 -92.140808 -49.298302 7.032099
74.724304 -92.140808 -49.298302 6.692688
88.207611 -92.140808 -49.298302 5.081869
101.690918 -92.140808 -49.298302 4.305402
115.174225 -92.140808 -49.298302 4.369512
128.657501 -92.140808 -49.298302 4.431863
142.140808 -92.140808 -49.298302 4.533818
155.624115 -92.140808 -49.298302 4.380145
169.107422 -92.140808 -49.298302 4.005052
182.590698 -92.140808 -49.298302 3.911393
196.074036 -92.140808 -49.298302 3.803108
209.557312 -92.140808 -49.298302 3.899578
223.040588 -92.140808 -49.298302 3.514335
236.523926 -92.140808 -49.298302 3.576954
250.007202 -92.140808 -49.298302 4.242112
263.490540 -92.140808 -49.298302 4.045990
276.973816 -92.140808 -49.298302 3.547787
290.457092 -92.140808 -49.298302 4.309274
303.940430 -92.140808 -49.298302 0.000000
317.423706 -92.140808 -49.298302 0.000000
330.907043 -92.140808 -49.298302 0.000000
344.390320 -92.140808 -49.298302 0.000000
-343.257996 -105.624115 -49.298302 0.000000
-329.774689 -105.624115 -49.298302 0.000000
-316.291382 -105.624115 -49.298302 0.000000
-302.808105 -105.624115 -49.298302 0.000000
-289.324799 -105.624115 -49.298302 25.649986
-275.841492 -105.624115 -49.298302 35.507305
-262.358185 -105.624115 -49.298302 0.000000
-248.874893 -105.624115 -49.298302 0.000000
-235.391602 -105.624115 -49.298302 0.000000
-221.908295 -105.624115 -49.298302 0.000000
-208.424988 -105.624115 -49.298302 0.000000
-194.941696 -105.624115 -49.298302 0.000000
-181.458389 -105.624115 -49.298302 0.000000
-167.975098 -105.624115 -49.298302 0.000000
-154.491791 -105.624115 -49.298302 0.000000
-141.008499 -105.624115 -49.298302 0.000000
-127.525192 -105.624115 -49.298302 39.574753
-114.041885 -105.624115 -49.298302 36.956406
-100.558594 -105.624115 -49.298302 31.731758
-87.075287 -105.624115 -49.298302 26.242081
-73.591980 -105.624115 -49.298302 21.990166
-60.108704 -105.624115 -49.298302 19.390009
-46.625397 -105.624115 -49.298302 18.934519
-33.142090 -105.624115 -49.298302 17.709137
-19.658783 -105.624115 -49.298302 17.932402
-6.175476 -105.624115 -49.298302 15.947729
7.307800 -105.624115 -49.298302 13.304267
20.791107 -105.624115 -49.298302 12.235103
34.274414 -105.624115 -49.298302 10.583241
47.757721 -105.624115 -49.298302 8.443512
61.240997 -105.624115 -49.298302 6.826928
74.724304 -105.624115 -49.298302 6.251058
88.207611 -105.624115 -49.298302 4.856979
101.690918 -105.624115 -49.298302 4.435592
115.174225 -105.624115 -49.298302 4.719562
128.657501 -105.624115 -49.298302 5.262461
142.140808 -105.624115 -49.298302 5.263803
155.624115 -105.624115 -49.298302 5.234299
169.107422 -105.624115 -49.298302 4.988743
182.590698 -105.624115 -49.298302 4.914733
196.074036 -105.624115 -49.298302 4.812906
209.557312 -105.624115 -49.298302 4.402199
223.040588 -105.624115 -49.298302 5.461107
236.523926 -105.624115 -49.298302 4.654545
250.007202 -105.624115 -49.298302 4.906120
263.490540 -105.624115 -49.298302 6.079942
276.973816 -105.624115 -49.298302 6.835440
290.457092 -105.624115 -49.298302 8.042832
303.940430 -105.624115 -49.298302 0.000000
317.423706 -105.624115 -49.298302 0.000000
330.907043 -105.624115 -49.298302 0.000000
344.390320 -105.624115 -49.298302 0.000000
-343.257996 -119.107422 -49.298302 0.000000
-329.774689 -119.107422 -49.298302 0.000000
-316.291382 -119.107422 -49.298302 0.000000
-302.808105 -119.107422 -49.298302 0.000000
-289.324799 -119.107422 -49.298302 0.000000
-275.841492 -119.107422 -49.298302 0.000000
-262.358185 -119.107422 -49.298302 0.000000
-248.874893 -119.107422 -49.298302 0.000000
-235.391602 -119.107422 -49.298302 0.000000
-221.908295 -119.107422 -49.298302 0.000000
-208.424988 -119.107422 -49.298302 0.000000
-194.941696 -119.107422 -49.298302 0.000000
-181.458389 -119.107422 -49.298302 0.000000
-167.975098 -119.107422 -49.298302 0.000000
-154.491791 -119.107422 -49.298302 0.000000
-141.008499 -119.107422 -49.298302 0.000000
-127.525192 -119.107422 -49.298302 0.000000
-114.041885 -119.107422 -49.298302 0.000000
-100.558594 -119.107422 -49.298302 38.893513
-87.075287 -119.107422 -49.298302 30.184292
-73.591980 -119.107422 -49.298302 24.370480
-60.108704 -119.107422 -49.298302 21.444656
-46.625397 -119.107422 -49.298302 21.416162
-33.142090 -119.107422 -49.298302 18.685602
-19.658783 -119.107422 -49.298302 16.326307
-6.175476 -119.107422 -49.298302 15.752298
7.307800 -119.107422 -49.298302 14.660474
20.791107 -119.107422 -49.298302 12.465693
34.274414 -119.107422 -49.298302 10.537052
47.757721 -119.107422 -49.298302 8.614317
61.240997 -119.107422 -49.298302 7.622488
74.724304 -119.107422 -49.298302 7.197848
88.207611 -119.107422 -49.298302 5.980984
101.690918 -119.107422 -49.298302 5.679985
115.174225 -119.107422 -49.298302 6.233315
128.657501 -119.107422 -49.298302 6.443351
142.140808 -119.107422 -49.298302 6.656682
155.624115 -119.107422 -49.298302 6.470449
169.107422 -119.107422 -49.298302 6.463629
182.590698 -119.107422 -49.298302 6.315965
196.074036 -119.107422 -49.298302 7.385487
209.557312 -119.107422 -49.298302 6.336840
223.040588 -119.107422 -49.298302 7.191352
236.523926 -119.107422 -49.298302 7.329717
250.007202 -119.107422 -49.298302 7.423055
263.490540 -119.107422 -49.298302 11.596961
276.973816 -119.107422 -49.298302 11.621796
290.457092 -119.107422 -49.298302 14.885669
303.940430 -119.107422 -49.298302 0.000000
317.423706 -119.107422 -49.298302 0.000000
330.907043 -119.107422 -49.298302 0.000000
344.390320 -119.107422 -49.298302 0.000000
-343.257996 -132.590698 -49.298302 0.000000
-329.774689 -132.590698 -49.298302 0.000000
-316.291382 -132.590698 -49.298302 0.000000
-302.808105 -132.590698 -49.298302 0.000000
-289.324799 -132.590698 -49.298302 0.000000
-275.841492 -132.590698 -49.298302 0.000000
-262.358185 -132.590698 -49.298302 0.000000
-248.874893 -132.590698 -49.298302 0.000000
-235.391602 -132.590698 -49.298302 0.000000
-221.908295 -132.590698 -49.298302 0.000000
-208.424988 -132.590698 -49.298302 0.000000
-194.941696 -132.590698 -49.298302 0.000000
-181.458389 -132.590698 -49.298302 0.000000
-167.975098 -132.590698 -49.298302 0.000000
-154.491791 -132.590698 -49.298302 0.000000
-141.008499 -132.590698 -49.298302 0.000000
-127.525192 -132.590698 -49.298302 0.000000
-114.041885 -132.590698 -49.298302 0.000000
-100.558594 -132.590698 -49.298302 0.000000
-87.075287 -132.590698 -49.298302 0.000000
-73.591980 -132.590698 -49.298302 0.000000
-60.108704 -132.590698 -49.298302 25.072079
-46.625397 -132.590698 -49.298302 21.855667
-33.142090 -132.590698 -49.298302 20.237181
-19.658783 -132.590698 -49.298302 18.711967
-6.175476 -132.590698 -49.298302 17.708542
7.307800 -132.590698 -49.298302 16.355089
20.791107 -132.590698 -49.298302 15.284020
34.274414 -132.590698 -49.298302 12.684723
47.757721 -132.590698 -49.298302 10.235265
61.240997 -132.590698 -49.298302 9.345592
74.724304 -132.590698 -49.298302 8.116232
88.207611 -132.590698 -49.298302 7.775120
101.690918 -132.590698 -49.298302 6.745746
115.174225 -132.590698 -49.298302 7.421550
128.657501 -132.590698 -49.298302 7.816775
142.140808 -132.590698 -49.298302 9.230114
155.624115 -132.590698 -49.298302 8.443701
169.107422 -132.590698 -49.298302 8.074686
182.590698 -132.590698 -49.298302 7.971685
196.074036 -132.590698 -49.298302 9.447645
209.557312 -132.590698 -49.298302 0.000000
223.040588 -132.590698 -49.298302 10.726648
236.523926 -132.590698 -49.298302 12.676115
250.007202 -132.590698 -49.298302 13.332561
263.490540 -132.590698 -49.298302 19.917706
276.973816 -132.590698 -49.298302 0.000000
290.457092 -132.590698 -49.298302 0.000000
303.940430 -132.590698 -49.298302 0.000000
317.423706 -132.590698 -49.298302 0.000000
330.907043 -132.590698 -49.298302 0.000000
344.390320 -132.590698 -49.298302 0.000000
-343.257996 -146.074036 -49.298302 0.000000
-329.774689 -146.074036 -49.298302 0.000000
-316.291382 -146.074036 -49.298302 0.000000
-302.808105 -146.074036 -49.298302 0.000000
-289.324799 -146.074036 -49.298302 0.000000
-275.841492 -146.074036 -49.298302 0.000000
-262.358185 -146.074036 -49.298302 0.000000
-248.874893 -146.074036 -49.298302 0.000000
-235.391602 -146.074036 -49.298302 0.000000
-221.908295 -146.074036 -49.298302 0.000000
-208.424988 -146.074036 -49.298302 0.000000
-194.941696 -146.074036 -49.298302 0.000000
-181.458389 -146.074036 -49.298302 0.000000
-167.975098 -146.074036 -49.298302 0.000000
-154.491791 -146.074036 -49.298302 0.000000
-141.008499 -146.074036 -49.298302 0.000000
-127.525192 -146.074036 -49.298302 0.000000
-114.041885 -146.074036 -49.298302 0.000000
-100.558594 -146.074036 -49.298302 0.000000
-87.075287 -146.074036 -49.298302 0.000000
-73.591980 -146.074036 -49.298302 0.000000
-60.108704 -146.074036 -49.298302 0.000000
-46.625397 -146.074036 -49.298302 0.000000
-33.142090 -146.074036 -49.298302 21.198557
-19.658783 -146.074036 -49.298302 22.929262
-6.175476 -146.074036 -49.298302 20.984234
7.307800 -146.074036 -49.298302 18.091034
20.791107 -146.074036 -49.298302 0.000000
34.274414 -146.074036 -49.298302 0.000000
47.757721 -146.074036 -49.298302 0.000000
61.240997 -146.074036 -49.298302 0.000000
74.724304 -146.074036 -49.298302 0.000000
88.207611 -146.074036 -49.298302 0.000000
101.690918 -146.074036 -49.298302 0.000000
115.174225 -146.074036 -49.298302 0.000000
128.657501 -146.074036 -49.298302 0.000000
142.140808 -146.074036 -49.298302 0.000000
155.624115 -146.074036 -49.298302 0.000000
169.107422 -146.074036 -49.298302 0.000000
182.590698 -146.074036 -49.298302 0.000000
196.074036 -146.074036 -49.298302 0.000000
209.557312 -146.074036 -49.298302 0.000000
223.040588 -146.074036 -49.298302 0.000000
236.523926 -146.074036 -49.298302 0.000000
250.007202 -146.074036 -49.298302 0.000000
263.490540 -146.074036 -49.298302 0.000000
276.973816 -146.074036 -49.298302 0.000000
290.457092 -146.074036 -49.298302 0.000000
303.940430 -146.074036 -49.298302 0.000000
317.423706 -146.074036 -49.298302 0.000000
330.907043 -146.074036 -49.298302 0.000000
344.390320 -146.074036 -49.298302 0.000000
-343.257996 -159.557312 -49.298302 0.000000
-329.774689 -159.557312 -49.298302 0.000000
-316.291382 -159.557312 -49.298302 0.000000
-302.808105 -159.557312 -49.298302 0.000000
-289.324799 -159.557312 -49.298302 0.000000
-275.841492 -159.557312 -49.298302 0.000000
-262.358185 -159.557312 -49.298302 0.000000
-248.874893 -159.557312 -49.298302 0.000000
-235.391602 -159.557312 -49.298302 0.000000
-221.908295 -159.557312 -49.298302 0.000000
-208.424988 -159.557312 -49.298302 0.000000
-194.941696 -159.557312 -49.298302 0.000000
-181.458389 -159.557312 -49.298302 0.000000
-167.975098 -159.557312 -49.298302 0.000000
-154.491791 -159.557312 -49.298302 0.000000
-141.008499 -159.557312 -49.298302 0.000000
-127.525192 -159.557312 -49.298302 0.000000
-114.041885 -159.557312 -49.298302 0.000000
-100.558594 -159.557312 -49.298302 0.000000
-87.075287 -159.557312 -49.298302 0.000000
-73.591980 -159.557312 -49.298302 0.000000
-60.108704 -159.557312 -49.298302 0.000000
-46.625397 -159.557312 -49.298302 0.000000
-33.142090 -159.557312 -49.298302 0.000000
-19.658783 -159.557312 -49.298302 0.000000
-6.175476 -159.557312 -49.298302 0.000000
7.307800 -159.557312 -49.298302 0.000000
20.791107 -159.557312 -49.298302 0.000000
34.274414 -159.557312 -49.298302 0.000000
47.757721 -159.557312 -49.298302 0.000000
61.240997 -159.557312 -49.298302 0.000000
74.724304 -159.557312 -49.298302 0.000000
88.207611 -159.557312 -49.298302 0.000000
101.690918 -159.557312 -49.298302 0.000000
115.174225 -159.557312 -49.298302 0.000000
128.657501 -159.557312 -49.298302 0.000000
142.140808 -159.557312 -49.298302 0.000000
155.624115 -159.557312 -49.298302 0.000000
169.107422 -159.557312 -49.298302 0.000000
182.590698 -159.557312 -49.298302 0.000000
196.074036 -159.557312 -49.298302 0.000000
209.557312 -159.557312 -49.298302 0.000000
223.040588 -159.557312 -49.298302 0.000000
236.523926 -159.557312 -49.298302 0.000000
250.007202 -159.557312 -49.298302 0.000000
263.490540 -159.557312 -49.298302 0.000000
276.973816 -159.557312 -49.298302 0.000000
290.457092 -159.557312 -49.298302 0.000000
303.940430 -159.557312 -49.298302 0.000000
317.423706 -159.557312 -49.298302 0.000000
330.907043 -159.557312 -49.298302 0.000000
344.390320 -159.557312 -49.298302 0.000000
-343.257996 -173.040588 -49.298302 0.000000
-329.774689 -173.040588 -49.298302 0.000000
-316.291382 -173.040588 -49.298302 0.000000
-302.808105 -173.040588 -49.298302 0.000000
-289.324799 -173.040588 -49.298302 0.000000
-275.841492 -173.040588 -49.298302 0.000000
-262.358185 -173.040588 -49.298302 0.000000
-248.874893 -173.040588 -49.298302 0.000000
-235.391602 -173.040588 -49.298302 0.000000
-221.908295 -173.040588 -49.298302 0.000000
-208.424988 -173.040588 -49.298302 0.000000
-194.941696 -173.040588 -49.298302 0.000000
-181.458389 -173.040588 -49.298302 0.000000
-167.975098 -173.040588 -49.298302 0.000000
-154.491791 -173.040588 -49.298302 0.000000
-141.008499 -173.040588 -49.298302 0.000000
-127.525192 -173.040588 -49.298302 0.000000
-114.041885 -173.040588 -49.298302 0.000000
-100.558594 -173.040588 -49.298302 0.000000
-87.075287 -173.040588 -49.298302 0.000000
-73.591980 -173.040588 -49.298302 0.000000
-60.108704 -173.040588 -49.298302 0.000000
-46.625397 -173.040588 -49.298302 0.000000
-33.142090 -173.040588 -49.298302 0.000000
-19.658783 -173.040588 -49.298302 0.000000
-6.175476 -173.040588 -49.298302 0.000000
7.307800 -173.040588 -49.298302 0.000000
20.791107 -173.040588 -49.298302 0.000000
34.274414 -173.040588 -49.298302 0.000000
47.757721 -173.040588 -49.298302 0.000000
61.240997 -173.040588 -49.298302 0.000000
74.724304 -173.040588 -49.298302 0.000000
88.207611 -173.040588 -49.298302 0.000000
101.690918 -173.040588 -49.298302 0.000000
115.174225 -173.040588 -49.298302 0.000000
128.657501 -173.040588 -49.298302 0.000000
142.140808 -173.040588 -49.298302 0.000000
155.624115 -173.040588 -49.298302 0.000000
169.107422 -173.040588 -49.298302 0.000000
182.590698 -173.040588 -49.298302 0.000000
196.074036 -173.040588 -49.298302 0.000000
209.557312 -173.040588 -49.298302 0.000000
223.040588 -173.040588 -49.298302 0.000000
236.523926 -173.040588 -49.298302 0.000000
250.007202 -173.040588 -49.298302 0.000000
263.490540 -173.040588 -49.298302 0.000000
276.973816 -173.040588 -49.298302 0.000000
290.457092 -173.040588 -49.298302 0.000000
303.940430 -173.040588 -49.298302 0.000000
317.423706 -173.040588 -49.298302 0.000000
330.907043 -173.040588 -49.298302 0.000000
344.390320 -173.040588 -49.298302 0.000000
-343.257996 -186.523926 -49.298302 0.000000
-329.774689 -186.523926 -49.298302 0.000000
-316.291382 -186.523926 -49.298302 0.000000
-302.808105 -186.523926 -49.298302 0.000000
-289.324799 -186.523926 -49.298302 0.000000
-275.841492 -186.523926 -49.298302 0.000000
-262.358185 -186.523926 -49.298302 0.000000
-248.874893 -186.523926 -49.298302 0.000000
-235.391602 -186.523926 -49.298302 0.000000
-221.908295 -186.523926 -49.298302 0.000000
-208.424988 -186.523926 -49.298302 0.000000
-194.941696 -186.523926 -49.298302 0.000000
-181.458389 -186.523926 -49.298302 0.000000
-167.975098 -186.523926 -49.298302 0.000000
-154.491791 -186.523926 -49.298302 0.000000
-141.008499 -186.523926 -49.298302 0.000000
-127.525192 -186.523926 -49.298302 0.000000
-114.041885 -186.523926 -49.298302 0.000000
-100.558594 -186.523926 -49.298302 0.000000
-87.075287 -186.523926 -49.298302 0.000000
-73.591980 -186.523926 -49.298302 0.000000
-60.108704 -186.523926 -49.298302 0.000000
-46.625397 -186.523926 -49.298302 0.000000
-33.142090 -186.523926 -49.298302 0.000000
-19.658783 -186.523926 -49.298302 0.000000
-6.175476 -186.523926 -49.298302 0.000000
7.307800 -186.523926 -49.298302 0.000000
20.791107 -186.523926 -49.298302 0.000000
34.274414 -186.523926 -49.298302 0.000000
47.757721 -186.523926 -49.298302 0.000000
61.240997 -186.523926 -49.298302 0.000000
74.724304 -186.523926 -49.298302 0.000000
88.207611 -186.523926 -49.298302 0.000000
101.690918 -186.523926 -49.298302 0.000000
115.174225 -186.523926 -49.298302 0.000000
128.657501 -186.523926 -49.298302 0.000000
142.140808 -186.523926 -49.298302 0.000000
155.624115 -186.523926 -49.298302 0.000000
169.107422 -186.523926 -49.298302 0.000000
182.590698 -186.523926 -49.298302 0.000000
196.074036 -186.523926 -49.298302 0.000000
209.557312 -186.523926 -49.298302 0.000000
223.040588 -186.523926 -49.298302 0.000000
236.523926 -186.523926 -49.298302 0.000000
250.007202 -186.523926 -49.298302 0.000000
263.490540 -186.523926 -49.298302 0.000000
276.973816 -186.523926 -49.298302 0.000000
290.457092 -186.523926 -49.298302 0.000000
303.940430 -186.523926 -49.298302 0.000000
317.423706 -186.523926 -49.298302 0.000000
330.907043 -186.523926 -49.298302 0.000000
344.390320 -186.523926 -49.298302 0.000000
-343.257996 -200.007202 -49.298302 0.000000
-329.774689 -200.007202 -49.298302 0.000000
-316.291382 -200.007202 -49.298302 0.000000
-302.808105 -200.007202 -49.298302 0.000000
-289.324799 -200.007202 -49.298302 0.000000
-275.841492 -200.007202 -49.298302 0.000000
-262.358185 -200.007202 -49.298302 0.000000
-248.874893 -200.007202 -49.298302 0.000000
-235.391602 -200.007202 -49.298302 0.000000
-221.908295 -200.007202 -49.298302 0.000000
-208.424988 -200.007202 -49.298302 0.000000
-194.941696 -200.007202 -49.298302 0.000000
-181.458389 -200.007202 -49.298302 0.000000
-167.975098 -200.007202 -49.298302 0.000000
-154.491791 -200.007202 -49.298302 0.000000
-141.008499 -200.007202 -49.298302 0.000000
-127.525192 -200.007202 -49.298302 0.000000
-114.041885 -200.007202 -49.298302 0.000000
-100.558594 -200.007202 -49.298302 0.000000
-87.075287 -200.007202 -49.298302 0.000000
-73.591980 -200.007202 -49.298302 0.000000
-60.108704 -200.007202 -49.298302 0.000000
-46.625397 -200.007202 -49.298302 0.000000
-33.142090 -200.007202 -49.298302 0.000000
-19.658783 -200.007202 -49.298302 0.000000
-6.175476 -200.007202 -49.298302 0.000000
7.307800 -200.007202 -49.298302 0.000000
20.791107 -200.007202 -49.298302 0.000000
34.274414 -200.007202 -49.298302 0.000000
47.757721 -200.007202 -49.298302 0.000000
61.240997 -200.007202 -49.298302 0.000000
74.724304 -200.007202 -49.298302 0.000000
88.207611 -200.007202 -49.298302 0.000000
101.690918 -200.007202 -49.298302 0.000000
115.174225 -200.007202 -49.298302 0.000000
128.657501 -200.007202 -49.298302 0.000000
142.140808 -200.007202 -49.298302 0.000000
155.624115 -200.007202 -49.298302 0.000000
169.107422 -200.007202 -49.298302 0.000000
182.590698 -200.007202 -49.298302 0.000000
196.074036 -200.007202 -49.298302 0.000000
209.557312 -200.007202 -49.298302 0.000000
223.040588 -200.007202 -49.298302 0.000000
236.523926 -200.007202 -49.298302 0.000000
250.007202 -200.007202 -49.298302 0.000000
263.490540 -200.007202 -49.298302 0.000000
276.973816 -200.007202 -49.298302 0.000000
290.457092 -200.007202 -49.298302 0.000000
303.940430 -200.007202 -49.298302 0.000000
317.423706 -200.007202 -49.298302 0.000000
330.907043 -200.007202 -49.298302 0.000000
344.390320 -200.007202 -49.298302 0.000000
-343.257996 393.257996 -35.815002 0.000000
-329.774689 393.257996 -35.815002 0.000000
-316.291382 393.257996 -35.815002 0.000000
-302.808105 393.257996 -35.815002 0.000000
-289.324799 393.257996 -35.815002 0.000000
-275.841492 393.257996 -35.815002 0.000000
-262.358185 393.257996 -35.815002 0.000000
-248.874893 393.257996 -35.815002 0.000000
-235.391602 393.257996 -35.815002 0.000000
-221.908295 393.257996 -35.815002 0.000000
-208.424988 393.257996 -35.815002 0.000000
-194.941696 393.257996 -35.815002 0.000000
-181.458389 393.257996 -35.815002 0.000000
-167.975098 393.257996 -35.815002 0.000000
-154.491791 393.257996 -35.815002 0.000000
-141.008499 393.257996 -35.815002 0.000000
-127.525192 393.257996 -35.815002 0.000000
-114.041885 393.257996 -35.815002 0.000000
-100.558594 393.257996 -35.815002 0.000000
-87.075287 393.257996 -35.815002 0.000000
-73.591980 393.257996 -35.815002 0.000000
-60.108704 393.257996 -35.815002 0.000000
-46.625397 393.257996 -35.815002 0.000000
-33.142090 393.257996 -35.815002 0.000000
-19.658783 393.257996 -35.815002 0.000000
-6.175476 393.257996 -35.815002 0.000000
7.307800 393.257996 -35.815002 0.000000
20.791107 393.257996 -35.815002 0.000000
34.274414 393.257996 -35.815002 0.000000
47.757721 393.257996 -35.815002 0.000000
61.240997 393.257996 -35.815002 0.000000
74.724304 393.257996 -35.815002 0.000000
88.207611 393.257996 -35.815002 0.000000
101.690918 393.257996 -35.815002 0.000000
115.174225 393.257996 -35.815002 0.000000
128.657501 393.257996 -35.815002 0.000000
142.140808 393.257996 -35.815002 0.000000
155.624115 393.257996 -35.815002 0.000000
169.107422 393.257996 -35.815002 0.000000
182.590698 393.257996 -35.815002 0.000000
196.074036 393.257996 -35.815002 0.000000
209.557312 393.257996 -35.815002 0.000000
223.040588 393.257996 -35.815002 0.000000
236.523926 393.257996 -35.815002 0.000000
250.007202 393.257996 -35.815002 0.000000
263.490540 393.257996 -35.815002 0.000000
276.973816 393.257996 -35.815002 0.000000
290.457092 393.257996 -35.815002 0.000000
303.940430 393.257996 -35.815002 0.000000
317.423706 393.257996 -35.815002 0.000000
330.907043 393.257996 -35.815002 0.000000
344.390320 393.257996 -35.815002 0.000000
-343.257996 379.774689 -35.815002 0.000000
-329.774689 379.774689 -35.815002 0.000000
-316.291382 379.774689 -35.815002 0.000000
-302.808105 379.774689 -35.815002 0.000000
-289.324799 379.774689 -35.815002 0.000000
-275.841492 379.774689 -35.815002 0.000000
-262.358185 379.774689 -35.815002 0.000000
-248.874893 379.774689 -35.815002 0.000000
-235.391602 379.774689 -35.815002 0.000000
-221.908295 379.774689 -35.815002 0.000000
-208.424988 379.774689 -35.815002 0.000000
-194.941696 379.774689 -35.815002 0.000000
-181.458389 379.774689 -35.815002 0.000000
-167.975098 379.774689 -35.815002 0.000000
-154.491791 379.774689 -35.815002 0.000000
-141.008499 379.774689 -35.815002 0.000000
-127.525192 379.774689 -35.815002 0.000000
-114.041885 379.774689 -35.815002 0.000000
-100.558594 379.774689 -35.815002 0.000000
-87.075287 379.774689 -35.815002 0.000000
-73.591980 379.774689 -35.815002 0.000000
-60.108704 379.774689 -35.815002 0.000000
-46.625397 379.774689 -35.815002 0.000000
-33.142090 379.774689 -35.815002 0.000000
-19.658783 379.774689 -35.815002 0.000000
-6.175476 379.774689 -35.815002 0.000000
7.307800 379.774689 -35.815002 0.000000
20.791107 379.774689 -35.815002 0.000000
34.274414 379.774689 -35.815002 0.000000
47.757721 379.774689 -35.815002 0.000000
61.240997 379.774689 -35.815002 0.000000
74.724304 379.774689 -35.815002 0.000000
88.207611 379.774689 -35.815002 0.000000
101.690918 379.774689 -35.815002 0.000000
115.174225 379.774689 -35.815002 0.000000
128.657501 379.774689 -35.815002 0.000000
142.140808 379.774689 -35.815002 0.000000
155.624115 379.774689 -35.815002 0.000000
169.107422 379.774689 -35.815002 0.000000
182.590698 379.774689 -35.815002 0.000000
196.074036 379.774689 -35.815002 0.000000
209.557312 379.774689 -35.815002 0.000000
223.040588 379.774689 -35.815002 0.000000
236.523926 379.774689 -35.815002 0.000000
250.007202 379.774689 -35.815002 0.000000
263.490540 379.774689 -35.815002 0.000000
276.973816 379.774689 -35.815002 0.000000
290.457092 379.774689 -35.815002 0.000000
303.940430 379.774689 -35.815002 0.000000
317.423706 379.774689 -35.815002 0.000000
330.907043 379.774689 -35.815002 0.000000
344.390320 379.774689 -35.815002 0.000000
-343.257996 366.291382 -35.815002 0.000000
-329.774689 366.291382 -35.815002 0.000000
-316.291382 366.291382 -35.815002 0.000000
-302.808105 366.291382 -35.815002 0.000000
-289.324799 366.291382 -35.815002 0.000000
-275.841492 366.291382 -35.815002 0.000000
-262.358185 366.291382 -35.815002 0.000000
-248.874893 366.291382 -35.815002 0.000000
-235.391602 366.291382 -35.815002 0.000000
-221.908295 366.291382 -35.815002 0.000000
-208.424988 366.291382 -35.815002 0.000000
-194.941696 366.291382 -35.815002 0.000000
-181.458389 366.291382 -35.815002 0.000000
-167.975098 366.291382 -35.815002 0.000000
-154.491791 366.291382 -35.815002 0.000000
-141.008499 366.291382 -35.815002 0.000000
-127.525192 366.291382 -35.815002 0.000000
-114.041885 366.291382 -35.815002 0.000000
-100.558594 366.291382 -35.815002 0.000000
-87.075287 366.291382 -35.815002 0.000000
-73.591980 366.291382 -35.815002 0.000000
-60.108704 366.291382 -35.815002 0.000000
-46.625397 366.291382 -35.815002 0.000000
-33.142090 366.291382 -35.815002 0.000000
-19.658783 366.291382 -35.815002 0.000000
-6.175476 366.291382 -35.815002 3.772558
7.307800 366.291382 -35.815002 3.273939
20.791107 366.291382 -35.815002 3.086100
34.274414 366.291382 -35.815002 3.228980
47.757721 366.291382 -35.815002 3.467871
61.240997 366.291382 -35.815002 3.497605
74.724304 366.291382 -35.815002 3.988372
88.207611 366.291382 -35.815002 4.349018
101.690918 366.291382 -35.815002 4.493618
115.174225 366.291382 -35.815002 5.497071
128.657501 366.291382 -35.815002 0.000000
142.140808 366.291382 -35.815002 0.000000
155.624115 366.291382 -35.815002 0.000000
169.107422 366.291382 -35.815002 0.000000
182.590698 366.291382 -35.815002 0.000000
196.074036 366.291382 -35.815002 0.000000
209.557312 366.291382 -35.815002 0.000000
223.040588 366.291382 -35.815002 0.000000
236.523926 366.291382 -35.815002 0.000000
250.007202 366.291382 -35.815002 0.000000
263.490540 366.291382 -35.815002 0.000000
276.973816 366.291382 -35.815002 0.000000
290.457092 366.291382 -35.815002 0.000000
303.940430 366.291382 -35.815002 0.000000
317.423706 366.291382 -35.815002 0.000000
330.907043 366.291382 -35.815002 0.000000
344.390320 366.291382 -35.815002 0.000000
-343.257996 352.808105 -35.815002 0.000000
-329.774689 352.808105 -35.815002 0.000000
-316.291382 352.808105 -35.815002 0.000000
-302.808105 352.808105 -35.815002 0.000000
-289.324799 352.808105 -35.815002 0.000000
-275.841492 352.808105 -35.815002 0.000000
-262.358185 352.808105 -35.815002 0.000000
-248.874893 352.808105 -35.815002 0.000000
-235.391602 352.808105 -35.815002 0.000000
-221.908295 352.808105 -35.815002 6.715904
-208.424988 352.808105 -35.815002 6.790650
-194.941696 352.808105 -35.815002 8.017060
-181.458389 352.808105 -35.815002 9.216803
-167.975098 352.808105 -35.815002 10.587457
-154.491791 352.808105 -35.815002 12.074931
-141.008499 352.808105 -35.815002 11.709120
-127.525192 352.808105 -35.815002 11.786895
-114.041885 352.808105 -35.815002 10.501602
-100.558594 352.808105 -35.815002 10.347474
-87.075287 352.808105 -35.815002 10.311646
-73.591980 352.808105 -35.815002 9.653237
-60.108704 352.808105 -35.815002 9.864753
-46.625397 352.808105 -35.815002 8.586765
-33.142090 352.808105 -35.815002 6.274259
-19.658783 352.808105 -35.815002 4.662828
-6.175476 352.808105 -35.815002 3.604179
7.307800 352.808105 -35.815002 3.737538
20.791107 352.808105 -35.815002 3.218868
34.274414 352.808105 -35.815002 3.232102
47.757721 352.808105 -35.815002 3.570167
61.240997 352.808105 -35.815002 3.957711
74.724304 352.808105 -35.815002 4.311971
88.207611 352.808105 -35.815002 4.622416
101.690918 352.808105 -35.815002 5.208241
115.174225 352.808105 -35.815002 5.817992
128.657501 352.808105 -35.815002 7.539511
142.140808 352.808105 -35.815002 7.772389
155.624115 352.808105 -35.815002 7.932495
169.107422 352.808105 -35.815002 8.772667
182.590698 352.808105 -35.815002 9.452188
196.074036 352.808105 -35.815002 9.040213
209.557312 352.808105 -35.815002 0.000000
223.040588 352.808105 -35.815002 0.000000
236.523926 352.808105 -35.815002 0.000000
250.007202 352.808105 -35.815002 0.000000
263.490540 352.808105 -35.815002 0.000000
276.973816 352.808105 -35.815002 0.000000
290.457092 352.808105 -35.815002 0.000000
303.940430 352.808105 -35.815002 0.000000
317.423706 352.808105 -35.815002 0.000000
330.907043 352.808105 -35.815002 0.000000
344.390320 352.808105 -35.815002 0.000000
-343.257996 339.324799 -35.815002 0.000000
-329.774689 339.324799 -35.815002 0.000000
-316.291382 339.324799 -35.815002 0.000000
-302.808105 339.324799 -35.815002 0.000000
-289.324799 339.324799 -35.815002 0.000000
-275.841492 339.324799 -35.815002 11.144830
-262.358185 339.324799 -35.815002 8.605922
-248.874893 339.324799 -35.815002 6.885012
-235.391602 339.324799 -35.815002 5.892459
-221.908295 339.324799 -35.815002 6.004843
-208.424988 339.324799 -35.815002 6.791522
-194.941696 339.324799 -35.815002 7.815614
-181.458389 339.324799 -35.815002 8.556103
-167.975098 339.324799 -35.815002 9.753478
-154.491791 339.324799 -35.815002 10.361600
-141.008499 339.324799 -35.815002 9.738480
-127.525192 339.324799 -35.815002 9.737686
-114.041885 339.324799 -35.815002 9.383592
-100.558594 339.324799 -35.815002 8.647298
-87.075287 339.324799 -35.815002 8.299724
-73.591980 339.324799 -35.815002 8.825667
-60.108704 339.324799 -35.815002 9.282605
-46.625397 339.324799 -35.815002 7.830733
-33.142090 339.324799 -35.815002 6.829773
-19.658783 339.324799 -35.815002 4.765042
-6.175476 339.324799 -35.815002 3.666730
7.307800 339.324799 -35.815002 3.779864
20.791107 339.324799 -35.815002 3.643921
34.274414 339.324799 -35.815002 3.710110
47.757721 339.324799 -35.815002 4.016887
61.240997 339.324799 -35.815002 4.569444
74.724304 339.324799 -35.815002 4.697033
88.207611 339.324799 -35.815002 5.451189
101.690918 339.324799 -35.815002 6.495692
115.174225 339.324799 -35.815002 7.186310
128.657501 339.324799 -35.815002 8.153448
142.140808 339.324799 -35.815002 8.663987
155.624115 339.324799 -35.815002 8.908134
169.107422 339.324799 -35.815002 8.681611
182.590698 339.324799 -35.815002 8.350730
196.074036 339.324799 -35.815002 8.016906
209.557312 339.324799 -35.815002 7.462000
223.040588 339.324799 -35.815002 8.396071
236.523926 339.324799 -35.815002 9.920294
250.007202 339.324799 -35.815002 10.147916
263.490540 339.324799 -35.815002 14.606939
276.973816 339.324799 -35.815002 0.000000
290.457092 339.324799 -35.815002 0.000000
303.940430 339.324799 -35.815002 0.000000
317.423706 339.324799 -35.815002 0.000000
330.907043 339.324799 -35.815002 0.000000
344.390320 339.324799 -35.815002 0.000000
-343.257996 325.841492 -35.815002 0.000000
-329.774689 325.841492 -35.815002 0.000000
-316.291382 325.841492 -35.815002 0.000000
-302.808105 325.841492 -35.815002 0.000000
-289.324799 325.841492 -35.815002 10.044126
-275.841492 325.841492 -35.815002 7.484192
-262.358185 325.841492 -35.815002 5.586195
-248.874893 325.841492 -35.815002 5.154043
-235.391602 325.841492 -35.815002 5.014335
-221.908295 325.841492 -35.815002 5.449512
-208.424988 325.841492 -35.815002 6.249485
-194.941696 325.841492 -35.815002 7.238609
-181.458389 325.841492 -35.815002 8.105797
-167.975098 325.841492 -35.815002 8.528928
-154.491791 325.841492 -35.815002 8.700491
-141.008499 325.841492 -35.815002 8.756586
-127.525192 325.841492 -35.815002 8.599619
-114.041885 325.841492 -35.815002 8.167872
-100.558594 325.841492 -35.815002 7.639806
-87.075287 325.841492 -35.815002 7.389802
-73.591980 325.841492 -35.815002 7.791357
-60.108704 325.841492 -35.815002 7.669844
-46.625397 325.841492 -35.815002 7.271340
-33.142090 325.841492 -35.815002 6.272517
-19.658783 325.841492 -35.815002 4.859499
-6.175476 325.841492 -35.815002 4.484370
7.307800 325.841492 -35.815002 3.970797
20.791107 325.841492 -35.815002 3.811493
34.274414 325.841492 -35.815002 4.058350
47.757721 325.841492 -35.815002 4.530159
61.240997 325.841492 -35.815002 4.708720
74.724304 325.841492 -35.815002 5.761295
88.207611 325.841492 -35.815002 6.531291
101.690918 325.841492 -35.815002 8.092279
115.174225 325.841492 -35.815002 9.328261
128.657501 325.841492 -35.815002 10.278803
142.140808 325.841492 -35.815002 10.172044
155.624115 325.841492 -35.815002 9.941753
169.107422 325.841492 -35.815002 9.076872
182.590698 325.841492 -35.815002 8.381054
196.074036 325.841492 -35.815002 7.356671
209.557312 325.841492 -35.815002 7.031197
223.040588 325.841492 -35.815002 7.824985
236.523926 325.841492 -35.815002 8.592155
250.007202 325.841492 -35.815002 8.368695
263.490540 325.841492 -35.815002 8.760574
276.973816 325.841492 -35.815002 12.146259
290.457092 325.841492 -35.815002 23.532717
303.940430 325.841492 -35.815002 0.000000
317.423706 325.841492 -35.815002 0.000000
330.907043 325.841492 -35.815002 0.000000
344.390320 325.841492 -35.815002 0.000000
-343.257996 312.358185 -35.815002 0.000000
-329.774689 312.358185 -35.815002 0.000000
-316.291382 312.358185 -35.815002 0.000000
-302.808105 312.358185 -35.815002 6.264069
-289.324799 312.358185 -35.815002 4.386157
-275.841492 312.358185 -35.815002 4.004479
-262.358185 312.358185 -35.815002 3.718450
-248.874893 312.358185 -35.815002 3.320069
-235.391602 312.358185 -35.815002 3.768728
-221.908295 312.358185 -35.815002 4.466020
-208.424988 312.358185 -35.815002 5.932968
-194.941696 312.358185 -35.815002 6.991984
-181.458389 312.358185 -35.815002 7.898380
-167.975098 312.358185 -35.815002 8.168392
-154.491791 312.358185 -35.815002 8.073384
-141.008499 312.358185 -35.815002 8.141978
-127.525192 312.358185 -35.815002 7.662036
-114.041885 312.358185 -35.815002 7.098906
-100.558594 312.358185 -35.815002 6.767958
-87.075287 312.358185 -35.815002 6.390608
-73.591980 312.358185 -35.815002 6.950481
-60.108704 312.358185 -35.815002 6.683675
-46.625397 312.358185 -35.815002 6.683130
-33.142090 312.358185 -35.815002 6.140001
-19.658783 312.358185 -35.815002 5.272681
-6.175476 312.358185 -35.815002 4.978741
7.307800 312.358185 -35.815002 4.464896
20.791107 312.358185 -35.815002 4.296571
34.274414 312.358185 -35.815002 4.328746
47.757721 312.358185 -35.815002 4.801713
61.240997 312.358185 -35.815002 5.267696
74.724304 312.358185 -35.815002 5.851902
88.207611 312.358185 -35.815002 7.305740
101.690918 312.358185 -35.815002 8.307747
115.174225 312.358185 -35.815002 9.599493
128.657501 312.358185 -35.815002 9.718755
142.140808 312.358185 -35.815002 9.808980
155.624115 312.358185 -35.815002 9.630158
169.107422 312.358185 -35.815002 8.774477
182.590698 312.358185 -35.815002 8.855311
196.074036 312.358185 -35.815002 7.891890
209.557312 312.358185 -35.815002 7.371691
223.040588 312.358185 -35.815002 6.835309
236.523926 312.358185 -35.815002 6.868134
250.007202 312.358185 -35.815002 5.961504
263.490540 312.358185 -35.815002 5.618659
276.973816 312.358185 -35.815002 7.087752
290.457092 312.358185 -35.815002 9.039496
303.940430 312.358185 -35.815002 0.000000
317.423706 312.358185 -35.815002 0.000000
330.907043 312.358185 -35.815002 0.000000
344.390320 312.358185 -35.815002 0.000000
-343.257996 298.874878 -35.815002 0.000000
-329.774689 298.874878 -35.815002 0.000000
-316.291382 298.874878 -35.815002 4.408681
-302.808105 298.874878 -35.815002 3.742101
-289.324799 298.874878 -35.815002 3.061228
-275.841492 298.874878 -35.815002 2.537254
-262.358185 298.874878 -35.815002 2.698088
-248.874893 298.874878 -35.815002 2.675258
-235.391602 298.874878 -35.815002 2.909756
-221.908295 298.874878 -35.815002 4.255408
-208.424988 298.874878 -35.815002 5.336892
-194.941696 298.874878 -35.815002 6.748866
-181.458389 298.874878 -35.815002 7.367625
-167.975098 298.874878 -35.815002 8.085047
-154.491791 298.874878 -35.815002 7.503857
-141.008499 298.874878 -35.815002 7.594348
-127.525192 298.874878 -35.815002 6.905587
-114.041885 298.874878 -35.815002 6.336010
-100.558594 298.874878 -35.815002 5.883924
-87.075287 298.874878 -35.815002 5.804556
-73.591980 298.874878 -35.815002 5.663845
-60.108704 298.874878 -35.815002 5.775363
-46.625397 298.874878 -35.815002 6.148472
-33.142090 298.874878 -35.815002 6.188646
-19.658783 298.874878 -35.815002 6.144002
-6.175476 298.874878 -35.815002 5.135108
7.307800 298.874878 -35.815002 4.873219
20.791107 298.874878 -35.815002 4.908083
34.274414 298.874878 -35.815002 4.546949
47.757721 298.874878 -35.815002 4.651638
61.240997 298.874878 -35.815002 5.573846
74.724304 298.874878 -35.815002 6.708670
88.207611 298.874878 -35.815002 8.005957
101.690918 298.874878 -35.815002 9.196064
115.174225 298.874878 -35.815002 9.295713
128.657501 298.874878 -35.815002 10.192050
142.140808 298.874878 -35.815002 10.100378
155.624115 298.874878 -35.815002 9.707481
169.107422 298.874878 -35.815002 9.668743
182.590698 298.874878 -35.815002 9.145117
196.074036 298.874878 -35.815002 7.976897
209.557312 298.874878 -35.815002 7.107114
223.040588 298.874878 -35.815002 6.258898
236.523926 298.874878 -35.815002 5.570508
250.007202 298.874878 -35.815002 4.407464
263.490540 298.874878 -35.815002 4.056461
276.973816 298.874878 -35.815002 4.748685
290.457092 298.874878 -35.815002 4.703312
303.940430 298.874878 -35.815002 6.733171
317.423706 298.874878 -35.815002 0.000000
330.907043 298.874878 -35.815002 0.000000
344.390320 298.874878 -35.815002 0.000000
-343.257996 285.391602 -35.815002 0.000000
-329.774689 285.391602 -35.815002 0.000000
-316.291382 285.391602 -35.815002 2.700768
-302.808105 285.391602 -35.815002 2.009393
-289.324799 285.391602 -35.815002 1.964658
-275.841492 285.391602 -35.815002 1.816167
-262.358185 285.391602 -35.815002 1.960657
-248.874893 285.391602 -35.815002 2.148195
-235.391602 285.391602 -35.815002 3.034511
-221.908295 285.391602 -35.815002 4.181540
-208.424988 285.391602 -35.815002 5.426581
-194.941696 285.391602 -35.815002 6.636672
-181.458389 285.391602 -35.815002 7.492469
-167.975098 285.391602 -35.815002 7.886236
-154.491791 285.391602 -35.815002 7.554302
-141.008499 285.391602 -35.815002 6.817214
-127.525192 285.391602 -35.815002 6.497345
-114.041885 285.391602 -35.815002 6.503192
-100.558594 285.391602 -35.815002 5.488616
-87.075287 285.391602 -35.815002 5.544545
-73.591980 285.391602 -35.815002 5.222963
-60.108704 285.391602 -35.815002 5.226140
-46.625397 285.391602 -35.815002 5.898566
-33.142090 285.391602 -35.815002 6.292091
-19.658783 285.391602 -35.815002 5.665401
-6.175476 285.391602 -35.815002 5.019743
7.307800 285.391602 -35.815002 4.769002
20.791107 285.391602 -35.815002 5.040007
34.274414 285.391602 -35.815002 5.117961
47.757721 285.391602 -35.815002 5.059458
61.240997 285.391602 -35.815002 5.457355
74.724304 285.391602 -35.815002 6.546399
88.207611 285.391602 -35.815002 7.919461
101.690918 285.391602 -35.815002 8.428115
115.174225 285.391602 -35.815002 8.179040
128.657501 285.391602 -35.815002 8.939666
142.140808 285.391602 -35.815002 8.594920
155.624115 285.391602 -35.815002 8.817679
169.107422 285.391602 -35.815002 9.543282
182.590698 285.391602 -35.815002 9.708738
196.074036 285.391602 -35.815002 8.700418
209.557312 285.391602 -35.815002 7.181148
223.040588 285.391602 -35.815002 6.292759
236.523926 285.391602 -35.815002 4.367555
250.007202 285.391602 -35.815002 3.491872
263.490540 285.391602 -35.815002 3.256117
276.973816 285.391602 -35.815002 3.272405
290.457092 285.391602 -35.815002 3.840246
303.940430 285.391602 -35.815002 4.420063
317.423706 285.391602 -35.815002 0.000000
330.907043 285.391602 -35.815002 0.000000
344.390320 285.391602 -35.815002 0.000000
-343.257996 271.908295 -35.815002 0.000000
-329.774689 271.908295 -35.815002 0.000000
-316.291382 271.908295 -35.815002 1.869860
-302.808105 271.908295 -35.815002 1.535594
-289.324799 271.908295 -35.815002 1.515479
-275.841492 271.908295 -35.815002 1.418761
-262.358185 271.908295 -35.815002 1.734545
-248.874893 271.908295 -35.815002 2.129970
-235.391602 271.908295 -35.815002 2.668397
-221.908295 271.908295 -35.815002 3.683064
-208.424988 271.908295 -35.815002 5.207886
-194.941696 271.908295 -35.815002 6.557816
-181.458389 271.908295 -35.815002 7.651367
-167.975098 271.908295 -35.815002 7.466173
-154.491791 271.908295 -35.815002 6.840961
-141.008499 271.908295 -35.815002 6.529572
-127.525192 271.908295 -35.815002 6.306722
-114.041885 271.908295 -35.815002 6.100276
-100.558594 271.908295 -35.815002 5.546189
-87.075287 271.908295 -35.815002 5.130417
-73.591980 271.908295 -35.815002 4.953972
-60.108704 271.908295 -35.815002 5.233020
-46.625397 271.908295 -35.815002 5.595028
-33.142090 271.908295 -35.815002 5.659731
-19.658783 271.908295 -35.815002 5.414751
-6.175476 271.908295 -35.815002 4.821829
7.307800 271.908295 -35.815002 4.997307
20.791107 271.908295 -35.815002 5.170292
34.274414 271.908295 -35.815002 5.078765
47.757721 271.908295 -35.815002 5.550865
61.240997 271.908295 -35.815002 5.651744
74.724304 271.908295 -35.815002 6.549896
88.207611 271.908295 -35.815002 7.405033
101.690918 271.908295 -35.815002 7.054214
115.174225 271.908295 -35.815002 7.321652
128.657501 271.908295 -35.815002 7.247006
142.140808 271.908295 -35.815002 7.171413
155.624115 271.908295 -35.815002 7.705647
169.107422 271.908295 -35.815002 8.692075
182.590698 271.908295 -35.815002 8.907372
196.074036 271.908295 -35.815002 8.687148
209.557312 271.908295 -35.815002 7.570534
223.040588 271.908295 -35.815002 6.099243
236.523926 271.908295 -35.815002 4.324941
250.007202 271.908295 -35.815002 3.025070
263.490540 271.908295 -35.815002 2.383334
276.973816 271.908295 -35.815002 2.705047
290.457092 271.908295 -35.815002 2.787102
303.940430 271.908295 -35.815002 3.296903
317.423706 271.908295 -35.815002 3.453764
330.907043 271.908295 -35.815002 0.000000
344.390320 271.908295 -35.815002 0.000000
-343.257996 258.424988 -35.815002 0.000000
-329.774689 258.424988 -35.815002 0.000000
-316.291382 258.424988 -35.815002 1.459138
-302.808105 258.424988 -35.815002 1.226364
-289.324799 258.424988 -35.815002 1.240302
-275.841492 258.424988 -35.815002 1.232748
-262.358185 258.424988 -35.815002 1.589265
-248.874893 258.424988 -35.815002 1.847654
-235.391602 258.424988 -35.815002 2.552824
-221.908295 258.424988 -35.815002 3.593430
-208.424988 258.424988 -35.815002 4.537436
-194.941696 258.424988 -35.815002 5.757807
-181.458389 258.424988 -35.815002 6.615155
-167.975098 258.424988 -35.815002 6.757430
-154.491791 258.424988 -35.815002 6.087003
-141.008499 258.424988 -35.815002 5.958433
-127.525192 258.424988 -35.815002 6.073996
-114.041885 258.424988 -35.815002 5.839000
-100.558594 258.424988 -35.815002 5.330221
-87.075287 258.424988 -35.815002 4.861207
-73.591980 258.424988 -35.815002 4.905365
-60.108704 258.424988 -35.815002 5.327518
-46.625397 258.424988 -35.815002 5.582060
-33.142090 258.424988 -35.815002 5.668834
-19.658783 258.424988 -35.815002 5.384895
-6.175476 258.424988 -35.815002 4.991249
7.307800 258.424988 -35.815002 5.001403
20.791107 258.424988 -35.815002 5.355625
34.274414 258.424988 -35.815002 4.992097
47.757721 258.424988 -35.815002 5.037088
61.240997 258.424988 -35.815002 5.335142
74.724304 258.424988 -35.815002 6.395605
88.207611 258.424988 -35.815002 6.042079
101.690918 258.424988 -35.815002 6.271564
115.174225 258.424988 -35.815002 6.208253
128.657501 258.424988 -35.815002 6.226990
142.140808 258.424988 -35.815002 6.419307
155.624115 258.424988 -35.815002 6.966454
169.107422 258.424988 -35.815002 7.803197
182.590698 258.424988 -35.815002 8.472839
196.074036 258.424988 -35.815002 8.917834
209.557312 258.424988 -35.815002 8.122263
223.040588 258.424988 -35.815002 6.085479
236.523926 258.424988 -35.815002 4.256515
250.007202 258.424988 -35.815002 2.652660
263.490540 258.424988 -35.815002 1.936770
276.973816 258.424988 -35.815002 1.665802
290.457092 258.424988 -35.815002 1.907887
303.940430 258.424988 -35.815002 2.380961
317.423706 258.424988 -35.815002 2.939771
330.907043 258.424988 -35.815002 0.000000
344.390320 258.424988 -35.815002 0.000000
-343.257996 244.941696 -35.815002 0.000000
-329.774689 244.941696 -35.815002 0.000000
-316.291382 244.941696 -35.815002 1.254635
-302.808105 244.941696 -35.815002 1.119943
-289.324799 244.941696 -35.815002 1.068262
-275.841492 244.941696 -35.815002 1.144460
-262.358185 244.941696 -35.815002 1.367124
-248.874893 244.941696 -35.815002 1.878322
-235.391602 244.941696 -35.815002 2.391813
-221.908295 244.941696 -35.815002 3.512136
-208.424988 244.941696 -35.815002 4.395226
-194.941696 244.941696 -35.815002 5.287326
-181.458389 244.941696 -35.815002 5.805312
-167.975098 244.941696 -35.815002 5.863825
-154.491791 244.941696 -35.815002 5.477508
-141.008499 244.941696 -35.815002 5.583056
-127.525192 244.941696 -35.815002 5.850686
-114.041885 244.941696 -35.815002 6.229705
-100.558594 244.941696 -35.815002 5.557848
-87.075287 244.941696 -35.815002 4.873811
-73.591980 244.941696 -35.815002 4.756360
-60.108704 244.941696 -35.815002 5.056506
-46.625397 244.941696 -35.815002 5.140276
-33.142090 244.941696 -35.815002 5.517148
-19.658783 244.941696 -35.815002 5.193764
-6.175476 244.941696 -35.815002 5.234267
7.307800 244.941696 -35.815002 5.158530
20.791107 244.941696 -35.815002 5.179366
34.274414 244.941696 -35.815002 4.671111
47.757721 244.941696 -35.815002 4.870178
61.240997 244.941696 -35.815002 4.931681
74.724304 244.941696 -35.815002 5.281551
88.207611 244.941696 -35.815002 5.198041
101.690918 244.941696 -35.815002 5.365835
115.174225 244.941696 -35.815002 5.131149
128.657501 244.941696 -35.815002 5.557471
142.140808 244.941696 -35.815002 5.694958
155.624115 244.941696 -35.815002 6.406522
169.107422 244.941696 -35.815002 7.101144
182.590698 244.941696 -35.815002 7.153569
196.074036 244.941696 -35.815002 8.394827
209.557312 244.941696 -35.815002 7.817207
223.040588 244.941696 -35.815002 6.128472
236.523926 244.941696 -35.815002 4.265525
250.007202 244.941696 -35.815002 2.562124
263.490540 244.941696 -35.815002 1.672582
276.973816 244.941696 -35.815002 1.548842
290.457092 244.941696 -35.815002 1.709651
303.940430 244.941696 -35.815002 1.792774
317.423706 244.941696 -35.815002 2.070466
330.907043 244.941696 -35.815002 0.000000
344.390320 244.941696 -35.815002 0.000000
-343.257996 231.458389 -35.815002 0.000000
-329.774689 231.458389 -35.815002 0.000000
-316.291382 231.458389 -35.815002 1.007247
-302.808105 231.458389 -35.815002 0.976718
-289.324799 231.458389 -35.815002 1.095402
-275.841492 231.458389 -35.815002 1.240905
-262.358185 231.458389 -35.815002 1.485568
-248.874893 231.458389 -35.815002 1.860704
-235.391602 231.458389 -35.815002 2.586920
-221.908295 231.458389 -35.815002 3.567313
-208.424988 231.458389 -35.815002 4.431591
-194.941696 231.458389 -35.815002 5.333084
-181.458389 231.458389 -35.815002 5.936533
-167.975098 231.458389 -35.815002 5.730814
-154.491791 231.458389 -35.815002 5.474703
-141.008499 231.458389 -35.815002 5.345653
-127.525192 231.458389 -35.815002 5.679796
-114.041885 231.458389 -35.815002 5.638565
-100.558594 231.458389 -35.815002 5.658384
-87.075287 231.458389 -35.815002 5.107092
-73.591980 231.458389 -35.815002 4.814902
-60.108704 231.458389 -35.815002 4.542526
-46.625397 231.458389 -35.815002 4.922654
-33.142090 231.458389 -35.815002 5.074734
-19.658783 231.458389 -35.815002 5.050831
-6.175476 231.458389 -35.815002 5.263258
7.307800 231.458389 -35.815002 5.048548
20.791107 231.458389 -35.815002 4.482537
34.274414 231.458389 -35.815002 4.339683
47.757721 231.458389 -35.815002 4.544305
61.240997 231.458389 -35.815002 4.461812
74.724304 231.458389 -35.815002 4.439468
88.207611 231.458389 -35.815002 4.569429
101.690918 231.458389 -35.815002 4.733395
115.174225 231.458389 -35.815002 4.649310
128.657501 231.458389 -35.815002 5.179971
142.140808 231.458389 -35.815002 5.167434
155.624115 231.458389 -35.815002 5.656740
169.107422 231.458389 -35.815002 5.925310
182.590698 231.458389 -35.815002 6.480172
196.074036 231.458389 -35.815002 7.575746
209.557312 231.458389 -35.815002 7.202441
223.040588 231.458389 -35.815002 5.641387
236.523926 231.458389 -35.815002 3.738358
250.007202 231.458389 -35.815002 2.312505
263.490540 231.458389 -35.815002 1.393234
276.973816 231.458389 -35.815002 1.228401
290.457092 231.458389 -35.815002 1.263558
303.940430 231.458389 -35.815002 1.265151
317.423706 231.458389 -35.815002 1.430299
330.907043 231.458389 -35.815002 0.000000
344.390320 231.458389 -35.815002 0.000000
-343.257996 217.975098 -35.815002 0.000000
-329.774689 217.975098 -35.815002 0.000000
-316.291382 217.975098 -35.815002 1.060830
-302.808105 217.975098 -35.815002 1.125248
-289.324799 217.975098 -35.815002 1.205554
-275.841492 217.975098 -35.815002 1.411867
-262.358185 217.975098 -35.815002 1.646839
-248.874893 217.975098 -35.815002 2.172111
-235.391602 217.975098 -35.815002 3.059214
-221.908295 217.975098 -35.815002 3.824907
-208.424988 217.975098 -35.815002 4.515881
-194.941696 217.975098 -35.815002 5.432193
-181.458389 217.975098 -35.815002 5.509243
-167.975098 217.975098 -35.815002 5.670967
-154.491791 217.975098 -35.815002 5.368729
-141.008499 217.975098 -35.815002 5.182688
-127.525192 217.975098 -35.815002 5.416106
-114.041885 217.975098 -35.815002 5.564484
-100.558594 217.975098 -35.815002 5.550756
-87.075287 217.975098 -35.815002 5.139907
-73.591980 217.975098 -35.815002 4.899042
-60.108704 217.975098 -35.815002 4.830520
-46.625397 217.975098 -35.815002 4.840249
-33.142090 217.975098 -35.815002 4.929541
-19.658783 217.975098 -35.815002 5.097003
-6.175476 217.975098 -35.815002 4.777749
7.307800 217.975098 -35.815002 4.780306
20.791107 217.975098 -35.815002 4.611967
34.274414 217.975098 -35.815002 4.367443
47.757721 217.975098 -35.815002 4.613024
61.240997 217.975098 -35.815002 4.484028
74.724304 217.975098 -35.815002 4.762312
88.207611 217.975098 -35.815002 5.102598
101.690918 217.975098 -35.815002 4.843475
115.174225 217.975098 -35.815002 4.854840
128.657501 217.975098 -35.815002 4.838848
142.140808 217.975098 -35.815002 5.039698
155.624115 217.975098 -35.815002 5.005333
169.107422 217.975098 -35.815002 5.458619
182.590698 217.975098 -35.815002 6.379277
196.074036 217.975098 -35.815002 7.027912
209.557312 217.975098 -35.815002 6.737179
223.040588 217.975098 -35.815002 5.029667
236.523926 217.975098 -35.815002 3.237647
250.007202 217.975098 -35.815002 1.963163
263.490540 217.975098 -35.815002 1.315550
276.973816 217.975098 -35.815002 1.062141
290.457092 217.975098 -35.815002 0.938911
303.940430 217.975098 -35.815002 0.876493
317.423706 217.975098 -35.815002 0.950044
330.907043 217.975098 -35.815002 0.000000
344.390320 217.975098 -35.815002 0.000000
-343.257996 204.491791 -35.815002 0.000000
-329.774689 204.491791 -35.815002 0.000000
-316.291382 204.491791 -35.815002 1.162230
-302.808105 204.491791 -35.815002 1.162184
-289.324799 204.491791 -35.815002 1.399869
-275.841492 204.491791 -35.815002 1.508344
-262.358185 204.491791 -35.815002 1.912720
-248.874893 204.491791 -35.815002 2.424282
-235.391602 204.491791 -35.815002 3.083650
-221.908295 204.491791 -35.815002 3.742307
-208.424988 204.491791 -35.815002 4.312331
-194.941696 204.491791 -35.815002 4.867327
-181.458389 204.491791 -35.815002 5.372080
-167.975098 204.491791 -35.815002 5.599480
-154.491791 204.491791 -35.815002 5.292888
-141.008499 204.491791 -35.815002 5.575967
-127.525192 204.491791 -35.815002 5.952239
-114.041885 204.491791 -35.815002 5.728264
-100.558594 204.491791 -35.815002 5.847832
-87.075287 204.491791 -35.815002 6.142542
-73.591980 204.491791 -35.815002 5.641282
-60.108704 204.491791 -35.815002 5.082732
-46.625397 204.491791 -35.815002 4.886582
-33.142090 204.491791 -35.815002 4.643224
-19.658783 204.491791 -35.815002 4.676010
-6.175476 204.491791 -35.815002 4.229180
7.307800 204.491791 -35.815002 4.426478
20.791107 204.491791 -35.815002 4.954446
34.274414 204.491791 -35.815002 4.973567
47.757721 204.491791 -35.815002 5.016411
61.240997 204.491791 -35.815002 4.919606
74.724304 204.491791 -35.815002 4.987566
88.207611 204.491791 -35.815002 5.279008
101.690918 204.491791 -35.815002 5.106350
115.174225 204.491791 -35.815002 5.352052
128.657501 204.491791 -35.815002 5.061639
142.140808 204.491791 -35.815002 4.595407
155.624115 204.491791 -35.815002 4.719608
169.107422 204.491791 -35.815002 5.258089
182.590698 204.491791 -35.815002 5.911909
196.074036 204.491791 -35.815002 6.304576
209.557312 204.491791 -35.815002 5.757566
223.040588 204.491791 -35.815002 4.083300
236.523926 204.491791 -35.815002 2.673389
250.007202 204.491791 -35.815002 1.677807
263.490540 204.491791 -35.815002 1.177694
276.973816 204.491791 -35.815002 0.930009
290.457092 204.491791 -35.815002 0.793581
303.940430 204.491791 -35.815002 0.741844
317.423706 204.491791 -35.815002 0.788805
330.907043 204.491791 -35.815002 0.000000
344.390320 204.491791 -35.815002 0.000000
-343.257996 191.008499 -35.815002 0.000000
-329.774689 191.008499 -35.815002 0.000000
-316.291382 191.008499 -35.815002 1.214469
-302.808105 191.008499 -35.815002 1.228560
-289.324799 191.008499 -35.815002 1.409269
-275.841492 191.008499 -35.815002 1.703676
-262.358185 191.008499 -35.815002 2.226415
-248.874893 191.008499 -35.815002 2.685387
-235.391602 191.008499 -35.815002 3.424091
-221.908295 191.008499 -35.815002 4.093707
-208.424988 191.008499 -35.815002 4.494910
-194.941696 191.008499 -35.815002 5.052928
-181.458389 191.008499 -35.815002 5.247944
-167.975098 191.008499 -35.815002 5.708591
-154.491791 191.008499 -35.815002 5.482278
-141.008499 191.008499 -35.815002 5.874334
-127.525192 191.008499 -35.815002 5.910704
-114.041885 191.008499 -35.815002 6.313514
-100.558594 191.008499 -35.815002 6.384450
-87.075287 191.008499 -35.815002 6.804935
-73.591980 191.008499 -35.815002 6.357655
-60.108704 191.008499 -35.815002 5.720591
-46.625397 191.008499 -35.815002 5.013541
-33.142090 191.008499 -35.815002 4.471622
-19.658783 191.008499 -35.815002 4.453106
-6.175476 191.008499 -35.815002 4.384368
7.307800 191.008499 -35.815002 4.662962
20.791107 191.008499 -35.815002 4.760490
34.274414 191.008499 -35.815002 4.882052
47.757721 191.008499 -35.815002 5.053024
61.240997 191.008499 -35.815002 5.020308
74.724304 191.008499 -35.815002 4.913968
88.207611 191.008499 -35.815002 4.736653
101.690918 191.008499 -35.815002 5.325703
115.174225 191.008499 -35.815002 5.384074
128.657501 191.008499 -35.815002 4.923491
142.140808 191.008499 -35.815002 4.527164
155.624115 191.008499 -35.815002 4.582428
169.107422 191.008499 -35.815002 5.036241
182.590698 191.008499 -35.815002 5.677351
196.074036 191.008499 -35.815002 5.323216
209.557312 191.008499 -35.815002 4.587680
223.040588 191.008499 -35.815002 3.126900
236.523926 191.008499 -35.815002 2.070688
250.007202 191.008499 -35.815002 1.358365
263.490540 191.008499 -35.815002 1.013315
276.973816 191.008499 -35.815002 0.808645
290.457092 191.008499 -35.815002 0.784001
303.940430 191.008499 -35.815002 0.771504
317.423706 191.008499 -35.815002 0.735650
330.907043 191.008499 -35.815002 0.000000
344.390320 191.008499 -35.815002 0.000000
-343.257996 177.525192 -35.815002 0.000000
-329.774689 177.525192 -35.815002 0.000000
-316.291382 177.525192 -35.815002 1.395295
-302.808105 177.525192 -35.815002 1.532911
-289.324799 177.525192 -35.815002 1.588146
-275.841492 177.525192 -35.815002 1.870319
-262.358185 177.525192 -35.815002 2.539651
-248.874893 177.525192 -35.815002 3.144402
-235.391602 177.525192 -35.815002 3.884845
-221.908295 177.525192 -35.815002 4.131088
-208.424988 177.525192 -35.815002 4.601962
-194.941696 177.525192 -35.815002 5.298324
-181.458389 177.525192 -35.815002 5.377516
-167.975098 177.525192 -35.815002 5.632111
-154.491791 177.525192 -35.815002 5.767179
-141.008499 177.525192 -35.815002 5.859303
-127.525192 177.525192 -35.815002 6.488472
-114.041885 177.525192 -35.815002 6.695353
-100.558594 177.525192 -35.815002 7.318492
-87.075287 177.525192 -35.815002 6.953545
-73.591980 177.525192 -35.815002 6.714880
-60.108704 177.525192 -35.815002 5.670798
-46.625397 177.525192 -35.815002 5.262414
-33.142090 177.525192 -35.815002 4.719545
-19.658783 177.525192 -35.815002 3.868277
-6.175476 177.525192 -35.815002 4.305406
7.307800 177.525192 -35.815002 4.121804
20.791107 177.525192 -35.815002 4.562956
34.274414 177.525192 -35.815002 4.558054
47.757721 177.525192 -35.815002 4.948499
61.240997 177.525192 -35.815002 4.732752
74.724304 177.525192 -35.815002 4.949836
88.207611 177.525192 -35.815002 4.985086
101.690918 177.525192 -35.815002 5.300673
115.174225 177.525192 -35.815002 4.850435
128.657501 177.525192 -35.815002 4.771554
142.140808 177.525192 -35.815002 4.737154
155.624115 177.525192 -35.815002 4.714300
169.107422 177.525192 -35.815002 4.789697
182.590698 177.525192 -35.815002 4.841706
196.074036 177.525192 -35.815002 4.537438
209.557312 177.525192 -35.815002 3.616567
223.040588 177.525192 -35.815002 2.633268
236.523926 177.525192 -35.815002 1.659060
250.007202 177.525192 -35.815002 1.074934
263.490540 177.525192 -35.815002 0.874934
276.973816 177.525192 -35.815002 0.769678
290.457092 177.525192 -35.815002 0.766636
303.940430 177.525192 -35.815002 0.634759
317.423706 177.525192 -35.815002 0.597026
330.907043 177.525192 -35.815002 0.000000
344.390320 177.525192 -35.815002 0.000000
-343.257996 164.041885 -35.815002 0.000000
-329.774689 164.041885 -35.815002 0.000000
-316.291382 164.041885 -35.815002 1.651458
-302.808105 164.041885 -35.815002 1.797453
-289.324799 164.041885 -35.815002 1.939713
-275.841492 164.041885 -35.815002 2.173781
-262.358185 164.041885 -35.815002 2.924691
-248.874893 164.041885 -35.815002 3.503289
-235.391602 164.041885 -35.815002 3.961649
-221.908295 164.041885 -35.815002 4.382973
-208.424988 164.041885 -35.815002 4.824688
-194.941696 164.041885 -35.815002 5.139493
-181.458389 164.041885 -35.815002 5.485165
-167.975098 164.041885 -35.815002 5.597389
-154.491791 164.041885 -35.815002 5.821455
-141.008499 164.041885 -35.815002 6.313911
-127.525192 164.041885 -35.815002 7.107455
-114.041885 164.041885 -35.815002 7.213732
-100.558594 164.041885 -35.815002 7.179277
-87.075287 164.041885 -35.815002 7.260630
-73.591980 164.041885 -35.815002 6.577613
-60.108704 164.041885 -35.815002 6.208025
-46.625397 164.041885 -35.815002 5.313507
-33.142090 164.041885 -35.815002 4.589221
-19.658783 164.041885 -35.815002 4.117373
-6.175476 164.041885 -35.815002 4.240005
7.307800 164.041885 -35.815002 4.534148
20.791107 164.041885 -35.815002 4.797276
34.274414 164.041885 -35.815002 4.666618
47.757721 164.041885 -35.815002 4.803279
61.240997 164.041885 -35.815002 5.084291
74.724304 164.041885 -35.815002 5.184487
88.207611 164.041885 -35.815002 4.882436
101.690918 164.041885 -35.815002 4.969093
115.174225 164.041885 -35.815002 4.704546
128.657501 164.041885 -35.815002 4.249996
142.140808 164.041885 -35.815002 4.377058
155.624115 164.041885 -35.815002 4.533764
169.107422 164.041885 -35.815002 4.472187
182.590698 164.041885 -35.815002 4.146805
196.074036 164.041885 -35.815002 3.575845
209.557312 164.041885 -35.815002 2.882694
223.040588 164.041885 -35.815002 1.909100
236.523926 164.041885 -35.815002 1.281991
250.007202 164.041885 -35.815002 0.898829
263.490540 164.041885 -35.815002 0.757557
276.973816 164.041885 -35.815002 0.689010
290.457092 164.041885 -35.815002 0.637860
303.940430 164.041885 -35.815002 0.556286
317.423706 164.041885 -35.815002 0.505436
330.907043 164.041885 -35.815002 0.000000
344.390320 164.041885 -35.815002 0.000000
-343.257996 150.558594 -35.815002 0.000000
-329.774689 150.558594 -35.815002 0.000000
-316.291382 150.558594 -35.815002 2.549694
-302.808105 150.558594 -35.815002 2.323425
-289.324799 150.558594 -35.815002 2.275360
-275.841492 150.558594 -35.815002 2.647382
-262.358185 150.558594 -35.815002 3.305017
-248.874893 150.558594 -35.815002 3.753801
-235.391602 150.558594 -35.815002 4.406271
-221.908295 150.558594 -35.815002 4.699121
-208.424988 150.558594 -35.815002 4.865431
-194.941696 150.558594 -35.815002 5.314678
-181.458389 150.558594 -35.815002 5.791811
-167.975098 150.558594 -35.815002 5.999804
-154.491791 150.558594 -35.815002 6.350636
-141.008499 150.558594 -35.815002 7.149801
-127.525192 150.558594 -35.815002 7.326415
-114.041885 150.558594 -35.815002 7.043087
-100.558594 150.558594 -35.815002 7.209971
-87.075287 150.558594 -35.815002 7.312489
-73.591980 150.558594 -35.815002 6.765146
-60.108704 150.558594 -35.815002 6.175657
-46.625397 150.558594 -35.815002 5.340425
-33.142090 150.558594 -35.815002 4.635643
-19.658783 150.558594 -35.815002 4.187143
-6.175476 150.558594 -35.815002 4.130243
7.307800 150.558594 -35.815002 4.561874
20.791107 150.558594 -35.815002 4.891163
34.274414 150.558594 -35.815002 5.171702
47.757721 150.558594 -35.815002 5.211540
61.240997 150.558594 -35.815002 5.598705
74.724304 150.558594 -35.815002 5.628571
88.207611 150.558594 -35.815002 5.299026
101.690918 150.558594 -35.815002 4.672380
115.174225 150.558594 -35.815002 4.113335
128.657501 150.558594 -35.815002 4.139870
142.140808 150.558594 -35.815002 4.200669
155.624115 150.558594 -35.815002 4.075195
169.107422 150.558594 -35.815002 3.769672
182.590698 150.558594 -35.815002 3.414267
196.074036 150.558594 -35.815002 3.136187
209.557312 150.558594 -35.815002 2.193751
223.040588 150.558594 -35.815002 1.448726
236.523926 150.558594 -35.815002 1.019939
250.007202 150.558594 -35.815002 0.756773
263.490540 150.558594 -35.815002 0.646371
276.973816 150.558594 -35.815002 0.592133
290.457092 150.558594 -35.815002 0.519429
303.940430 150.558594 -35.815002 0.464744
317.423706 150.558594 -35.815002 0.463729
330.907043 150.558594 -35.815002 0.000000
344.390320 150.558594 -35.815002 0.000000
-343.257996 137.075287 -35.815002 0.000000
-329.774689 137.075287 -35.815002 0.000000
-316.291382 137.075287 -35.815002 0.000000
-302.808105 137.075287 -35.815002 2.764692
-289.324799 137.075287 -35.815002 2.742657
-275.841492 137.075287 -35.815002 2.910811
-262.358185 137.075287 -35.815002 3.388300
-248.874893 137.075287 -35.815002 3.976660
-235.391602 137.075287 -35.815002 4.576273
-221.908295 137.075287 -35.815002 4.892683
-208.424988 137.075287 -35.815002 5.147245
-194.941696 137.075287 -35.815002 5.561026
-181.458389 137.075287 -35.815002 6.048795
-167.975098 137.075287 -35.815002 6.567415
-154.491791 137.075287 -35.815002 7.001441
-141.008499 137.075287 -35.815002 7.656521
-127.525192 137.075287 -35.815002 7.645230
-114.041885 137.075287 -35.815002 8.096202
-100.558594 137.075287 -35.815002 8.348733
-87.075287 137.075287 -35.815002 7.645352
-73.591980 137.075287 -35.815002 7.412596
-60.108704 137.075287 -35.815002 6.232467
-46.625397 137.075287 -35.815002 5.406799
-33.142090 137.075287 -35.815002 4.825536
-19.658783 137.075287 -35.815002 4.431777
-6.175476 137.075287 -35.815002 4.406487
7.307800 137.075287 -35.815002 4.096136
20.791107 137.075287 -35.815002 4.991151
34.274414 137.075287 -35.815002 5.516651
47.757721 137.075287 -35.815002 5.518024
61.240997 137.075287 -35.815002 5.454061
74.724304 137.075287 -35.815002 6.130514
88.207611 137.075287 -35.815002 5.690339
101.690918 137.075287 -35.815002 4.600257
115.174225 137.075287 -35.815002 4.231886
128.657501 137.075287 -35.815002 4.160343
142.140808 137.075287 -35.815002 4.007036
155.624115 137.075287 -35.815002 3.840033
169.107422 137.075287 -35.815002 3.439323
182.590698 137.075287 -35.815002 2.919078
196.074036 137.075287 -35.815002 2.371043
209.557312 137.075287 -35.815002 1.689059
223.040588 137.075287 -35.815002 1.226664
236.523926 137.075287 -35.815002 0.927331
250.007202 137.075287 -35.815002 0.715887
263.490540 137.075287 -35.815002 0.603556
276.973816 137.075287 -35.815002 0.540193
290.457092 137.075287 -35.815002 0.468293
303.940430 137.075287 -35.815002 0.441172
317.423706 137.075287 -35.815002 0.425766
330.907043 137.075287 -35.815002 0.000000
344.390320 137.075287 -35.815002 0.000000
-343.257996 123.591980 -35.815002 0.000000
-329.774689 123.591980 -35.815002 0.000000
-316.291382 123.591980 -35.815002 0.000000
-302.808105 123.591980 -35.815002 2.719551
-289.324799 123.591980 -35.815002 2.745891
-275.841492 123.591980 -35.815002 2.938192
-262.358185 123.591980 -35.815002 3.433593
-248.874893 123.591980 -35.815002 3.972481
-235.391602 123.591980 -35.815002 4.662811
-221.908295 123.591980 -35.815002 5.044171
-208.424988 123.591980 -35.815002 5.600520
-194.941696 123.591980 -35.815002 6.134610
-181.458389 123.591980 -35.815002 6.532529
-167.975098 123.591980 -35.815002 7.155651
-154.491791 123.591980 -35.815002 7.576186
-141.008499 123.591980 -35.815002 8.369851
-127.525192 123.591980 -35.815002 8.857847
-114.041885 123.591980 -35.815002 9.055626
-100.558594 123.591980 -35.815002 9.055471
-87.075287 123.591980 -35.815002 8.495877
-73.591980 123.591980 -35.815002 7.873658
-60.108704 123.591980 -35.815002 6.933950
-46.625397 123.591980 -35.815002 5.531662
-33.142090 123.591980 -35.815002 4.701623
-19.658783 123.591980 -35.815002 4.579381
-6.175476 123.591980 -35.815002 4.369340
7.307800 123.591980 -35.815002 4.408534
20.791107 123.591980 -35.815002 4.565468
34.274414 123.591980 -35.815002 5.767150
47.757721 123.591980 -35.815002 6.056276
61.240997 123.591980 -35.815002 6.197313
74.724304 123.591980 -35.815002 6.234931
88.207611 123.591980 -35.815002 5.906792
101.690918 123.591980 -35.815002 5.101151
115.174225 123.591980 -35.815002 4.282233
128.657501 123.591980 -35.815002 4.100019
142.140808 123.591980 -35.815002 3.834808
155.624115 123.591980 -35.815002 3.559738
169.107422 123.591980 -35.815002 3.212245
182.590698 123.591980 -35.815002 2.549740
196.074036 123.591980 -35.815002 1.767820
209.557312 123.591980 -35.815002 1.413351
223.040588 123.591980 -35.815002 1.057374
236.523926 123.591980 -35.815002 0.787867
250.007202 123.591980 -35.815002 0.664315
263.490540 123.591980 -35.815002 0.553455
276.973816 123.591980 -35.815002 0.487613
290.457092 123.591980 -35.815002 0.426698
303.940430 123.591980 -35.815002 0.392145
317.423706 123.591980 -35.815002 0.396893
330.907043 123.591980 -35.815002 0.000000
344.390320 123.591980 -35.815002 0.000000
-343.257996 110.108704 -35.815002 0.000000
-329.774689 110.108704 -35.815002 0.000000
-316.291382 110.108704 -35.815002 0.000000
-302.808105 110.108704 -35.815002 2.862978
-289.324799 110.108704 -35.815002 3.239126
-275.841492 110.108704 -35.815002 3.221200
-262.358185 110.108704 -35.815002 3.551562
-248.874893 110.108704 -35.815002 4.153462
-235.391602 110.108704 -35.815002 4.472558
-221.908295 110.108704 -35.815002 5.284861
-208.424988 110.108704 -35.815002 5.259661
-194.941696 110.108704 -35.815002 6.242691
-181.458389 110.108704 -35.815002 7.033507
-167.975098 110.108704 -35.815002 8.211071
-154.491791 110.108704 -35.815002 8.903419
-141.008499 110.108704 -35.815002 9.310061
-127.525192 110.108704 -35.815002 10.271227
-114.041885 110.108704 -35.815002 10.482674
-100.558594 110.108704 -35.815002 10.086740
-87.075287 110.108704 -35.815002 9.385779
-73.591980 110.108704 -35.815002 8.811796
-60.108704 110.108704 -35.815002 7.181297
-46.625397 110.108704 -35.815002 5.764364
-33.142090 110.108704 -35.815002 5.165030
-19.658783 110.108704 -35.815002 4.201797
-6.175476 110.108704 -35.815002 4.308510
7.307800 110.108704 -35.815002 4.418584
20.791107 110.108704 -35.815002 4.890249
34.274414 110.108704 -35.815002 5.715898
47.757721 110.108704 -35.815002 6.816800
61.240997 110.108704 -35.815002 6.743551
74.724304 110.108704 -35.815002 6.992079
88.207611 110.108704 -35.815002 6.635598
101.690918 110.108704 -35.815002 5.477839
115.174225 110.108704 -35.815002 4.656875
128.657501 110.108704 -35.815002 4.133337
142.140808 110.108704 -35.815002 3.797040
155.624115 110.108704 -35.815002 3.269635
169.107422 110.108704 -35.815002 2.586200
182.590698 110.108704 -35.815002 2.162192
196.074036 110.108704 -35.815002 1.550216
209.557312 110.108704 -35.815002 1.203118
223.040588 110.108704 -35.815002 0.895062
236.523926 110.108704 -35.815002 0.744708
250.007202 110.108704 -35.815002 0.586866
263.490540 110.108704 -35.815002 0.502353
276.973816 110.108704 -35.815002 0.427585
290.457092 110.108704 -35.815002 0.396984
303.940430 110.108704 -35.815002 0.391741
317.423706 110.108704 -35.815002 0.388117
330.907043 110.108704 -35.815002 0.000000
344.390320 110.108704 -35.815002 0.000000
-343.257996 96.625397 -35.815002 0.000000
-329.774689 96.625397 -35.815002 0.000000
-316.291382 96.625397 -35.815002 0.000000
-302.808105 96.625397 -35.815002 3.336079
-289.324799 96.625397 -35.815002 3.365406
-275.841492 96.625397 -35.815002 3.466983
-262.358185 96.625397 -35.815002 3.744858
-248.874893 96.625397 -35.815002 4.334490
-235.391602 96.625397 -35.815002 4.796480
-221.908295 96.625397 -35.815002 5.109040
-208.424988 96.625397 -35.815002 5.312290
-194.941696 96.625397 -35.815002 6.336131
-181.458389 96.625397 -35.815002 7.162871
-167.975098 96.625397 -35.815002 9.282714
-154.491791 96.625397 -35.815002 11.134268
-141.008499 96.625397 -35.815002 12.069324
-127.525192 96.625397 -35.815002 12.501323
-114.041885 96.625397 -35.815002 12.408635
-100.558594 96.625397 -35.815002 11.899994
-87.075287 96.625397 -35.815002 9.795670
-73.591980 96.625397 -35.815002 8.580163
-60.108704 96.625397 -35.815002 6.964057
-46.625397 96.625397 -35.815002 5.919137
-33.142090 96.625397 -35.815002 5.331078
-19.658783 96.625397 -35.815002 4.251080
-6.175476 96.625397 -35.815002 4.407633
7.307800 96.625397 -35.815002 4.478599
20.791107 96.625397 -35.815002 5.171761
34.274414 96.625397 -35.815002 6.097822
47.757721 96.625397 -35.815002 7.456296
61.240997 96.625397 -35.815002 7.549314
74.724304 96.625397 -35.815002 7.381745
88.207611 96.625397 -35.815002 7.789634
101.690918 96.625397 -35.815002 6.775298
115.174225 96.625397 -35.815002 5.453401
128.657501 96.625397 -35.815002 4.001853
142.140808 96.625397 -35.815002 3.692230
155.624115 96.625397 -35.815002 3.031555
169.107422 96.625397 -35.815002 2.489040
182.590698 96.625397 -35.815002 2.048202
196.074036 96.625397 -35.815002 1.455347
209.557312 96.625397 -35.815002 1.076213
223.040588 96.625397 -35.815002 0.879651
236.523926 96.625397 -35.815002 0.727783
250.007202 96.625397 -35.815002 0.578634
263.490540 96.625397 -35.815002 0.466577
276.973816 96.625397 -35.815002 0.414269
290.457092 96.625397 -35.815002 0.393656
303.940430 96.625397 -35.815002 0.387286
317.423706 96.625397 -35.815002 0.418948
330.907043 96.625397 -35.815002 0.000000
344.390320 96.625397 -35.815002 0.000000
-343.257996 83.142090 -35.815002 0.000000
-329.774689 83.142090 -35.815002 0.000000
-316.291382 83.142090 -35.815002 0.000000
-302.808105 83.142090 -35.815002 0.000000
-289.324799 83.142090 -35.815002 4.141598
-275.841492 83.142090 -35.815002 3.971762
-262.358185 83.142090 -35.815002 4.216058
-248.874893 83.142090 -35.815002 4.742677
-235.391602 83.142090 -35.815002 4.846138
-221.908295 83.142090 -35.815002 5.067178
-208.424988 83.142090 -35.815002 5.525083
-194.941696 83.142090 -35.815002 6.877994
-181.458389 83.142090 -35.815002 7.806605
-167.975098 83.142090 -35.815002 10.279346
-154.491791 83.142090 -35.815002 12.199565
-141.008499 83.142090 -35.815002 13.728091
-127.525192 83.142090 -35.815002 14.436583
-114.041885 83.142090 -35.815002 13.936139
-100.558594 83.142090 -35.815002 13.481678
-87.075287 83.142090 -35.815002 10.404506
-73.591980 83.142090 -35.815002 9.154449
-60.108704 83.142090 -35.815002 7.582513
-46.625397 83.142090 -35.815002 6.819012
-33.142090 83.142090 -35.815002 5.241860
-19.658783 83.142090 -35.815002 4.520924
-6.175476 83.142090 -35.815002 4.567976
7.307800 83.142090 -35.815002 4.756941
20.791107 83.142090 -35.815002 5.463010
34.274414 83.142090 -35.815002 6.270665
47.757721 83.142090 -35.815002 7.767886
61.240997 83.142090 -35.815002 8.035562
74.724304 83.142090 -35.815002 8.285198
88.207611 83.142090 -35.815002 8.654010
101.690918 83.142090 -35.815002 7.648695
115.174225 83.142090 -35.815002 6.778900
128.657501 83.142090 -35.815002 5.306784
142.140808 83.142090 -35.815002 4.090452
155.624115 83.142090 -35.815002 3.366972
169.107422 83.142090 -35.815002 2.693905
182.590698 83.142090 -35.815002 1.985731
196.074036 83.142090 -35.815002 1.391188
209.557312 83.142090 -35.815002 1.172481
223.040588 83.142090 -35.815002 0.964535
236.523926 83.142090 -35.815002 0.768638
250.007202 83.142090 -35.815002 0.630440
263.490540 83.142090 -35.815002 0.535052
276.973816 83.142090 -35.815002 0.458799
290.457092 83.142090 -35.815002 0.426099
303.940430 83.142090 -35.815002 0.439635
317.423706 83.142090 -35.815002 0.457310
330.907043 83.142090 -35.815002 0.000000
344.390320 83.142090 -35.815002 0.000000
-343.257996 69.658783 -35.815002 0.000000
-329.774689 69.658783 -35.815002 0.000000
-316.291382 69.658783 -35.815002 0.000000
-302.808105 69.658783 -35.815002 0.000000
-289.324799 69.658783 -35.815002 4.533192
-275.841492 69.658783 -35.815002 4.106416
-262.358185 69.658783 -35.815002 3.849834
-248.874893 69.658783 -35.815002 4.220170
-235.391602 69.658783 -35.815002 4.486410
-221.908295 69.658783 -35.815002 4.823062
-208.424988 69.658783 -35.815002 5.675302
-194.941696 69.658783 -35.815002 7.337489
-181.458389 69.658783 -35.815002 9.185389
-167.975098 69.658783 -35.815002 11.729066
-154.491791 69.658783 -35.815002 13.904396
-141.008499 69.658783 -35.815002 15.623634
-127.525192 69.658783 -35.815002 15.303029
-114.041885 69.658783 -35.815002 15.619756
-100.558594 69.658783 -35.815002 14.414563
-87.075287 69.658783 -35.815002 11.644659
-73.591980 69.658783 -35.815002 9.904404
-60.108704 69.658783 -35.815002 8.724561
-46.625397 69.658783 -35.815002 7.053020
-33.142090 69.658783 -35.815002 6.378733
-19.658783 69.658783 -35.815002 5.303412
-6.175476 69.658783 -35.815002 4.596972
7.307800 69.658783 -35.815002 4.905922
20.791107 69.658783 -35.815002 5.130768
34.274414 69.658783 -35.815002 6.138619
47.757721 69.658783 -35.815002 7.123435
61.240997 69.658783 -35.815002 8.281298
74.724304 69.658783 -35.815002 9.481554
88.207611 69.658783 -35.815002 9.673899
101.690918 69.658783 -35.815002 8.854237
115.174225 69.658783 -35.815002 8.112648
128.657501 69.658783 -35.815002 5.954513
142.140808 69.658783 -35.815002 4.850829
155.624115 69.658783 -35.815002 3.688758
169.107422 69.658783 -35.815002 2.951371
182.590698 69.658783 -35.815002 2.376563
196.074036 69.658783 -35.815002 1.647491
209.557312 69.658783 -35.815002 1.177279
223.040588 69.658783 -35.815002 1.022205
236.523926 69.658783 -35.815002 0.855108
250.007202 69.658783 -35.815002 0.706581
263.490540 69.658783 -35.815002 0.657903
276.973816 69.658783 -35.815002 0.568720
290.457092 69.658783 -35.815002 0.515592
303.940430 69.658783 -35.815002 0.543904
317.423706 69.658783 -35.815002 0.566046
330.907043 69.658783 -35.815002 0.000000
344.390320 69.658783 -35.815002 0.000000
-343.257996 56.175476 -35.815002 0.000000
-329.774689 56.175476 -35.815002 0.000000
-316.291382 56.175476 -35.815002 0.000000
-302.808105 56.175476 -35.815002 4.431007
-289.324799 56.175476 -35.815002 4.015602
-275.841492 56.175476 -35.815002 4.269924
-262.358185 56.175476 -35.815002 4.131490
-248.874893 56.175476 -35.815002 4.105348
-235.391602 56.175476 -35.815002 3.984222
-221.908295 56.175476 -35.815002 4.864312
-208.424988 56.175476 -35.815002 6.429136
-194.941696 56.175476 -35.815002 8.708657
-181.458389 56.175476 -35.815002 11.242173
-167.975098 56.175476 -35.815002 14.555312
-154.491791 56.175476 -35.815002 16.390638
-141.008499 56.175476 -35.815002 18.032263
-127.525192 56.175476 -35.815002 16.754234
-114.041885 56.175476 -35.815002 16.740156
-100.558594 56.175476 -35.815002 15.718843
-87.075287 56.175476 -35.815002 13.410703
-73.591980 56.175476 -35.815002 11.125239
-60.108704 56.175476 -35.815002 9.518735
-46.625397 56.175476 -35.815002 7.350212
-33.142090 56.175476 -35.815002 6.116867
-19.658783 56.175476 -35.815002 5.533028
-6.175476 56.175476 -35.815002 4.993069
7.307800 56.175476 -35.815002 4.997190
20.791107 56.175476 -35.815002 4.942687
34.274414 56.175476 -35.815002 5.482794
47.757721 56.175476 -35.815002 6.838398
61.240997 56.175476 -35.815002 7.961855
74.724304 56.175476 -35.815002 9.101212
88.207611 56.175476 -35.815002 9.495583
101.690918 56.175476 -35.815002 9.274140
115.174225 56.175476 -35.815002 8.203837
128.657501 56.175476 -35.815002 6.916898
142.140808 56.175476 -35.815002 5.354021
155.624115 56.175476 -35.815002 4.348031
169.107422 56.175476 -35.815002 3.484432
182.590698 56.175476 -35.815002 2.756692
196.074036 56.175476 -35.815002 1.921381
209.557312 56.175476 -35.815002 1.378829
223.040588 56.175476 -35.815002 1.128919
236.523926 56.175476 -35.815002 1.101575
250.007202 56.175476 -35.815002 0.916478
263.490540 56.175476 -35.815002 0.747677
276.973816 56.175476 -35.815002 0.650728
290.457092 56.175476 -35.815002 0.684016
303.940430 56.175476 -35.815002 0.631941
317.423706 56.175476 -35.815002 0.745650
330.907043 56.175476 -35.815002 0.000000
344.390320 56.175476 -35.815002 0.000000
-343.257996 42.692200 -35.815002 0.000000
-329.774689 42.692200 -35.815002 0.000000
-316.291382 42.692200 -35.815002 0.000000
-302.808105 42.692200 -35.815002 3.654907
-289.324799 42.692200 -35.815002 4.283458
-275.841492 42.692200 -35.815002 3.775910
-262.358185 42.692200 -35.815002 3.902040
-248.874893 42.692200 -35.815002 3.652370
-235.391602 42.692200 -35.815002 4.028883
-221.908295 42.692200 -35.815002 5.613320
-208.424988 42.692200 -35.815002 7.267099
-194.941696 42.692200 -35.815002 9.494312
-181.458389 42.692200 -35.815002 12.637408
-167.975098 42.692200 -35.815002 17.336767
-154.491791 42.692200 -35.815002 19.180197
-141.008499 42.692200 -35.815002 20.311804
-127.525192 42.692200 -35.815002 18.603451
-114.041885 42.692200 -35.815002 17.351933
-100.558594 42.692200 -35.815002 15.734465
-87.075287 42.692200 -35.815002 12.720482
-73.591980 42.692200 -35.815002 10.523886
-60.108704 42.692200 -35.815002 9.449711
-46.625397 42.692200 -35.815002 7.750659
-33.142090 42.692200 -35.815002 6.513398
-19.658783 42.692200 -35.815002 5.376507
-6.175476 42.692200 -35.815002 5.601957
7.307800 42.692200 -35.815002 5.114879
20.791107 42.692200 -35.815002 4.949848
34.274414 42.692200 -35.815002 5.207322
47.757721 42.692200 -35.815002 7.101170
61.240997 42.692200 -35.815002 7.528104
74.724304 42.692200 -35.815002 8.417426
88.207611 42.692200 -35.815002 9.025764
101.690918 42.692200 -35.815002 8.887874
115.174225 42.692200 -35.815002 7.843737
128.657501 42.692200 -35.815002 7.037103
142.140808 42.692200 -35.815002 5.991210
155.624115 42.692200 -35.815002 5.231317
169.107422 42.692200 -35.815002 4.246404
182.590698 42.692200 -35.815002 3.281678
196.074036 42.692200 -35.815002 2.224368
209.557312 42.692200 -35.815002 1.565129
223.040588 42.692200 -35.815002 1.436725
236.523926 42.692200 -35.815002 1.294043
250.007202 42.692200 -35.815002 1.066650
263.490540 42.692200 -35.815002 0.972354
276.973816 42.692200 -35.815002 0.913827
290.457092 42.692200 -35.815002 0.907588
303.940430 42.692200 -35.815002 0.886419
317.423706 42.692200 -35.815002 0.936903
330.907043 42.692200 -35.815002 0.000000
344.390320 42.692200 -35.815002 0.000000
-343.257996 29.208893 -35.815002 0.000000
-329.774689 29.208893 -35.815002 0.000000
-316.291382 29.208893 -35.815002 0.000000
-302.808105 29.208893 -35.815002 3.977765
-289.324799 29.208893 -35.815002 3.606683
-275.841492 29.208893 -35.815002 3.746892
-262.358185 29.208893 -35.815002 4.158433
-248.874893 29.208893 -35.815002 4.062315
-235.391602 29.208893 -35.815002 4.379512
-221.908295 29.208893 -35.815002 5.736821
-208.424988 29.208893 -35.815002 7.664424
-194.941696 29.208893 -35.815002 10.548186
-181.458389 29.208893 -35.815002 14.047585
-167.975098 29.208893 -35.815002 18.709229
-154.491791 29.208893 -35.815002 20.337116
-141.008499 29.208893 -35.815002 21.653811
-127.525192 29.208893 -35.815002 19.409559
-114.041885 29.208893 -35.815002 18.071442
-100.558594 29.208893 -35.815002 16.460995
-87.075287 29.208893 -35.815002 13.265149
-73.591980 29.208893 -35.815002 10.668340
-60.108704 29.208893 -35.815002 8.445612
-46.625397 29.208893 -35.815002 7.573079
-33.142090 29.208893 -35.815002 6.784784
-19.658783 29.208893 -35.815002 5.577582
-6.175476 29.208893 -35.815002 5.497824
7.307800 29.208893 -35.815002 4.891717
20.791107 29.208893 -35.815002 4.857045
34.274414 29.208893 -35.815002 5.229195
47.757721 29.208893 -35.815002 5.946342
61.240997 29.208893 -35.815002 6.846455
74.724304 29.208893 -35.815002 7.830037
88.207611 29.208893 -35.815002 8.737523
101.690918 29.208893 -35.815002 9.036176
115.174225 29.208893 -35.815002 7.983748
128.657501 29.208893 -35.815002 6.667027
142.140808 29.208893 -35.815002 6.239779
155.624115 29.208893 -35.815002 5.643872
169.107422 29.208893 -35.815002 4.796937
182.590698 29.208893 -35.815002 3.567032
196.074036 29.208893 -35.815002 2.588040
209.557312 29.208893 -35.815002 1.963598
223.040588 29.208893 -35.815002 1.535389
236.523926 29.208893 -35.815002 1.462349
250.007202 29.208893 -35.815002 1.361435
263.490540 29.208893 -35.815002 1.205000
276.973816 29.208893 -35.815002 1.033359
290.457092 29.208893 -35.815002 1.039781
303.940430 29.208893 -35.815002 1.051027
317.423706 29.208893 -35.815002 1.045485
330.907043 29.208893 -35.815002 0.000000
344.390320 29.208893 -35.815002 0.000000
-343.257996 15.725586 -35.815002 0.000000
-329.774689 15.725586 -35.815002 0.000000
-316.291382 15.725586 -35.815002 2.855783
-302.808105 15.725586 -35.815002 3.506515
-289.324799 15.725586 -35.815002 2.997201
-275.841492 15.725586 -35.815002 3.326420
-262.358185 15.725586 -35.815002 3.713925
-248.874893 15.725586 -35.815002 4.093211
-235.391602 15.725586 -35.815002 3.979623
-221.908295 15.725586 -35.815002 4.341641
-208.424988 15.725586 -35.815002 7.415226
-194.941696 15.725586 -35.815002 10.468149
-181.458389 15.725586 -35.815002 15.027949
-167.975098 15.725586 -35.815002 18.578398
-154.491791 15.725586 -35.815002 23.100760
-141.008499 15.725586 -35.815002 23.421476
-127.525192 15.725586 -35.815002 21.477497
-114.041885 15.725586 -35.815002 19.415575
-100.558594 15.725586 -35.815002 15.608823
-87.075287 15.725586 -35.815002 14.132545
-73.591980 15.725586 -35.815002 11.991356
-60.108704 15.725586 -35.815002 9.178620
-46.625397 15.725586 -35.815002 7.512058
-33.142090 15.725586 -35.815002 6.881502
-19.658783 15.725586 -35.815002 5.674620
-6.175476 15.725586 -35.815002 5.242698
7.307800 15.725586 -35.815002 4.707905
20.791107 15.725586 -35.815002 4.844411
34.274414 15.725586 -35.815002 5.170538
47.757721 15.725586 -35.815002 5.561526
61.240997 15.725586 -35.815002 6.897617
74.724304 15.725586 -35.815002 8.327679
88.207611 15.725586 -35.815002 8.782867
101.690918 15.725586 -35.815002 8.804257
115.174225 15.725586 -35.815002 8.165747
128.657501 15.725586 -35.815002 7.357141
142.140808 15.725586 -35.815002 6.703663
155.624115 15.725586 -35.815002 5.819668
169.107422 15.725586 -35.815002 4.941206
182.590698 15.725586 -35.815002 3.698210
196.074036 15.725586 -35.815002 2.831096
209.557312 15.725586 -35.815002 2.091739
223.040588 15.725586 -35.815002 1.834850
236.523926 15.725586 -35.815002 1.908714
250.007202 15.725586 -35.815002 1.612216
263.490540 15.725586 -35.815002 1.379081
276.973816 15.725586 -35.815002 1.368980
290.457092 15.725586 -35.815002 1.212387
303.940430 15.725586 -35.815002 1.408038
317.423706 15.725586 -35.815002 1.375129
330.907043 15.725586 -35.815002 0.000000
344.390320 15.725586 -35.815002 0.000000
-343.257996 2.242279 -35.815002 0.000000
-329.774689 2.242279 -35.815002 0.000000
-316.291382 2.242279 -35.815002 2.489953
-302.808105 2.242279 -35.815002 2.384458
-289.324799 2.242279 -35.815002 3.289066
-275.841492 2.242279 -35.815002 2.816971
-262.358185 2.242279 -35.815002 2.909293
-248.874893 2.242279 -35.815002 4.165451
-235.391602 2.242279 -35.815002 4.430276
-221.908295 2.242279 -35.815002 5.417238
-208.424988 2.242279 -35.815002 8.061087
-194.941696 2.242279 -35.815002 11.871602
-181.458389 2.242279 -35.815002 15.974483
-167.975098 2.242279 -35.815002 19.648716
-154.491791 2.242279 -35.815002 23.220154
-141.008499 2.242279 -35.815002 24.474972
-127.525192 2.242279 -35.815002 24.170593
-114.041885 2.242279 -35.815002 19.765459
-100.558594 2.242279 -35.815002 17.031174
-87.075287 2.242279 -35.815002 14.020735
-73.591980 2.242279 -35.815002 12.183661
-60.108704 2.242279 -35.815002 9.817924
-46.625397 2.242279 -35.815002 8.396379
-33.142090 2.242279 -35.815002 6.830421
-19.658783 2.242279 -35.815002 5.384062
-6.175476 2.242279 -35.815002 5.515271
7.307800 2.242279 -35.815002 5.054512
20.791107 2.242279 -35.815002 5.190349
34.274414 2.242279 -35.815002 5.406252
47.757721 2.242279 -35.815002 5.995910
61.240997 2.242279 -35.815002 7.365550
74.724304 2.242279 -35.815002 8.784347
88.207611 2.242279 -35.815002 9.149179
101.690918 2.242279 -35.815002 8.869676
115.174225 2.242279 -35.815002 8.586547
128.657501 2.242279 -35.815002 7.799571
142.140808 2.242279 -35.815002 6.474081
155.624115 2.242279 -35.815002 5.767134
169.107422 2.242279 -35.815002 4.813594
182.590698 2.242279 -35.815002 3.877557
196.074036 2.242279 -35.815002 3.364825
209.557312 2.242279 -35.815002 2.472808
223.040588 2.242279 -35.815002 2.083853
236.523926 2.242279 -35.815002 1.947298
250.007202 2.242279 -35.815002 1.740176
263.490540 2.242279 -35.815002 1.569879
276.973816 2.242279 -35.815002 1.406967
290.457092 2.242279 -35.815002 1.286836
303.940430 2.242279 -35.815002 1.430826
317.423706 2.242279 -35.815002 1.265884
330.907043 2.242279 -35.815002 0.000000
344.390320 2.242279 -35.815002 0.000000
-343.257996 -11.240997 -35.815002 0.000000
-329.774689 -11.240997 -35.815002 0.000000
-316.291382 -11.240997 -35.815002 1.931324
-302.808105 -11.240997 -35.815002 2.485015
-289.324799 -11.240997 -35.815002 3.164584
-275.841492 -11.240997 -35.815002 2.457855
-262.358185 -11.240997 -35.815002 2.420010
-248.874893 -11.240997 -35.815002 3.250035
-235.391602 -11.240997 -35.815002 4.861897
-221.908295 -11.240997 -35.815002 6.279154
-208.424988 -11.240997 -35.815002 10.158486
-194.941696 -11.240997 -35.815002 12.516166
-181.458389 -11.240997 -35.815002 16.289854
-167.975098 -11.240997 -35.815002 19.940771
-154.491791 -11.240997 -35.815002 22.640425
-141.008499 -11.240997 -35.815002 23.233707
-127.525192 -11.240997 -35.815002 23.825775
-114.041885 -11.240997 -35.815002 20.313253
-100.558594 -11.240997 -35.815002 18.134481
-87.075287 -11.240997 -35.815002 14.877371
-73.591980 -11.240997 -35.815002 12.420516
-60.108704 -11.240997 -35.815002 10.853849
-46.625397 -11.240997 -35.815002 8.350137
-33.142090 -11.240997 -35.815002 6.963578
-19.658783 -11.240997 -35.815002 5.925943
-6.175476 -11.240997 -35.815002 6.090765
7.307800 -11.240997 -35.815002 5.540956
20.791107 -11.240997 -35.815002 5.784893
34.274414 -11.240997 -35.815002 6.030071
47.757721 -11.240997 -35.815002 6.809104
61.240997 -11.240997 -35.815002 8.227847
74.724304 -11.240997 -35.815002 9.755533
88.207611 -11.240997 -35.815002 10.078238
101.690918 -11.240997 -35.815002 9.126946
115.174225 -11.240997 -35.815002 8.311140
128.657501 -11.240997 -35.815002 7.707990
142.140808 -11.240997 -35.815002 6.414232
155.624115 -11.240997 -35.815002 5.449411
169.107422 -11.240997 -35.815002 4.836157
182.590698 -11.240997 -35.815002 4.042586
196.074036 -11.240997 -35.815002 3.232807
209.557312 -11.240997 -35.815002 2.747535
223.040588 -11.240997 -35.815002 2.319718
236.523926 -11.240997 -35.815002 1.972093
250.007202 -11.240997 -35.815002 1.851821
263.490540 -11.240997 -35.815002 1.862123
276.973816 -11.240997 -35.815002 2.261781
290.457092 -11.240997 -35.815002 1.280451
303.940430 -11.240997 -35.815002 1.308613
317.423706 -11.240997 -35.815002 1.895754
330.907043 -11.240997 -35.815002 0.000000
344.390320 -11.240997 -35.815002 0.000000
-343.257996 -24.724304 -35.815002 0.000000
-329.774689 -24.724304 -35.815002 0.000000
-316.291382 -24.724304 -35.815002 4.358624
-302.808105 -24.724304 -35.815002 4.325098
-289.324799 -24.724304 -35.815002 3.804490
-275.841492 -24.724304 -35.815002 3.525747
-262.358185 -24.724304 -35.815002 2.939581
-248.874893 -24.724304 -35.815002 3.834803
-235.391602 -24.724304 -35.815002 5.376283
-221.908295 -24.724304 -35.815002 6.275328
-208.424988 -24.724304 -35.815002 10.543249
-194.941696 -24.724304 -35.815002 13.272909
-181.458389 -24.724304 -35.815002 18.476440
-167.975098 -24.724304 -35.815002 20.284044
-154.491791 -24.724304 -35.815002 21.138285
-141.008499 -24.724304 -35.815002 22.744680
-127.525192 -24.724304 -35.815002 23.152004
-114.041885 -24.724304 -35.815002 22.089951
-100.558594 -24.724304 -35.815002 18.656404
-87.075287 -24.724304 -35.815002 15.673983
-73.591980 -24.724304 -35.815002 13.660318
-60.108704 -24.724304 -35.815002 11.057799
-46.625397 -24.724304 -35.815002 9.330907
-33.142090 -24.724304 -35.815002 8.275075
-19.658783 -24.724304 -35.815002 7.376646
-6.175476 -24.724304 -35.815002 6.581172
7.307800 -24.724304 -35.815002 6.406030
20.791107 -24.724304 -35.815002 6.695637
34.274414 -24.724304 -35.815002 7.290747
47.757721 -24.724304 -35.815002 8.663633
61.240997 -24.724304 -35.815002 10.685429
74.724304 -24.724304 -35.815002 11.314322
88.207611 -24.724304 -35.815002 11.327837
101.690918 -24.724304 -35.815002 9.392789
115.174225 -24.724304 -35.815002 7.910872
128.657501 -24.724304 -35.815002 6.903050
142.140808 -24.724304 -35.815002 5.931044
155.624115 -24.724304 -35.815002 5.157631
169.107422 -24.724304 -35.815002 4.479598
182.590698 -24.724304 -35.815002 3.841743
196.074036 -24.724304 -35.815002 3.066178
209.557312 -24.724304 -35.815002 2.562144
223.040588 -24.724304 -35.815002 2.324241
236.523926 -24.724304 -35.815002 2.063203
250.007202 -24.724304 -35.815002 2.136861
263.490540 -24.724304 -35.815002 2.355394
276.973816 -24.724304 -35.815002 2.577745
290.457092 -24.724304 -35.815002 2.372918
303.940430 -24.724304 -35.815002 1.330902
317.423706 -24.724304 -35.815002 1.600503
330.907043 -24.724304 -35.815002 0.000000
344.390320 -24.724304 -35.815002 0.000000
-343.257996 -38.207611 -35.815002 0.000000
-329.774689 -38.207611 -35.815002 0.000000
-316.291382 -38.207611 -35.815002 5.599002
-302.808105 -38.207611 -35.815002 4.712751
-289.324799 -38.207611 -35.815002 4.735102
-275.841492 -38.207611 -35.815002 5.041728
-262.358185 -38.207611 -35.815002 4.989945
-248.874893 -38.207611 -35.815002 5.419367
-235.391602 -38.207611 -35.815002 5.815818
-221.908295 -38.207611 -35.815002 8.343152
-208.424988 -38.207611 -35.815002 12.803499
-194.941696 -38.207611 -35.815002 16.106153
-181.458389 -38.207611 -35.815002 19.302071
-167.975098 -38.207611 -35.815002 20.699678
-154.491791 -38.207611 -35.815002 21.519011
-141.008499 -38.207611 -35.815002 21.057253
-127.525192 -38.207611 -35.815002 22.283478
-114.041885 -38.207611 -35.815002 20.677231
-100.558594 -38.207611 -35.815002 18.321575
-87.075287 -38.207611 -35.815002 16.145683
-73.591980 -38.207611 -35.815002 14.756743
-60.108704 -38.207611 -35.815002 11.861046
-46.625397 -38.207611 -35.815002 9.790139
-33.142090 -38.207611 -35.815002 8.448654
-19.658783 -38.207611 -35.815002 7.663671
-6.175476 -38.207611 -35.815002 7.772650
7.307800 -38.207611 -35.815002 7.555360
20.791107 -38.207611 -35.815002 7.987852
34.274414 -38.207611 -35.815002 9.299927
47.757721 -38.207611 -35.815002 11.234394
61.240997 -38.207611 -35.815002 12.106470
74.724304 -38.207611 -35.815002 11.846667
88.207611 -38.207611 -35.815002 11.169606
101.690918 -38.207611 -35.815002 9.742991
115.174225 -38.207611 -35.815002 8.115252
128.657501 -38.207611 -35.815002 6.868904
142.140808 -38.207611 -35.815002 5.155695
155.624115 -38.207611 -35.815002 4.834648
169.107422 -38.207611 -35.815002 4.210531
182.590698 -38.207611 -35.815002 3.718049
196.074036 -38.207611 -35.815002 2.848630
209.557312 -38.207611 -35.815002 2.532448
223.040588 -38.207611 -35.815002 2.382025
236.523926 -38.207611 -35.815002 2.226089
250.007202 -38.207611 -35.815002 2.140605
263.490540 -38.207611 -35.815002 2.660457
276.973816 -38.207611 -35.815002 2.465175
290.457092 -38.207611 -35.815002 2.774430
303.940430 -38.207611 -35.815002 2.049516
317.423706 -38.207611 -35.815002 1.294921
330.907043 -38.207611 -35.815002 0.000000
344.390320 -38.207611 -35.815002 0.000000
-343.257996 -51.690918 -35.815002 0.000000
-329.774689 -51.690918 -35.815002 0.000000
-316.291382 -51.690918 -35.815002 9.005793
-302.808105 -51.690918 -35.815002 9.831104
-289.324799 -51.690918 -35.815002 8.367458
-275.841492 -51.690918 -35.815002 7.772896
-262.358185 -51.690918 -35.815002 6.274679
-248.874893 -51.690918 -35.815002 6.318209
-235.391602 -51.690918 -35.815002 7.559622
-221.908295 -51.690918 -35.815002 8.492003
-208.424988 -51.690918 -35.815002 14.613840
-194.941696 -51.690918 -35.815002 20.506548
-181.458389 -51.690918 -35.815002 20.502413
-167.975098 -51.690918 -35.815002 22.597486
-154.491791 -51.690918 -35.815002 23.490198
-141.008499 -51.690918 -35.815002 23.772310
-127.525192 -51.690918 -35.815002 21.900362
-114.041885 -51.690918 -35.815002 20.449759
-100.558594 -51.690918 -35.815002 17.561619
-87.075287 -51.690918 -35.815002 15.784334
-73.591980 -51.690918 -35.815002 13.906656
-60.108704 -51.690918 -35.815002 11.795435
-46.625397 -51.690918 -35.815002 9.897607
-33.142090 -51.690918 -35.815002 8.889499
-19.658783 -51.690918 -35.815002 8.307951
-6.175476 -51.690918 -35.815002 9.253994
7.307800 -51.690918 -35.815002 9.448382
20.791107 -51.690918 -35.815002 9.721770
34.274414 -51.690918 -35.815002 11.477830
47.757721 -51.690918 -35.815002 11.891675
61.240997 -51.690918 -35.815002 11.859793
74.724304 -51.690918 -35.815002 10.912987
88.207611 -51.690918 -35.815002 10.022524
101.690918 -51.690918 -35.815002 7.977019
115.174225 -51.690918 -35.815002 7.136023
128.657501 -51.690918 -35.815002 5.638558
142.140808 -51.690918 -35.815002 4.987692
155.624115 -51.690918 -35.815002 4.324111
169.107422 -51.690918 -35.815002 3.974969
182.590698 -51.690918 -35.815002 3.914251
196.074036 -51.690918 -35.815002 3.058640
209.557312 -51.690918 -35.815002 2.604786
223.040588 -51.690918 -35.815002 2.703407
236.523926 -51.690918 -35.815002 2.455576
250.007202 -51.690918 -35.815002 2.554909
263.490540 -51.690918 -35.815002 2.608569
276.973816 -51.690918 -35.815002 2.789716
290.457092 -51.690918 -35.815002 2.935577
303.940430 -51.690918 -35.815002 4.474125
317.423706 -51.690918 -35.815002 4.142175
330.907043 -51.690918 -35.815002 0.000000
344.390320 -51.690918 -35.815002 0.000000
-343.257996 -65.174225 -35.815002 0.000000
-329.774689 -65.174225 -35.815002 0.000000
-316.291382 -65.174225 -35.815002 11.089451
-302.808105 -65.174225 -35.815002 9.207440
-289.324799 -65.174225 -35.815002 9.935130
-275.841492 -65.174225 -35.815002 7.509055
-262.358185 -65.174225 -35.815002 8.277357
-248.874893 -65.174225 -35.815002 9.248075
-235.391602 -65.174225 -35.815002 10.999416
-221.908295 -65.174225 -35.815002 15.206870
-208.424988 -65.174225 -35.815002 18.447079
-194.941696 -65.174225 -35.815002 24.678810
-181.458389 -65.174225 -35.815002 25.584223
-167.975098 -65.174225 -35.815002 27.235888
-154.491791 -65.174225 -35.815002 27.489126
-141.008499 -65.174225 -35.815002 24.977625
-127.525192 -65.174225 -35.815002 23.477190
-114.041885 -65.174225 -35.815002 23.867603
-100.558594 -65.174225 -35.815002 20.811682
-87.075287 -65.174225 -35.815002 16.183788
-73.591980 -65.174225 -35.815002 13.979468
-60.108704 -65.174225 -35.815002 12.682047
-46.625397 -65.174225 -35.815002 11.602228
-33.142090 -65.174225 -35.815002 10.549352
-19.658783 -65.174225 -35.815002 9.854811
-6.175476 -65.174225 -35.815002 11.051434
7.307800 -65.174225 -35.815002 10.936064
20.791107 -65.174225 -35.815002 11.021598
34.274414 -65.174225 -35.815002 12.575525
47.757721 -65.174225 -35.815002 11.875962
61.240997 -65.174225 -35.815002 11.352896
74.724304 -65.174225 -35.815002 9.342657
88.207611 -65.174225 -35.815002 8.355228
101.690918 -65.174225 -35.815002 6.386631
115.174225 -65.174225 -35.815002 5.678827
128.657501 -65.174225 -35.815002 4.803015
142.140808 -65.174225 -35.815002 4.358389
155.624115 -65.174225 -35.815002 4.131238
169.107422 -65.174225 -35.815002 3.996142
182.590698 -65.174225 -35.815002 3.519853
196.074036 -65.174225 -35.815002 3.083252
209.557312 -65.174225 -35.815002 2.927078
223.040588 -65.174225 -35.815002 2.686955
236.523926 -65.174225 -35.815002 2.897944
250.007202 -65.174225 -35.815002 2.834457
263.490540 -65.174225 -35.815002 2.646168
276.973816 -65.174225 -35.815002 4.006927
290.457092 -65.174225 -35.815002 4.716254
303.940430 -65.174225 -35.815002 4.522930
317.423706 -65.174225 -35.815002 3.748602
330.907043 -65.174225 -35.815002 0.000000
344.390320 -65.174225 -35.815002 0.000000
-343.257996 -78.657501 -35.815002 0.000000
-329.774689 -78.657501 -35.815002 0.000000
-316.291382 -78.657501 -35.815002 8.040473
-302.808105 -78.657501 -35.815002 11.044448
-289.324799 -78.657501 -35.815002 12.407541
-275.841492 -78.657501 -35.815002 8.064259
-262.358185 -78.657501 -35.815002 13.035835
-248.874893 -78.657501 -35.815002 16.725979
-235.391602 -78.657501 -35.815002 19.080090
-221.908295 -78.657501 -35.815002 28.182703
-208.424988 -78.657501 -35.815002 29.698030
-194.941696 -78.657501 -35.815002 0.000000
-181.458389 -78.657501 -35.815002 35.276543
-167.975098 -78.657501 -35.815002 0.000000
-154.491791 -78.657501 -35.815002 35.211857
-141.008499 -78.657501 -35.815002 30.845772
-127.525192 -78.657501 -35.815002 28.485735
-114.041885 -78.657501 -35.815002 26.373781
-100.558594 -78.657501 -35.815002 22.983011
-87.075287 -78.657501 -35.815002 18.473856
-73.591980 -78.657501 -35.815002 16.483673
-60.108704 -78.657501 -35.815002 14.577899
-46.625397 -78.657501 -35.815002 13.315495
-33.142090 -78.657501 -35.815002 12.343744
-19.658783 -78.657501 -35.815002 11.558990
-6.175476 -78.657501 -35.815002 12.150128
7.307800 -78.657501 -35.815002 12.330407
20.791107 -78.657501 -35.815002 12.736080
34.274414 -78.657501 -35.815002 12.420691
47.757721 -78.657501 -35.815002 10.790874
61.240997 -78.657501 -35.815002 9.308842
74.724304 -78.657501 -35.815002 7.654104
88.207611 -78.657501 -35.815002 6.380317
101.690918 -78.657501 -35.815002 5.578246
115.174225 -78.657501 -35.815002 4.885975
128.657501 -78.657501 -35.815002 4.299719
142.140808 -78.657501 -35.815002 4.210883
155.624115 -78.657501 -35.815002 4.231581
169.107422 -78.657501 -35.815002 3.749869
182.590698 -78.657501 -35.815002 3.266006
196.074036 -78.657501 -35.815002 3.311305
209.557312 -78.657501 -35.815002 3.177939
223.040588 -78.657501 -35.815002 3.382774
236.523926 -78.657501 -35.815002 3.478323
250.007202 -78.657501 -35.815002 3.661210
263.490540 -78.657501 -35.815002 3.579829
276.973816 -78.657501 -35.815002 4.972434
290.457092 -78.657501 -35.815002 3.661691
303.940430 -78.657501 -35.815002 5.016877
317.423706 -78.657501 -35.815002 4.478266
330.907043 -78.657501 -35.815002 0.000000
344.390320 -78.657501 -35.815002 0.000000
-343.257996 -92.140808 -35.815002 0.000000
-329.774689 -92.140808 -35.815002 0.000000
-316.291382 -92.140808 -35.815002 19.086027
-302.808105 -92.140808 -35.815002 19.128531
-289.324799 -92.140808 -35.815002 18.056028
-275.841492 -92.140808 -35.815002 17.372784
-262.358185 -92.140808 -35.815002 24.434362
-248.874893 -92.140808 -35.815002 30.325268
-235.391602 -92.140808 -35.815002 0.000000
-221.908295 -92.140808 -35.815002 0.000000
-208.424988 -92.140808 -35.815002 0.000000
-194.941696 -92.140808 -35.815002 0.000000
-181.458389 -92.140808 -35.815002 0.000000
-167.975098 -92.140808 -35.815002 0.000000
-154.491791 -92.140808 -35.815002 39.966217
-141.008499 -92.140808 -35.815002 37.499958
-127.525192 -92.140808 -35.815002 32.279392
-114.041885 -92.140808 -35.815002 31.645006
-100.558594 -92.140808 -35.815002 25.514681
-87.075287 -92.140808 -35.815002 22.084301
-73.591980 -92.140808 -35.815002 18.760159
-60.108704 -92.140808 -35.815002 17.045225
-46.625397 -92.140808 -35.815002 15.973067
-33.142090 -92.140808 -35.815002 14.735430
-19.658783 -92.140808 -35.815002 14.181625
-6.175476 -92.140808 -35.815002 14.178136
7.307800 -92.140808 -35.815002 13.268780
20.791107 -92.140808 -35.815002 12.636762
34.274414 -92.140808 -35.815002 11.460591
47.757721 -92.140808 -35.815002 8.753032
61.240997 -92.140808 -35.815002 7.381263
74.724304 -92.140808 -35.815002 6.597662
88.207611 -92.140808 -35.815002 5.213270
101.690918 -92.140808 -35.815002 4.647873
115.174225 -92.140808 -35.815002 4.206688
128.657501 -92.140808 -35.815002 4.347403
142.140808 -92.140808 -35.815002 4.535772
155.624115 -92.140808 -35.815002 4.426639
169.107422 -92.140808 -35.815002 4.105967
182.590698 -92.140808 -35.815002 4.109269
196.074036 -92.140808 -35.815002 3.748311
209.557312 -92.140808 -35.815002 4.032014
223.040588 -92.140808 -35.815002 4.112810
236.523926 -92.140808 -35.815002 4.115646
250.007202 -92.140808 -35.815002 4.879860
263.490540 -92.140808 -35.815002 5.102003
276.973816 -92.140808 -35.815002 5.219178
290.457092 -92.140808 -35.815002 5.773684
303.940430 -92.140808 -35.815002 6.736281
317.423706 -92.140808 -35.815002 9.936712
330.907043 -92.140808 -35.815002 0.000000
344.390320 -92.140808 -35.815002 0.000000
-343.257996 -105.624115 -35.815002 0.000000
-329.774689 -105.624115 -35.815002 0.000000
-316.291382 -105.624115 -35.815002 0.000000
-302.808105 -105.624115 -35.815002 30.600672
-289.324799 -105.624115 -35.815002 35.847244
-275.841492 -105.624115 -35.815002 35.635601
-262.358185 -105.624115 -35.815002 35.140594
-248.874893 -105.624115 -35.815002 45.643711
-235.391602 -105.624115 -35.815002 0.000000
-221.908295 -105.624115 -35.815002 0.000000
-208.424988 -105.624115 -35.815002 0.000000
-194.941696 -105.624115 -35.815002 0.000000
-181.458389 -105.624115 -35.815002 0.000000
-167.975098 -105.624115 -35.815002 0.000000
-154.491791 -105.624115 -35.815002 42.436218
-141.008499 -105.624115 -35.815002 39.923950
-127.525192 -105.624115 -35.815002 38.103546
-114.041885 -105.624115 -35.815002 36.717842
-100.558594 -105.624115 -35.815002 29.494019
-87.075287 -105.624115 -35.815002 26.425304
-73.591980 -105.624115 -35.815002 21.134689
-60.108704 -105.624115 -35.815002 19.139551
-46.625397 -105.624115 -35.815002 18.825830
-33.142090 -105.624115 -35.815002 17.478247
-19.658783 -105.624115 -35.815002 16.825005
-6.175476 -105.624115 -35.815002 15.671491
7.307800 -105.624115 -35.815002 13.870630
20.791107 -105.624115 -35.815002 12.282642
34.274414 -105.624115 -35.815002 10.518031
47.757721 -105.624115 -35.815002 8.423825
61.240997 -105.624115 -35.815002 6.878221
74.724304 -105.624115 -35.815002 6.261584
88.207611 -105.624115 -35.815002 4.958294
101.690918 -105.624115 -35.815002 4.557610
115.174225 -105.624115 -35.815002 4.727531
128.657501 -105.624115 -35.815002 5.572695
142.140808 -105.624115 -35.815002 5.469003
155.624115 -105.624115 -35.815002 5.621338
169.107422 -105.624115 -35.815002 5.139796
182.590698 -105.624115 -35.815002 4.815320
196.074036 -105.624115 -35.815002 4.744383
209.557312 -105.624115 -35.815002 4.994867
223.040588 -105.624115 -35.815002 6.212128
236.523926 -105.624115 -35.815002 5.086457
250.007202 -105.624115 -35.815002 5.991844
263.490540 -105.624115 -35.815002 6.889966
276.973816 -105.624115 -35.815002 7.996628
290.457092 -105.624115 -35.815002 9.422685
303.940430 -105.624115 -35.815002 7.816601
317.423706 -105.624115 -35.815002 14.915550
330.907043 -105.624115 -35.815002 0.000000
344.390320 -105.624115 -35.815002 0.000000
-343.257996 -119.107422 -35.815002 0.000000
-329.774689 -119.107422 -35.815002 0.000000
-316.291382 -119.107422 -35.815002 0.000000
-302.808105 -119.107422 -35.815002 0.000000
-289.324799 -119.107422 -35.815002 45.503990
-275.841492 -119.107422 -35.815002 53.317623
-262.358185 -119.107422 -35.815002 57.695343
-248.874893 -119.107422 -35.815002 67.311348
-235.391602 -119.107422 -35.815002 0.000000
-221.908295 -119.107422 -35.815002 0.000000
-208.424988 -119.107422 -35.815002 0.000000
-194.941696 -119.107422 -35.815002 0.000000
-181.458389 -119.107422 -35.815002 0.000000
-167.975098 -119.107422 -35.815002 0.000000
-154.491791 -119.107422 -35.815002 45.644535
-141.008499 -119.107422 -35.815002 44.823666
-127.525192 -119.107422 -35.815002 46.023415
-114.041885 -119.107422 -35.815002 42.049911
-100.558594 -119.107422 -35.815002 38.480572
-87.075287 -119.107422 -35.815002 29.771351
-73.591980 -119.107422 -35.815002 26.119579
-60.108704 -119.107422 -35.815002 21.488892
-46.625397 -119.107422 -35.815002 20.287382
-33.142090 -119.107422 -35.815002 18.955980
-19.658783 -119.107422 -35.815002 16.804895
-6.175476 -119.107422 -35.815002 16.923460
7.307800 -119.107422 -35.815002 15.302715
20.791107 -119.107422 -35.815002 13.203471
34.274414 -119.107422 -35.815002 10.840195
47.757721 -119.107422 -35.815002 9.570628
61.240997 -119.107422 -35.815002 8.174443
74.724304 -119.107422 -35.815002 6.910417
88.207611 -119.107422 -35.815002 5.893232
101.690918 -119.107422 -35.815002 5.391081
115.174225 -119.107422 -35.815002 5.949185
128.657501 -119.107422 -35.815002 6.548111
142.140808 -119.107422 -35.815002 6.763056
155.624115 -119.107422 -35.815002 6.704966
169.107422 -119.107422 -35.815002 6.237471
182.590698 -119.107422 -35.815002 6.413758
196.074036 -119.107422 -35.815002 7.730942
209.557312 -119.107422 -35.815002 6.551103
223.040588 -119.107422 -35.815002 8.597369
236.523926 -119.107422 -35.815002 8.053638
250.007202 -119.107422 -35.815002 8.218241
263.490540 -119.107422 -35.815002 14.423646
276.973816 -119.107422 -35.815002 16.873802
290.457092 -119.107422 -35.815002 17.930634
303.940430 -119.107422 -35.815002 19.271271
317.423706 -119.107422 -35.815002 0.000000
330.907043 -119.107422 -35.815002 0.000000
344.390320 -119.107422 -35.815002 0.000000
-343.257996 -132.590698 -35.815002 0.000000
-329.774689 -132.590698 -35.815002 0.000000
-316.291382 -132.590698 -35.815002 0.000000
-302.808105 -132.590698 -35.815002 0.000000
-289.324799 -132.590698 -35.815002 70.151482
-275.841492 -132.590698 -35.815002 0.000000
-262.358185 -132.590698 -35.815002 73.082512
-248.874893 -132.590698 -35.815002 0.000000
-235.391602 -132.590698 -35.815002 0.000000
-221.908295 -132.590698 -35.815002 0.000000
-208.424988 -132.590698 -35.815002 0.000000
-194.941696 -132.590698 -35.815002 0.000000
-181.458389 -132.590698 -35.815002 0.000000
-167.975098 -132.590698 -35.815002 0.000000
-154.491791 -132.590698 -35.815002 51.751244
-141.008499 -132.590698 -35.815002 0.000000
-127.525192 -132.590698 -35.815002 52.750767
-114.041885 -132.590698 -35.815002 0.000000
-100.558594 -132.590698 -35.815002 43.150009
-87.075287 -132.590698 -35.815002 32.752407
-73.591980 -132.590698 -35.815002 28.967440
-60.108704 -132.590698 -35.815002 26.277582
-46.625397 -132.590698 -35.815002 23.143417
-33.142090 -132.590698 -35.815002 20.015369
-19.658783 -132.590698 -35.815002 19.827169
-6.175476 -132.590698 -35.815002 17.672686
7.307800 -132.590698 -35.815002 16.508249
20.791107 -132.590698 -35.815002 15.442136
34.274414 -132.590698 -35.815002 12.558604
47.757721 -132.590698 -35.815002 10.633712
61.240997 -132.590698 -35.815002 9.123848
74.724304 -132.590698 -35.815002 7.667406
88.207611 -132.590698 -35.815002 7.376644
101.690918 -132.590698 -35.815002 7.928711
115.174225 -132.590698 -35.815002 7.494678
128.657501 -132.590698 -35.815002 7.746194
142.140808 -132.590698 -35.815002 9.174143
155.624115 -132.590698 -35.815002 8.447970
169.107422 -132.590698 -35.815002 8.099784
182.590698 -132.590698 -35.815002 8.764030
196.074036 -132.590698 -35.815002 9.976946
209.557312 -132.590698 -35.815002 10.256248
223.040588 -132.590698 -35.815002 11.591719
236.523926 -132.590698 -35.815002 15.170049
250.007202 -132.590698 -35.815002 17.309616
263.490540 -132.590698 -35.815002 19.667782
276.973816 -132.590698 -35.815002 24.045137
290.457092 -132.590698 -35.815002 33.651585
303.940430 -132.590698 -35.815002 0.000000
317.423706 -132.590698 -35.815002 0.000000
330.907043 -132.590698 -35.815002 0.000000
344.390320 -132.590698 -35.815002 0.000000
-343.257996 -146.074036 -35.815002 0.000000
-329.774689 -146.074036 -35.815002 0.000000
-316.291382 -146.074036 -35.815002 0.000000
-302.808105 -146.074036 -35.815002 0.000000
-289.324799 -146.074036 -35.815002 0.000000
-275.841492 -146.074036 -35.815002 0.000000
-262.358185 -146.074036 -35.815002 0.000000
-248.874893 -146.074036 -35.815002 0.000000
-235.391602 -146.074036 -35.815002 0.000000
-221.908295 -146.074036 -35.815002 0.000000
-208.424988 -146.074036 -35.815002 0.000000
-194.941696 -146.074036 -35.815002 0.000000
-181.458389 -146.074036 -35.815002 0.000000
-167.975098 -146.074036 -35.815002 0.000000
-154.491791 -146.074036 -35.815002 0.000000
-141.008499 -146.074036 -35.815002 0.000000
-127.525192 -146.074036 -35.815002 0.000000
-114.041885 -146.074036 -35.815002 0.000000
-100.558594 -146.074036 -35.815002 0.000000
-87.075287 -146.074036 -35.815002 0.000000
-73.591980 -146.074036 -35.815002 0.000000
-60.108704 -146.074036 -35.815002 0.000000
-46.625397 -146.074036 -35.815002 25.722340
-33.142090 -146.074036 -35.815002 21.606688
-19.658783 -146.074036 -35.815002 22.448671
-6.175476 -146.074036 -35.815002 21.667480
7.307800 -146.074036 -35.815002 18.142176
20.791107 -146.074036 -35.815002 16.969551
34.274414 -146.074036 -35.815002 14.844943
47.757721 -146.074036 -35.815002 0.000000
61.240997 -146.074036 -35.815002 0.000000
74.724304 -146.074036 -35.815002 0.000000
88.207611 -146.074036 -35.815002 0.000000
101.690918 -146.074036 -35.815002 8.948047
115.174225 -146.074036 -35.815002 8.805333
128.657501 -146.074036 -35.815002 9.928573
142.140808 -146.074036 -35.815002 10.904329
155.624115 -146.074036 -35.815002 11.803267
169.107422 -146.074036 -35.815002 10.733041
182.590698 -146.074036 -35.815002 0.000000
196.074036 -146.074036 -35.815002 0.000000
209.557312 -146.074036 -35.815002 0.000000
223.040588 -146.074036 -35.815002 0.000000
236.523926 -146.074036 -35.815002 0.000000
250.007202 -146.074036 -35.815002 0.000000
263.490540 -146.074036 -35.815002 0.000000
276.973816 -146.074036 -35.815002 0.000000
290.457092 -146.074036 -35.815002 0.000000
303.940430 -146.074036 -35.815002 0.000000
317.423706 -146.074036 -35.815002 0.000000
330.907043 -146.074036 -35.815002 0.000000
344.390320 -146.074036 -35.815002 0.000000
-343.257996 -159.557312 -35.815002 0.000000
-329.774689 -159.557312 -35.815002 0.000000
-316.291382 -159.557312 -35.815002 0.000000
-302.808105 -159.557312 -35.815002 0.000000
-289.324799 -159.557312 -35.815002 0.000000
-275.841492 -159.557312 -35.815002 0.000000
-262.358185 -159.557312 -35.815002 0.000000
-248.874893 -159.557312 -35.815002 0.000000
-235.391602 -159.557312 -35.815002 0.000000
-221.908295 -159.557312 -35.815002 0.000000
-208.424988 -159.557312 -35.815002 0.000000
-194.941696 -159.557312 -35.815002 0.000000
-181.458389 -159.557312 -35.815002 0.000000
-167.975098 -159.557312 -35.815002 0.000000
-154.491791 -159.557312 -35.815002 0.000000
-141.008499 -159.557312 -35.815002 0.000000
-127.525192 -159.557312 -35.815002 0.000000
-114.041885 -159.557312 -35.815002 0.000000
-100.558594 -159.557312 -35.815002 0.000000
-87.075287 -159.557312 -35.815002 0.000000
-73.591980 -159.557312 -35.815002 0.000000
-60.108704 -159.557312 -35.815002 0.000000
-46.625397 -159.557312 -35.815002 0.000000
-33.142090 -159.557312 -35.815002 0.000000
-19.658783 -159.557312 -35.815002 0.000000
-6.175476 -159.557312 -35.815002 0.000000
7.307800 -159.557312 -35.815002 0.000000
20.791107 -159.557312 -35.815002 0.000000
34.274414 -159.557312 -35.815002 0.000000
47.757721 -159.557312 -35.815002 0.000000
61.240997 -159.557312 -35.815002 0.000000
74.724304 -159.557312 -35.815002 0.000000
88.207611 -159.557312 -35.815002 0.000000
101.690918 -159.557312 -35.815002 0.000000
115.174225 -159.557312 -35.815002 0.000000
128.657501 -159.557312 -35.815002 0.000000
142.140808 -159.557312 -35.815002 0.000000
155.624115 -159.557312 -35.815002 0.000000
169.107422 -159.557312 -35.815002 0.000000
182.590698 -159.557312 -35.815002 0.000000
196.074036 -159.557312 -35.815002 0.000000
209.557312 -159.557312 -35.815002 0.000000
223.040588 -159.557312 -35.815002 0.000000
236.523926 -159.557312 -35.815002 0.000000
250.007202 -159.557312 -35.815002 0.000000
263.490540 -159.557312 -35.815002 0.000000
276.973816 -159.557312 -35.815002 0.000000
290.457092 -159.557312 -35.815002 0.000000
303.940430 -159.557312 -35.815002 0.000000
317.423706 -159.557312 -35.815002 0.000000
330.907043 -159.557312 -35.815002 0.000000
344.390320 -159.557312 -35.815002 0.000000
-343.257996 -173.040588 -35.815002 0.000000
-329.774689 -173.040588 -35.815002 0.000000
-316.291382 -173.040588 -35.815002 0.000000
-302.808105 -173.040588 -35.815002 0.000000
-289.324799 -173.040588 -35.815002 0.000000
-275.841492 -173.040588 -35.815002 0.000000
-262.358185 -173.040588 -35.815002 0.000000
-248.874893 -173.040588 -35.815002 0.000000
-235.391602 -173.040588 -35.815002 0.000000
-221.908295 -173.040588 -35.815002 0.000000
-208.424988 -173.040588 -35.815002 0.000000
-194.941696 -173.040588 -35.815002 0.000000
-181.458389 -173.040588 -35.815002 0.000000
-167.975098 -173.040588 -35.815002 0.000000
-154.491791 -173.040588 -35.815002 0.000000
-141.008499 -173.040588 -35.815002 0.000000
-127.525192 -173.040588 -35.815002 0.000000
-114.041885 -173.040588 -35.815002 0.000000
-100.558594 -173.040588 -35.815002 0.000000
-87.075287 -173.040588 -35.815002 0.000000
-73.591980 -173.040588 -35.815002 0.000000
-60.108704 -173.040588 -35.815002 0.000000
-46.625397 -173.040588 -35.815002 0.000000
-33.142090 -173.040588 -35.815002 0.000000
-19.658783 -173.040588 -35.815002 0.000000
-6.175476 -173.040588 -35.815002 0.000000
7.307800 -173.040588 -35.815002 0.000000
20.791107 -173.040588 -35.815002 0.000000
34.274414 -173.040588 -35.815002 0.000000
47.757721 -173.040588 -35.815002 0.000000
61.240997 -173.040588 -35.815002 0.000000
74.724304 -173.040588 -35.815002 0.000000
88.207611 -173.040588 -35.815002 0.000000
101.690918 -173.040588 -35.815002 0.000000
115.174225 -173.040588 -35.815002 0.000000
128.657501 -173.040588 -35.815002 0.000000
142.140808 -173.040588 -35.815002 0.000000
155.624115 -173.040588 -35.815002 0.000000
169.107422 -173.040588 -35.815002 0.000000
182.590698 -173.040588 -35.815002 0.000000
196.074036 -173.040588 -35.815002 0.000000
209.557312 -173.040588 -35.815002 0.000000
223.040588 -173.040588 -35.815002 0.000000
236.523926 -173.040588 -35.815002 0.000000
250.007202 -173.040588 -35.815002 0.000000
263.490540 -173.040588 -35.815002 0.000000
276.973816 -173.040588 -35.815002 0.000000
290.457092 -173.040588 -35.815002 0.000000
303.940430 -173.040588 -35.815002 0.000000
317.423706 -173.040588 -35.815002 0.000000
330.907043 -173.040588 -35.815002 0.000000
344.390320 -173.040588 -35.815002 0.000000
-343.257996 -186.523926 -35.815002 0.000000
-329.774689 -186.523926 -35.815002 0.000000
-316.291382 -186.523926 -35.815002 0.000000
-302.808105 -186.523926 -35.815002 0.000000
-289.324799 -186.523926 -35.815002 0.000000
-275.841492 -186.523926 -35.815002 0.000000
-262.358185 -186.523926 -35.815002 0.000000
-248.874893 -186.523926 -35.815002 0.000000
-235.391602 -186.523926 -35.815002 0.000000
-221.908295 -186.523926 -35.815002 0.000000
-208.424988 -186.523926 -35.815002 0.000000
-194.941696 -186.523926 -35.815002 0.000000
-181.458389 -186.523926 -35.815002 0.000000
-167.975098 -186.523926 -35.815002 0.000000
-154.491791 -186.523926 -35.815002 0.000000
-141.008499 -186.523926 -35.815002 0.000000
-127.525192 -186.523926 -35.815002 0.000000
-114.041885 -186.523926 -35.815002 0.000000
-100.558594 -186.523926 -35.815002 0.000000
-87.075287 -186.523926 -35.815002 0.000000
-73.591980 -186.523926 -35.815002 0.000000
-60.108704 -186.523926 -35.815002 0.000000
-46.625397 -186.523926 -35.815002 0.000000
-33.142090 -186.523926 -35.815002 0.000000
-19.658783 -186.523926 -35.815002 0.000000
-6.175476 -186.523926 -35.815002 0.000000
7.307800 -186.523926 -35.815002 0.000000
20.791107 -186.523926 -35.815002 0.000000
34.274414 -186.523926 -35.815002 0.000000
47.757721 -186.523926 -35.815002 0.000000
61.240997 -186.523926 -35.815002 0.000000
74.724304 -186.523926 -35.815002 0.000000
88.207611 -186.523926 -35.815002 0.000000
101.690918 -186.523926 -35.815002 0.000000
115.174225 -186.523926 -35.815002 0.000000
128.657501 -186.523926 -35.815002 0.000000
142.140808 -186.523926 -35.815002 0.000000
155.624115 -186.523926 -35.815002 0.000000
169.107422 -186.523926 -35.815002 0.000000
182.590698 -186.523926 -35.815002 0.000000
196.074036 -186.523926 -35.815002 0.000000
209.557312 -186.523926 -35.815002 0.000000
223.040588 -186.523926 -35.815002 0.000000
236.523926 -186.523926 -35.815002 0.000000
250.007202 -186.523926 -35.815002 0.000000
263.490540 -186.523926 -35.815002 0.000000
276.973816 -186.523926 -35.815002 0.000000
290.457092 -186.523926 -35.815002 0.000000
303.940430 -186.523926 -35.815002 0.000000
317.423706 -186.523926 -35.815002 0.000000
330.907043 -186.523926 -35.815002 0.000000
344.390320 -186.523926 -35.815002 0.000000
-343.257996 -200.007202 -35.815002 0.000000
-329.774689 -200.007202 -35.815002 0.000000
-316.291382 -200.007202 -35.815002 0.000000
-302.808105 -200.007202 -35.815002 0.000000
-289.324799 -200.007202 -35.815002 0.000000
-275.841492 -200.007202 -35.815002 0.000000
-262.358185 -200.007202 -35.815002 0.000000
-248.874893 -200.007202 -35.815002 0.000000
-235.391602 -200.007202 -35.815002 0.000000
-221.908295 -200.007202 -35.815002 0.000000
-208.424988 -200.007202 -35.815002 0.000000
-194.941696 -200.007202 -35.815002 0.000000
-181.458389 -200.007202 -35.815002 0.000000
-167.975098 -200.007202 -35.815002 0.000000
-154.491791 -200.007202 -35.815002 0.000000
-141.008499 -200.007202 -35.815002 0.000000
-127.525192 -200.007202 -35.815002 0.000000
-114.041885 -200.007202 -35.815002 0.000000
-100.558594 -200.007202 -35.815002 0.000000
-87.075287 -200.007202 -35.815002 0.000000
-73.591980 -200.007202 -35.815002 0.000000
-60.108704 -200.007202 -35.815002 0.000000
-46.625397 -200.007202 -35.815002 0.000000
-33.142090 -200.007202 -35.815002 0.000000
-19.658783 -200.007202 -35.815002 0.000000
-6.175476 -200.007202 -35.815002 0.000000
7.307800 -200.007202 -35.815002 0.000000
20.791107 -200.007202 -35.815002 0.000000
34.274414 -200.007202 -35.815002 0.000000
47.757721 -200.007202 -35.815002 0.000000
61.240997 -200.007202 -35.815002 0.000000
74.724304 -200.007202 -35.815002 0.000000
88.207611 -200.007202 -35.815002 0.000000
101.690918 -200.007202 -35.815002 0.000000
115.174225 -200.007202 -35.815002 0.000000
128.657501 -200.007202 -35.815002 0.000000
142.140808 -200.007202 -35.815002 0.000000
155.624115 -200.007202 -35.815002 0.000000
169.107422 -200.007202 -35.815002 0.000000
182.590698 -200.007202 -35.815002 0.000000
196.074036 -200.007202 -35.815002 0.000000
209.557312 -200.007202 -35.815002 0.000000
223.040588 -200.007202 -35.815002 0.000000
236.523926 -200.007202 -35.815002 0.000000
250.007202 -200.007202 -35.815002 0.000000
263.490540 -200.007202 -35.815002 0.000000
276.973816 -200.007202 -35.815002 0.000000
290.457092 -200.007202 -35.815002 0.000000
303.940430 -200.007202 -35.815002 0.000000
317.423706 -200.007202 -35.815002 0.000000
330.907043 -200.007202 -35.815002 0.000000
344.390320 -200.007202 -35.815002 0.000000
-343.257996 393.257996 -22.331701 0.000000
-329.774689 393.257996 -22.331701 0.000000
-316.291382 393.257996 -22.331701 0.000000
-302.808105 393.257996 -22.331701 0.000000
-289.324799 393.257996 -22.331701 0.000000
-275.841492 393.257996 -22.331701 0.000000
-262.358185 393.257996 -22.331701 0.000000
-248.874893 393.257996 -22.331701 0.000000
-235.391602 393.257996 -22.331701 0.000000
-221.908295 393.257996 -22.331701 0.000000
-208.424988 393.257996 -22.331701 0.000000
-194.941696 393.257996 -22.331701 0.000000
-181.458389 393.257996 -22.331701 0.000000
-167.975098 393.257996 -22.331701 0.000000
-154.491791 393.257996 -22.331701 0.000000
-141.008499 393.257996 -22.331701 0.000000
-127.525192 393.257996 -22.331701 0.000000
-114.041885 393.257996 -22.331701 0.000000
-100.558594 393.257996 -22.331701 0.000000
-87.075287 393.257996 -22.331701 0.000000
-73.591980 393.257996 -22.331701 0.000000
-60.108704 393.257996 -22.331701 0.000000
-46.625397 393.257996 -22.331701 0.000000
-33.142090 393.257996 -22.331701 0.000000
-19.658783 393.257996 -22.331701 0.000000
-6.175476 393.257996 -22.331701 0.000000
7.307800 393.257996 -22.331701 0.000000
20.791107 393.257996 -22.331701 0.000000
34.274414 393.257996 -22.331701 0.000000
47.757721 393.257996 -22.331701 0.000000
61.240997 393.257996 -22.331701 0.000000
74.724304 393.257996 -22.331701 0.000000
88.207611 393.257996 -22.331701 0.000000
101.690918 393.257996 -22.331701 0.000000
115.174225 393.257996 -22.331701 0.000000
128.657501 393.257996 -22.331701 0.000000
142.140808 393.257996 -22.331701 0.000000
155.624115 393.257996 -22.331701 0.000000
169.107422 393.257996 -22.331701 0.000000
182.590698 393.257996 -22.331701 0.000000
196.074036 393.257996 -22.331701 0.000000
209.557312 393.257996 -22.331701 0.000000
223.040588 393.257996 -22.331701 0.000000
236.523926 393.257996 -22.331701 0.000000
250.007202 393.257996 -22.331701 0.000000
263.490540 393.257996 -22.331701 0.000000
276.973816 393.257996 -22.331701 0.000000
290.457092 393.257996 -22.331701 0.000000
303.940430 393.257996 -22.331701 0.000000
317.423706 393.257996 -22.331701 0.000000
330.907043 393.257996 -22.331701 0.000000
344.390320 393.257996 -22.331701 0.000000
-343.257996 379.774689 -22.331701 0.000000
-329.774689 379.774689 -22.331701 0.000000
-316.291382 379.774689 -22.331701 0.000000
-302.808105 379.774689 -22.331701 0.000000
-289.324799 379.774689 -22.331701 0.000000
-275.841492 379.774689 -22.331701 0.000000
-262.358185 379.774689 -22.331701 0.000000
-248.874893 379.774689 -22.331701 0.000000
-235.391602 379.774689 -22.331701 0.000000
-221.908295 379.774689 -22.331701 0.000000
-208.424988 379.774689 -22.331701 0.000000
-194.941696 379.774689 -22.331701 0.000000
-181.458389 379.774689 -22.331701 0.000000
-167.975098 379.774689 -22.331701 0.000000
-154.491791 379.774689 -22.331701 0.000000
-141.008499 379.774689 -22.331701 0.000000
-127.525192 379.774689 -22.331701 0.000000
-114.041885 379.774689 -22.331701 0.000000
-100.558594 379.774689 -22.331701 0.000000
-87.075287 379.774689 -22.331701 0.000000
-73.591980 379.774689 -22.331701 0.000000
-60.108704 379.774689 -22.331701 0.000000
-46.625397 379.774689 -22.331701 0.000000
-33.142090 379.774689 -22.331701 0.000000
-19.658783 379.774689 -22.331701 0.000000
-6.175476 379.774689 -22.331701 0.000000
7.307800 379.774689 -22.331701 0.000000
20.791107 379.774689 -22.331701 0.000000
34.274414 379.774689 -22.331701 0.000000
47.757721 379.774689 -22.331701 0.000000
61.240997 379.774689 -22.331701 0.000000
74.724304 379.774689 -22.331701 0.000000
88.207611 379.774689 -22.331701 0.000000
101.690918 379.774689 -22.331701 0.000000
115.174225 379.774689 -22.331701 0.000000
128.657501 379.774689 -22.331701 0.000000
142.140808 379.774689 -22.331701 0.000000
155.624115 379.774689 -22.331701 0.000000
169.107422 379.774689 -22.331701 0.000000
182.590698 379.774689 -22.331701 0.000000
196.074036 379.774689 -22.331701 0.000000
209.557312 379.774689 -22.331701 0.000000
223.040588 379.774689 -22.331701 0.000000
236.523926 379.774689 -22.331701 0.000000
250.007202 379.774689 -22.331701 0.000000
263.490540 379.774689 -22.331701 0.000000
276.973816 379.774689 -22.331701 0.000000
290.457092 379.774689 -22.331701 0.000000
303.940430 379.774689 -22.331701 0.000000
317.423706 379.774689 -22.331701 0.000000
330.907043 379.774689 -22.331701 0.000000
344.390320 379.774689 -22.331701 0.000000
-343.257996 366.291382 -22.331701 0.000000
-329.774689 366.291382 -22.331701 0.000000
-316.291382 366.291382 -22.331701 0.000000
-302.808105 366.291382 -22.331701 0.000000
-289.324799 366.291382 -22.331701 0.000000
-275.841492 366.291382 -22.331701 0.000000
-262.358185 366.291382 -22.331701 0.000000
-248.874893 366.291382 -22.331701 0.000000
-235.391602 366.291382 -22.331701 0.000000
-221.908295 366.291382 -22.331701 0.000000
-208.424988 366.291382 -22.331701 0.000000
-194.941696 366.291382 -22.331701 0.000000
-181.458389 366.291382 -22.331701 0.000000
-167.975098 366.291382 -22.331701 0.000000
-154.491791 366.291382 -22.331701 0.000000
-141.008499 366.291382 -22.331701 0.000000
-127.525192 366.291382 -22.331701 0.000000
-114.041885 366.291382 -22.331701 0.000000
-100.558594 366.291382 -22.331701 0.000000
-87.075287 366.291382 -22.331701 0.000000
-73.591980 366.291382 -22.331701 0.000000
-60.108704 366.291382 -22.331701 0.000000
-46.625397 366.291382 -22.331701 0.000000
-33.142090 366.291382 -22.331701 0.000000
-19.658783 366.291382 -22.331701 0.000000
-6.175476 366.291382 -22.331701 0.000000
7.307800 366.291382 -22.331701 0.000000
20.791107 366.291382 -22.331701 3.059518
34.274414 366.291382 -22.331701 0.000000
47.757721 366.291382 -22.331701 3.353036
61.240997 366.291382 -22.331701 3.661200
74.724304 366.291382 -22.331701 3.864971
88.207611 366.291382 -22.331701 4.113761
101.690918 366.291382 -22.331701 4.428391
115.174225 366.291382 -22.331701 5.233118
128.657501 366.291382 -22.331701 0.000000
142.140808 366.291382 -22.331701 0.000000
155.624115 366.291382 -22.331701 0.000000
169.107422 366.291382 -22.331701 0.000000
182.590698 366.291382 -22.331701 0.000000
196.074036 366.291382 -22.331701 0.000000
209.557312 366.291382 -22.331701 0.000000
223.040588 366.291382 -22.331701 0.000000
236.523926 366.291382 -22.331701 0.000000
250.007202 366.291382 -22.331701 0.000000
263.490540 366.291382 -22.331701 0.000000
276.973816 366.291382 -22.331701 0.000000
290.457092 366.291382 -22.331701 0.000000
303.940430 366.291382 -22.331701 0.000000
317.423706 366.291382 -22.331701 0.000000
330.907043 366.291382 -22.331701 0.000000
344.390320 366.291382 -22.331701 0.000000
-343.257996 352.808105 -22.331701 0.000000
-329.774689 352.808105 -22.331701 0.000000
-316.291382 352.808105 -22.331701 0.000000
-302.808105 352.808105 -22.331701 0.000000
-289.324799 352.808105 -22.331701 0.000000
-275.841492 352.808105 -22.331701 0.000000
-262.358185 352.808105 -22.331701 0.000000
-248.874893 352.808105 -22.331701 0.000000
-235.391602 352.808105 -22.331701 0.000000
-221.908295 352.808105 -22.331701 6.464681
-208.424988 352.808105 -22.331701 6.823013
-194.941696 352.808105 -22.331701 8.152447
-181.458389 352.808105 -22.331701 9.018166
-167.975098 352.808105 -22.331701 10.499714
-154.491791 352.808105 -22.331701 11.666238
-141.008499 352.808105 -22.331701 11.293028
-127.525192 352.808105 -22.331701 11.577539
-114.041885 352.808105 -22.331701 10.574362
-100.558594 352.808105 -22.331701 9.474739
-87.075287 352.808105 -22.331701 9.790990
-73.591980 352.808105 -22.331701 9.849923
-60.108704 352.808105 -22.331701 9.524086
-46.625397 352.808105 -22.331701 8.011379
-33.142090 352.808105 -22.331701 6.273412
-19.658783 352.808105 -22.331701 4.838757
-6.175476 352.808105 -22.331701 3.613803
7.307800 352.808105 -22.331701 3.617739
20.791107 352.808105 -22.331701 3.365855
34.274414 352.808105 -22.331701 3.202544
47.757721 352.808105 -22.331701 3.479593
61.240997 352.808105 -22.331701 3.835692
74.724304 352.808105 -22.331701 4.208631
88.207611 352.808105 -22.331701 4.465832
101.690918 352.808105 -22.331701 4.901320
115.174225 352.808105 -22.331701 5.509814
128.657501 352.808105 -22.331701 6.980144
142.140808 352.808105 -22.331701 7.571162
155.624115 352.808105 -22.331701 7.802720
169.107422 352.808105 -22.331701 8.664588
182.590698 352.808105 -22.331701 9.549451
196.074036 352.808105 -22.331701 9.240026
209.557312 352.808105 -22.331701 0.000000
223.040588 352.808105 -22.331701 0.000000
236.523926 352.808105 -22.331701 0.000000
250.007202 352.808105 -22.331701 0.000000
263.490540 352.808105 -22.331701 0.000000
276.973816 352.808105 -22.331701 0.000000
290.457092 352.808105 -22.331701 0.000000
303.940430 352.808105 -22.331701 0.000000
317.423706 352.808105 -22.331701 0.000000
330.907043 352.808105 -22.331701 0.000000
344.390320 352.808105 -22.331701 0.000000
-343.257996 339.324799 -22.331701 0.000000
-329.774689 339.324799 -22.331701 0.000000
-316.291382 339.324799 -22.331701 0.000000
-302.808105 339.324799 -22.331701 0.000000
-289.324799 339.324799 -22.331701 0.000000
-275.841492 339.324799 -22.331701 11.601909
-262.358185 339.324799 -22.331701 8.484699
-248.874893 339.324799 -22.331701 6.551462
-235.391602 339.324799 -22.331701 5.873676
-221.908295 339.324799 -22.331701 6.260398
-208.424988 339.324799 -22.331701 6.891264
-194.941696 339.324799 -22.331701 7.943822
-181.458389 339.324799 -22.331701 8.508477
-167.975098 339.324799 -22.331701 9.545215
-154.491791 339.324799 -22.331701 9.874374
-141.008499 339.324799 -22.331701 9.671104
-127.525192 339.324799 -22.331701 9.716306
-114.041885 339.324799 -22.331701 9.446152
-100.558594 339.324799 -22.331701 8.918664
-87.075287 339.324799 -22.331701 8.489852
-73.591980 339.324799 -22.331701 8.659257
-60.108704 339.324799 -22.331701 8.796400
-46.625397 339.324799 -22.331701 7.889218
-33.142090 339.324799 -22.331701 6.661057
-19.658783 339.324799 -22.331701 4.512162
-6.175476 339.324799 -22.331701 3.847770
7.307800 339.324799 -22.331701 3.896286
20.791107 339.324799 -22.331701 3.687925
34.274414 339.324799 -22.331701 3.755749
47.757721 339.324799 -22.331701 4.040281
61.240997 339.324799 -22.331701 4.632041
74.724304 339.324799 -22.331701 4.703887
88.207611 339.324799 -22.331701 5.460978
101.690918 339.324799 -22.331701 6.279188
115.174225 339.324799 -22.331701 7.089126
128.657501 339.324799 -22.331701 8.043696
142.140808 339.324799 -22.331701 8.625437
155.624115 339.324799 -22.331701 8.952518
169.107422 339.324799 -22.331701 9.123551
182.590698 339.324799 -22.331701 8.612054
196.074036 339.324799 -22.331701 8.224278
209.557312 339.324799 -22.331701 7.733515
223.040588 339.324799 -22.331701 9.316414
236.523926 339.324799 -22.331701 9.773796
250.007202 339.324799 -22.331701 10.571145
263.490540 339.324799 -22.331701 13.834008
276.973816 339.324799 -22.331701 0.000000
290.457092 339.324799 -22.331701 0.000000
303.940430 339.324799 -22.331701 0.000000
317.423706 339.324799 -22.331701 0.000000
330.907043 339.324799 -22.331701 0.000000
344.390320 339.324799 -22.331701 0.000000
-343.257996 325.841492 -22.331701 0.000000
-329.774689 325.841492 -22.331701 0.000000
-316.291382 325.841492 -22.331701 0.000000
-302.808105 325.841492 -22.331701 0.000000
-289.324799 325.841492 -22.331701 10.387629
-275.841492 325.841492 -22.331701 6.835504
-262.358185 325.841492 -22.331701 5.615420
-248.874893 325.841492 -22.331701 5.017758
-235.391602 325.841492 -22.331701 4.734102
-221.908295 325.841492 -22.331701 5.329195
-208.424988 325.841492 -22.331701 6.677029
-194.941696 325.841492 -22.331701 7.091016
-181.458389 325.841492 -22.331701 8.042374
-167.975098 325.841492 -22.331701 8.720194
-154.491791 325.841492 -22.331701 8.591460
-141.008499 325.841492 -22.331701 8.963504
-127.525192 325.841492 -22.331701 8.432366
-114.041885 325.841492 -22.331701 7.867233
-100.558594 325.841492 -22.331701 7.558482
-87.075287 325.841492 -22.331701 7.181349
-73.591980 325.841492 -22.331701 7.869130
-60.108704 325.841492 -22.331701 7.666170
-46.625397 325.841492 -22.331701 7.070808
-33.142090 325.841492 -22.331701 6.273508
-19.658783 325.841492 -22.331701 4.986329
-6.175476 325.841492 -22.331701 4.544906
7.307800 325.841492 -22.331701 4.122450
20.791107 325.841492 -22.331701 4.024039
34.274414 325.841492 -22.331701 3.873213
47.757721 325.841492 -22.331701 4.461878
61.240997 325.841492 -22.331701 4.788691
74.724304 325.841492 -22.331701 5.561177
88.207611 325.841492 -22.331701 6.562519
101.690918 325.841492 -22.331701 7.752749
115.174225 325.841492 -22.331701 9.519696
128.657501 325.841492 -22.331701 10.129648
142.140808 325.841492 -22.331701 10.263472
155.624115 325.841492 -22.331701 10.082874
169.107422 325.841492 -22.331701 9.294979
182.590698 325.841492 -22.331701 8.801421
196.074036 325.841492 -22.331701 7.769420
209.557312 325.841492 -22.331701 7.692833
223.040588 325.841492 -22.331701 8.625270
236.523926 325.841492 -22.331701 9.034662
250.007202 325.841492 -22.331701 8.119942
263.490540 325.841492 -22.331701 9.255573
276.973816 325.841492 -22.331701 12.259688
290.457092 325.841492 -22.331701 0.000000
303.940430 325.841492 -22.331701 0.000000
317.423706 325.841492 -22.331701 0.000000
330.907043 325.841492 -22.331701 0.000000
344.390320 325.841492 -22.331701 0.000000
-343.257996 312.358185 -22.331701 0.000000
-329.774689 312.358185 -22.331701 0.000000
-316.291382 312.358185 -22.331701 0.000000
-302.808105 312.358185 -22.331701 5.816764
-289.324799 312.358185 -22.331701 5.183383
-275.841492 312.358185 -22.331701 4.150990
-262.358185 312.358185 -22.331701 3.967555
-248.874893 312.358185 -22.331701 3.596159
-235.391602 312.358185 -22.331701 3.718140
-221.908295 312.358185 -22.331701 4.533223
-208.424988 312.358185 -22.331701 5.831119
-194.941696 312.358185 -22.331701 6.805813
-181.458389 312.358185 -22.331701 7.839103
-167.975098 312.358185 -22.331701 8.122841
-154.491791 312.358185 -22.331701 8.144282
-141.008499 312.358185 -22.331701 8.059989
-127.525192 312.358185 -22.331701 7.570206
-114.041885 312.358185 -22.331701 7.157652
-100.558594 312.358185 -22.331701 6.703437
-87.075287 312.358185 -22.331701 6.519132
-73.591980 312.358185 -22.331701 6.936576
-60.108704 312.358185 -22.331701 6.646521
-46.625397 312.358185 -22.331701 6.579298
-33.142090 312.358185 -22.331701 6.123042
-19.658783 312.358185 -22.331701 5.170614
-6.175476 312.358185 -22.331701 5.086627
7.307800 312.358185 -22.331701 4.581312
20.791107 312.358185 -22.331701 4.466410
34.274414 312.358185 -22.331701 4.166784
47.757721 312.358185 -22.331701 4.742755
61.240997 312.358185 -22.331701 5.273378
74.724304 312.358185 -22.331701 5.921388
88.207611 312.358185 -22.331701 7.327240
101.690918 312.358185 -22.331701 8.500251
115.174225 312.358185 -22.331701 9.484900
128.657501 312.358185 -22.331701 9.654702
142.140808 312.358185 -22.331701 9.984596
155.624115 312.358185 -22.331701 10.129179
169.107422 312.358185 -22.331701 8.658827
182.590698 312.358185 -22.331701 9.009541
196.074036 312.358185 -22.331701 8.064256
209.557312 312.358185 -22.331701 6.887106
223.040588 312.358185 -22.331701 7.098907
236.523926 312.358185 -22.331701 7.069053
250.007202 312.358185 -22.331701 6.117678
263.490540 312.358185 -22.331701 6.020529
276.973816 312.358185 -22.331701 7.130286
290.457092 312.358185 -22.331701 8.453539
303.940430 312.358185 -22.331701 0.000000
317.423706 312.358185 -22.331701 0.000000
330.907043 312.358185 -22.331701 0.000000
344.390320 312.358185 -22.331701 0.000000
-343.257996 298.874878 -22.331701 0.000000
-329.774689 298.874878 -22.331701 0.000000
-316.291382 298.874878 -22.331701 4.743458
-302.808105 298.874878 -22.331701 3.791693
-289.324799 298.874878 -22.331701 3.081341
-275.841492 298.874878 -22.331701 2.585916
-262.358185 298.874878 -22.331701 2.614840
-248.874893 298.874878 -22.331701 2.556057
-235.391602 298.874878 -22.331701 2.981316
-221.908295 298.874878 -22.331701 4.270918
-208.424988 298.874878 -22.331701 5.408743
-194.941696 298.874878 -22.331701 6.527794
-181.458389 298.874878 -22.331701 7.631992
-167.975098 298.874878 -22.331701 8.120151
-154.491791 298.874878 -22.331701 7.655484
-141.008499 298.874878 -22.331701 7.475447
-127.525192 298.874878 -22.331701 6.913909
-114.041885 298.874878 -22.331701 6.550456
-100.558594 298.874878 -22.331701 6.051262
-87.075287 298.874878 -22.331701 5.934679
-73.591980 298.874878 -22.331701 5.714542
-60.108704 298.874878 -22.331701 5.643286
-46.625397 298.874878 -22.331701 6.323041
-33.142090 298.874878 -22.331701 6.209052
-19.658783 298.874878 -22.331701 6.042743
-6.175476 298.874878 -22.331701 5.095811
7.307800 298.874878 -22.331701 4.873008
20.791107 298.874878 -22.331701 4.804147
34.274414 298.874878 -22.331701 4.737264
47.757721 298.874878 -22.331701 4.718374
61.240997 298.874878 -22.331701 5.549475
74.724304 298.874878 -22.331701 6.578234
88.207611 298.874878 -22.331701 8.068372
101.690918 298.874878 -22.331701 9.149091
115.174225 298.874878 -22.331701 9.766665
128.657501 298.874878 -22.331701 9.797077
142.140808 298.874878 -22.331701 10.211530
155.624115 298.874878 -22.331701 10.094170
169.107422 298.874878 -22.331701 9.925125
182.590698 298.874878 -22.331701 9.470113
196.074036 298.874878 -22.331701 8.076939
209.557312 298.874878 -22.331701 7.656483
223.040588 298.874878 -22.331701 6.054580
236.523926 298.874878 -22.331701 5.485014
250.007202 298.874878 -22.331701 4.496439
263.490540 298.874878 -22.331701 4.285136
276.973816 298.874878 -22.331701 4.536663
290.457092 298.874878 -22.331701 5.272715
303.940430 298.874878 -22.331701 7.421644
317.423706 298.874878 -22.331701 0.000000
330.907043 298.874878 -22.331701 0.000000
344.390320 298.874878 -22.331701 0.000000
-343.257996 285.391602 -22.331701 0.000000
-329.774689 285.391602 -22.331701 0.000000
-316.291382 285.391602 -22.331701 2.958234
-302.808105 285.391602 -22.331701 2.213208
-289.324799 285.391602 -22.331701 1.935745
-275.841492 285.391602 -22.331701 1.887617
-262.358185 285.391602 -22.331701 2.059179
-248.874893 285.391602 -22.331701 2.207454
-235.391602 285.391602 -22.331701 3.071229
-221.908295 285.391602 -22.331701 3.979578
-208.424988 285.391602 -22.331701 5.510630
-194.941696 285.391602 -22.331701 6.587743
-181.458389 285.391602 -22.331701 7.669865
-167.975098 285.391602 -22.331701 7.475649
-154.491791 285.391602 -22.331701 7.363554
-141.008499 285.391602 -22.331701 6.751264
-127.525192 285.391602 -22.331701 6.583679
-114.041885 285.391602 -22.331701 6.311485
-100.558594 285.391602 -22.331701 5.915082
-87.075287 285.391602 -22.331701 5.392787
-73.591980 285.391602 -22.331701 5.144426
-60.108704 285.391602 -22.331701 5.313757
-46.625397 285.391602 -22.331701 5.926177
-33.142090 285.391602 -22.331701 6.160267
-19.658783 285.391602 -22.331701 5.713595
-6.175476 285.391602 -22.331701 5.085422
7.307800 285.391602 -22.331701 4.903756
20.791107 285.391602 -22.331701 4.843804
34.274414 285.391602 -22.331701 5.026397
47.757721 285.391602 -22.331701 5.032188
61.240997 285.391602 -22.331701 5.848150
74.724304 285.391602 -22.331701 6.566815
88.207611 285.391602 -22.331701 7.930107
101.690918 285.391602 -22.331701 8.345961
115.174225 285.391602 -22.331701 8.190227
128.657501 285.391602 -22.331701 8.748039
142.140808 285.391602 -22.331701 8.490764
155.624115 285.391602 -22.331701 8.977537
169.107422 285.391602 -22.331701 9.489360
182.590698 285.391602 -22.331701 9.723830
196.074036 285.391602 -22.331701 9.277761
209.557312 285.391602 -22.331701 7.464163
223.040588 285.391602 -22.331701 6.482358
236.523926 285.391602 -22.331701 4.399755
250.007202 285.391602 -22.331701 3.765057
263.490540 285.391602 -22.331701 3.446139
276.973816 285.391602 -22.331701 3.459500
290.457092 285.391602 -22.331701 3.540569
303.940430 285.391602 -22.331701 4.292319
317.423706 285.391602 -22.331701 0.000000
330.907043 285.391602 -22.331701 0.000000
344.390320 285.391602 -22.331701 0.000000
-343.257996 271.908295 -22.331701 0.000000
-329.774689 271.908295 -22.331701 0.000000
-316.291382 271.908295 -22.331701 1.799226
-302.808105 271.908295 -22.331701 1.634873
-289.324799 271.908295 -22.331701 1.450943
-275.841492 271.908295 -22.331701 1.396274
-262.358185 271.908295 -22.331701 1.652331
-248.874893 271.908295 -22.331701 2.018412
-235.391602 271.908295 -22.331701 2.646284
-221.908295 271.908295 -22.331701 3.836036
-208.424988 271.908295 -22.331701 5.140436
-194.941696 271.908295 -22.331701 6.491492
-181.458389 271.908295 -22.331701 7.648464
-167.975098 271.908295 -22.331701 7.253764
-154.491791 271.908295 -22.331701 6.877782
-141.008499 271.908295 -22.331701 6.300241
-127.525192 271.908295 -22.331701 6.323327
-114.041885 271.908295 -22.331701 5.651698
-100.558594 271.908295 -22.331701 5.426978
-87.075287 271.908295 -22.331701 4.977666
-73.591980 271.908295 -22.331701 4.836134
-60.108704 271.908295 -22.331701 5.116668
-46.625397 271.908295 -22.331701 5.594970
-33.142090 271.908295 -22.331701 5.571685
-19.658783 271.908295 -22.331701 5.458966
-6.175476 271.908295 -22.331701 4.684439
7.307800 271.908295 -22.331701 4.392719
20.791107 271.908295 -22.331701 4.912905
34.274414 271.908295 -22.331701 5.020786
47.757721 271.908295 -22.331701 5.385274
61.240997 271.908295 -22.331701 5.601058
74.724304 271.908295 -22.331701 6.582065
88.207611 271.908295 -22.331701 6.911473
101.690918 271.908295 -22.331701 7.039212
115.174225 271.908295 -22.331701 7.160526
128.657501 271.908295 -22.331701 6.997890
142.140808 271.908295 -22.331701 7.277720
155.624115 271.908295 -22.331701 7.935580
169.107422 271.908295 -22.331701 8.411636
182.590698 271.908295 -22.331701 8.854151
196.074036 271.908295 -22.331701 8.707034
209.557312 271.908295 -22.331701 7.715846
223.040588 271.908295 -22.331701 6.370054
236.523926 271.908295 -22.331701 4.375484
250.007202 271.908295 -22.331701 3.041695
263.490540 271.908295 -22.331701 2.418790
276.973816 271.908295 -22.331701 2.594216
290.457092 271.908295 -22.331701 2.813848
303.940430 271.908295 -22.331701 3.266110
317.423706 271.908295 -22.331701 3.085841
330.907043 271.908295 -22.331701 0.000000
344.390320 271.908295 -22.331701 0.000000
-343.257996 258.424988 -22.331701 0.000000
-329.774689 258.424988 -22.331701 0.000000
-316.291382 258.424988 -22.331701 1.544413
-302.808105 258.424988 -22.331701 1.370591
-289.324799 258.424988 -22.331701 1.319041
-275.841492 258.424988 -22.331701 1.236637
-262.358185 258.424988 -22.331701 1.553466
-248.874893 258.424988 -22.331701 1.873188
-235.391602 258.424988 -22.331701 2.649359
-221.908295 258.424988 -22.331701 3.601233
-208.424988 258.424988 -22.331701 4.804266
-194.941696 258.424988 -22.331701 6.116824
-181.458389 258.424988 -22.331701 6.905668
-167.975098 258.424988 -22.331701 6.737525
-154.491791 258.424988 -22.331701 6.030745
-141.008499 258.424988 -22.331701 6.102999
-127.525192 258.424988 -22.331701 6.133416
-114.041885 258.424988 -22.331701 5.663685
-100.558594 258.424988 -22.331701 5.630776
-87.075287 258.424988 -22.331701 4.834700
-73.591980 258.424988 -22.331701 4.718358
-60.108704 258.424988 -22.331701 5.278233
-46.625397 258.424988 -22.331701 5.574287
-33.142090 258.424988 -22.331701 5.649073
-19.658783 258.424988 -22.331701 5.197436
-6.175476 258.424988 -22.331701 4.632408
7.307800 258.424988 -22.331701 4.899708
20.791107 258.424988 -22.331701 5.166034
34.274414 258.424988 -22.331701 5.190140
47.757721 258.424988 -22.331701 5.070210
61.240997 258.424988 -22.331701 5.546056
74.724304 258.424988 -22.331701 6.184099
88.207611 258.424988 -22.331701 5.991292
101.690918 258.424988 -22.331701 5.779316
115.174225 258.424988 -22.331701 5.957335
128.657501 258.424988 -22.331701 6.164444
142.140808 258.424988 -22.331701 6.602614
155.624115 258.424988 -22.331701 7.043109
169.107422 258.424988 -22.331701 7.497803
182.590698 258.424988 -22.331701 8.331738
196.074036 258.424988 -22.331701 8.777136
209.557312 258.424988 -22.331701 8.261758
223.040588 258.424988 -22.331701 6.491522
236.523926 258.424988 -22.331701 4.320954
250.007202 258.424988 -22.331701 2.925270
263.490540 258.424988 -22.331701 2.077817
276.973816 258.424988 -22.331701 1.747163
290.457092 258.424988 -22.331701 1.974975
303.940430 258.424988 -22.331701 2.415190
317.423706 258.424988 -22.331701 2.605971
330.907043 258.424988 -22.331701 0.000000
344.390320 258.424988 -22.331701 0.000000
-343.257996 244.941696 -22.331701 0.000000
-329.774689 244.941696 -22.331701 0.000000
-316.291382 244.941696 -22.331701 1.202505
-302.808105 244.941696 -22.331701 1.180352
-289.324799 244.941696 -22.331701 1.066665
-275.841492 244.941696 -22.331701 1.170743
-262.358185 244.941696 -22.331701 1.377932
-248.874893 244.941696 -22.331701 1.920352
-235.391602 244.941696 -22.331701 2.382657
-221.908295 244.941696 -22.331701 3.555320
-208.424988 244.941696 -22.331701 4.406494
-194.941696 244.941696 -22.331701 5.421644
-181.458389 244.941696 -22.331701 6.051116
-167.975098 244.941696 -22.331701 6.059358
-154.491791 244.941696 -22.331701 5.692646
-141.008499 244.941696 -22.331701 5.580275
-127.525192 244.941696 -22.331701 5.845343
-114.041885 244.941696 -22.331701 6.168641
-100.558594 244.941696 -22.331701 5.552188
-87.075287 244.941696 -22.331701 4.925915
-73.591980 244.941696 -22.331701 5.015779
-60.108704 244.941696 -22.331701 4.756041
-46.625397 244.941696 -22.331701 5.287457
-33.142090 244.941696 -22.331701 5.455239
-19.658783 244.941696 -22.331701 5.077445
-6.175476 244.941696 -22.331701 5.147122
7.307800 244.941696 -22.331701 5.433532
20.791107 244.941696 -22.331701 5.136810
34.274414 244.941696 -22.331701 4.610963
47.757721 244.941696 -22.331701 4.644815
61.240997 244.941696 -22.331701 4.876176
74.724304 244.941696 -22.331701 4.925157
88.207611 244.941696 -22.331701 5.155741
101.690918 244.941696 -22.331701 5.326443
115.174225 244.941696 -22.331701 5.321513
128.657501 244.941696 -22.331701 5.515413
142.140808 244.941696 -22.331701 5.576285
155.624115 244.941696 -22.331701 6.229476
169.107422 244.941696 -22.331701 6.729800
182.590698 244.941696 -22.331701 7.284021
196.074036 244.941696 -22.331701 8.098495
209.557312 244.941696 -22.331701 7.842609
223.040588 244.941696 -22.331701 6.440943
236.523926 244.941696 -22.331701 4.240234
250.007202 244.941696 -22.331701 2.532344
263.490540 244.941696 -22.331701 1.676520
276.973816 244.941696 -22.331701 1.521591
290.457092 244.941696 -22.331701 1.604051
303.940430 244.941696 -22.331701 1.638649
317.423706 244.941696 -22.331701 1.861824
330.907043 244.941696 -22.331701 0.000000
344.390320 244.941696 -22.331701 0.000000
-343.257996 231.458389 -22.331701 0.000000
-329.774689 231.458389 -22.331701 0.000000
-316.291382 231.458389 -22.331701 1.039709
-302.808105 231.458389 -22.331701 0.997623
-289.324799 231.458389 -22.331701 1.132063
-275.841492 231.458389 -22.331701 1.228825
-262.358185 231.458389 -22.331701 1.477502
-248.874893 231.458389 -22.331701 1.928842
-235.391602 231.458389 -22.331701 2.564873
-221.908295 231.458389 -22.331701 3.637239
-208.424988 231.458389 -22.331701 4.437636
-194.941696 231.458389 -22.331701 5.569256
-181.458389 231.458389 -22.331701 6.096505
-167.975098 231.458389 -22.331701 5.786592
-154.491791 231.458389 -22.331701 5.616894
-141.008499 231.458389 -22.331701 5.258404
-127.525192 231.458389 -22.331701 5.519596
-114.041885 231.458389 -22.331701 5.661485
-100.558594 231.458389 -22.331701 5.665206
-87.075287 231.458389 -22.331701 5.236036
-73.591980 231.458389 -22.331701 4.906240
-60.108704 231.458389 -22.331701 4.704173
-46.625397 231.458389 -22.331701 4.558464
-33.142090 231.458389 -22.331701 5.130105
-19.658783 231.458389 -22.331701 5.057923
-6.175476 231.458389 -22.331701 5.233360
7.307800 231.458389 -22.331701 4.919134
20.791107 231.458389 -22.331701 4.822294
34.274414 231.458389 -22.331701 4.384714
47.757721 231.458389 -22.331701 4.747472
61.240997 231.458389 -22.331701 4.524200
74.724304 231.458389 -22.331701 4.596479
88.207611 231.458389 -22.331701 4.774949
101.690918 231.458389 -22.331701 4.888843
115.174225 231.458389 -22.331701 4.669759
128.657501 231.458389 -22.331701 4.998444
142.140808 231.458389 -22.331701 5.215016
155.624115 231.458389 -22.331701 5.492109
169.107422 231.458389 -22.331701 5.771261
182.590698 231.458389 -22.331701 6.268881
196.074036 231.458389 -22.331701 7.762554
209.557312 231.458389 -22.331701 7.570539
223.040588 231.458389 -22.331701 5.836653
236.523926 231.458389 -22.331701 3.940495
250.007202 231.458389 -22.331701 2.288326
263.490540 231.458389 -22.331701 1.426835
276.973816 231.458389 -22.331701 1.243437
290.457092 231.458389 -22.331701 1.224026
303.940430 231.458389 -22.331701 1.118121
317.423706 231.458389 -22.331701 1.247233
330.907043 231.458389 -22.331701 0.000000
344.390320 231.458389 -22.331701 0.000000
-343.257996 217.975098 -22.331701 0.000000
-329.774689 217.975098 -22.331701 0.000000
-316.291382 217.975098 -22.331701 0.959945
-302.808105 217.975098 -22.331701 1.102548
-289.324799 217.975098 -22.331701 1.227031
-275.841492 217.975098 -22.331701 1.483766
-262.358185 217.975098 -22.331701 1.708529
-248.874893 217.975098 -22.331701 2.233619
-235.391602 217.975098 -22.331701 2.848319
-221.908295 217.975098 -22.331701 3.936120
-208.424988 217.975098 -22.331701 4.761624
-194.941696 217.975098 -22.331701 5.657669
-181.458389 217.975098 -22.331701 5.871401
-167.975098 217.975098 -22.331701 5.331141
-154.491791 217.975098 -22.331701 5.200321
-141.008499 217.975098 -22.331701 5.226900
-127.525192 217.975098 -22.331701 5.474891
-114.041885 217.975098 -22.331701 5.441271
-100.558594 217.975098 -22.331701 5.564402
-87.075287 217.975098 -22.331701 5.019470
-73.591980 217.975098 -22.331701 4.803961
-60.108704 217.975098 -22.331701 4.692446
-46.625397 217.975098 -22.331701 4.950222
-33.142090 217.975098 -22.331701 4.843479
-19.658783 217.975098 -22.331701 4.789126
-6.175476 217.975098 -22.331701 4.554912
7.307800 217.975098 -22.331701 4.397754
20.791107 217.975098 -22.331701 4.456625
34.274414 217.975098 -22.331701 4.379034
47.757721 217.975098 -22.331701 4.554574
61.240997 217.975098 -22.331701 4.573975
74.724304 217.975098 -22.331701 4.501198
88.207611 217.975098 -22.331701 4.991817
101.690918 217.975098 -22.331701 4.790978
115.174225 217.975098 -22.331701 4.954685
128.657501 217.975098 -22.331701 4.996103
142.140808 217.975098 -22.331701 4.954436
155.624115 217.975098 -22.331701 5.219932
169.107422 217.975098 -22.331701 5.304002
182.590698 217.975098 -22.331701 6.305348
196.074036 217.975098 -22.331701 6.821899
209.557312 217.975098 -22.331701 6.642459
223.040588 217.975098 -22.331701 5.015263
236.523926 217.975098 -22.331701 3.477045
250.007202 217.975098 -22.331701 1.931811
263.490540 217.975098 -22.331701 1.325785
276.973816 217.975098 -22.331701 1.096349
290.457092 217.975098 -22.331701 0.933258
303.940430 217.975098 -22.331701 0.870121
317.423706 217.975098 -22.331701 0.936876
330.907043 217.975098 -22.331701 0.000000
344.390320 217.975098 -22.331701 0.000000
-343.257996 204.491791 -22.331701 0.000000
-329.774689 204.491791 -22.331701 0.000000
-316.291382 204.491791 -22.331701 1.155532
-302.808105 204.491791 -22.331701 1.121906
-289.324799 204.491791 -22.331701 1.404443
-275.841492 204.491791 -22.331701 1.598540
-262.358185 204.491791 -22.331701 1.940431
-248.874893 204.491791 -22.331701 2.437997
-235.391602 204.491791 -22.331701 3.069028
-221.908295 204.491791 -22.331701 3.885580
-208.424988 204.491791 -22.331701 4.479841
-194.941696 204.491791 -22.331701 4.934066
-181.458389 204.491791 -22.331701 5.538079
-167.975098 204.491791 -22.331701 5.464285
-154.491791 204.491791 -22.331701 5.177032
-141.008499 204.491791 -22.331701 5.570498
-127.525192 204.491791 -22.331701 5.745512
-114.041885 204.491791 -22.331701 5.765604
-100.558594 204.491791 -22.331701 5.859341
-87.075287 204.491791 -22.331701 5.930395
-73.591980 204.491791 -22.331701 5.521131
-60.108704 204.491791 -22.331701 4.942680
-46.625397 204.491791 -22.331701 4.797308
-33.142090 204.491791 -22.331701 4.833777
-19.658783 204.491791 -22.331701 4.581765
-6.175476 204.491791 -22.331701 4.022172
7.307800 204.491791 -22.331701 4.299331
20.791107 204.491791 -22.331701 5.069821
34.274414 204.491791 -22.331701 4.900119
47.757721 204.491791 -22.331701 5.035141
61.240997 204.491791 -22.331701 4.774157
74.724304 204.491791 -22.331701 5.143798
88.207611 204.491791 -22.331701 5.013716
101.690918 204.491791 -22.331701 4.859466
115.174225 204.491791 -22.331701 5.356015
128.657501 204.491791 -22.331701 5.188060
142.140808 204.491791 -22.331701 4.720611
155.624115 204.491791 -22.331701 4.657804
169.107422 204.491791 -22.331701 5.315592
182.590698 204.491791 -22.331701 6.064885
196.074036 204.491791 -22.331701 6.289512
209.557312 204.491791 -22.331701 5.778031
223.040588 204.491791 -22.331701 4.189476
236.523926 204.491791 -22.331701 2.673701
250.007202 204.491791 -22.331701 1.727812
263.490540 204.491791 -22.331701 1.139632
276.973816 204.491791 -22.331701 0.912946
290.457092 204.491791 -22.331701 0.792789
303.940430 204.491791 -22.331701 0.713193
317.423706 204.491791 -22.331701 0.728069
330.907043 204.491791 -22.331701 0.000000
344.390320 204.491791 -22.331701 0.000000
-343.257996 191.008499 -22.331701 0.000000
-329.774689 191.008499 -22.331701 0.000000
-316.291382 191.008499 -22.331701 1.230086
-302.808105 191.008499 -22.331701 1.211975
-289.324799 191.008499 -22.331701 1.387062
-275.841492 191.008499 -22.331701 1.699805
-262.358185 191.008499 -22.331701 2.323418
-248.874893 191.008499 -22.331701 2.839368
-235.391602 191.008499 -22.331701 3.512407
-221.908295 191.008499 -22.331701 4.139387
-208.424988 191.008499 -22.331701 4.537179
-194.941696 191.008499 -22.331701 5.116957
-181.458389 191.008499 -22.331701 5.292982
-167.975098 191.008499 -22.331701 5.477030
-154.491791 191.008499 -22.331701 5.419988
-141.008499 191.008499 -22.331701 6.006310
-127.525192 191.008499 -22.331701 5.887869
-114.041885 191.008499 -22.331701 6.467690
-100.558594 191.008499 -22.331701 6.295277
-87.075287 191.008499 -22.331701 6.606697
-73.591980 191.008499 -22.331701 6.082756
-60.108704 191.008499 -22.331701 5.543381
-46.625397 191.008499 -22.331701 4.918321
-33.142090 191.008499 -22.331701 4.753794
-19.658783 191.008499 -22.331701 4.313853
-6.175476 191.008499 -22.331701 4.450123
7.307800 191.008499 -22.331701 4.570683
20.791107 191.008499 -22.331701 4.733994
34.274414 191.008499 -22.331701 4.911790
47.757721 191.008499 -22.331701 5.154152
61.240997 191.008499 -22.331701 5.136165
74.724304 191.008499 -22.331701 5.112794
88.207611 191.008499 -22.331701 5.038391
101.690918 191.008499 -22.331701 4.745759
115.174225 191.008499 -22.331701 5.305521
128.657501 191.008499 -22.331701 4.818604
142.140808 191.008499 -22.331701 4.653317
155.624115 191.008499 -22.331701 4.555501
169.107422 191.008499 -22.331701 5.103506
182.590698 191.008499 -22.331701 5.816587
196.074036 191.008499 -22.331701 5.618810
209.557312 191.008499 -22.331701 4.913077
223.040588 191.008499 -22.331701 3.171752
236.523926 191.008499 -22.331701 2.041091
250.007202 191.008499 -22.331701 1.332968
263.490540 191.008499 -22.331701 1.011023
276.973816 191.008499 -22.331701 0.865962
290.457092 191.008499 -22.331701 0.763687
303.940430 191.008499 -22.331701 0.739586
317.423706 191.008499 -22.331701 0.745807
330.907043 191.008499 -22.331701 0.000000
344.390320 191.008499 -22.331701 0.000000
-343.257996 177.525192 -22.331701 0.000000
-329.774689 177.525192 -22.331701 0.000000
-316.291382 177.525192 -22.331701 1.435178
-302.808105 177.525192 -22.331701 1.589763
-289.324799 177.525192 -22.331701 1.640169
-275.841492 177.525192 -22.331701 1.926657
-262.358185 177.525192 -22.331701 2.543987
-248.874893 177.525192 -22.331701 3.115190
-235.391602 177.525192 -22.331701 3.705255
-221.908295 177.525192 -22.331701 4.175197
-208.424988 177.525192 -22.331701 4.642455
-194.941696 177.525192 -22.331701 5.369521
-181.458389 177.525192 -22.331701 5.333445
-167.975098 177.525192 -22.331701 5.527827
-154.491791 177.525192 -22.331701 5.954083
-141.008499 177.525192 -22.331701 6.002365
-127.525192 177.525192 -22.331701 6.633715
-114.041885 177.525192 -22.331701 6.590207
-100.558594 177.525192 -22.331701 7.051424
-87.075287 177.525192 -22.331701 7.025126
-73.591980 177.525192 -22.331701 6.665625
-60.108704 177.525192 -22.331701 5.479988
-46.625397 177.525192 -22.331701 4.877046
-33.142090 177.525192 -22.331701 4.818716
-19.658783 177.525192 -22.331701 4.013414
-6.175476 177.525192 -22.331701 4.043731
7.307800 177.525192 -22.331701 4.309173
20.791107 177.525192 -22.331701 4.475101
34.274414 177.525192 -22.331701 4.817966
47.757721 177.525192 -22.331701 5.034797
61.240997 177.525192 -22.331701 5.079844
74.724304 177.525192 -22.331701 4.989143
88.207611 177.525192 -22.331701 4.920526
101.690918 177.525192 -22.331701 5.170727
115.174225 177.525192 -22.331701 4.860221
128.657501 177.525192 -22.331701 4.430634
142.140808 177.525192 -22.331701 4.669307
155.624115 177.525192 -22.331701 4.698392
169.107422 177.525192 -22.331701 5.059192
182.590698 177.525192 -22.331701 4.763899
196.074036 177.525192 -22.331701 4.656204
209.557312 177.525192 -22.331701 3.817167
223.040588 177.525192 -22.331701 2.556053
236.523926 177.525192 -22.331701 1.721002
250.007202 177.525192 -22.331701 1.074775
263.490540 177.525192 -22.331701 0.848611
276.973816 177.525192 -22.331701 0.753244
290.457092 177.525192 -22.331701 0.756256
303.940430 177.525192 -22.331701 0.636244
317.423706 177.525192 -22.331701 0.628962
330.907043 177.525192 -22.331701 0.000000
344.390320 177.525192 -22.331701 0.000000
-343.257996 164.041885 -22.331701 0.000000
-329.774689 164.041885 -22.331701 0.000000
-316.291382 164.041885 -22.331701 1.718373
-302.808105 164.041885 -22.331701 1.848713
-289.324799 164.041885 -22.331701 1.969360
-275.841492 164.041885 -22.331701 2.229941
-262.358185 164.041885 -22.331701 2.856099
-248.874893 164.041885 -22.331701 3.495184
-235.391602 164.041885 -22.331701 3.902587
-221.908295 164.041885 -22.331701 4.444065
-208.424988 164.041885 -22.331701 4.634363
-194.941696 164.041885 -22.331701 5.239271
-181.458389 164.041885 -22.331701 5.598581
-167.975098 164.041885 -22.331701 5.541645
-154.491791 164.041885 -22.331701 5.686454
-141.008499 164.041885 -22.331701 6.523436
-127.525192 164.041885 -22.331701 6.986318
-114.041885 164.041885 -22.331701 6.827920
-100.558594 164.041885 -22.331701 7.174924
-87.075287 164.041885 -22.331701 7.126316
-73.591980 164.041885 -22.331701 7.064858
-60.108704 164.041885 -22.331701 5.993449
-46.625397 164.041885 -22.331701 5.151881
-33.142090 164.041885 -22.331701 4.399925
-19.658783 164.041885 -22.331701 4.017769
-6.175476 164.041885 -22.331701 4.239423
7.307800 164.041885 -22.331701 4.414905
20.791107 164.041885 -22.331701 4.732256
34.274414 164.041885 -22.331701 4.735861
47.757721 164.041885 -22.331701 4.759163
61.240997 164.041885 -22.331701 5.229804
74.724304 164.041885 -22.331701 5.197946
88.207611 164.041885 -22.331701 4.744983
101.690918 164.041885 -22.331701 4.846289
115.174225 164.041885 -22.331701 4.314441
128.657501 164.041885 -22.331701 4.260054
142.140808 164.041885 -22.331701 4.314717
155.624115 164.041885 -22.331701 4.567506
169.107422 164.041885 -22.331701 4.520076
182.590698 164.041885 -22.331701 4.204363
196.074036 164.041885 -22.331701 3.661191
209.557312 164.041885 -22.331701 2.799321
223.040588 164.041885 -22.331701 1.870782
236.523926 164.041885 -22.331701 1.220720
250.007202 164.041885 -22.331701 0.882066
263.490540 164.041885 -22.331701 0.735125
276.973816 164.041885 -22.331701 0.683844
290.457092 164.041885 -22.331701 0.641473
303.940430 164.041885 -22.331701 0.554732
317.423706 164.041885 -22.331701 0.517529
330.907043 164.041885 -22.331701 0.000000
344.390320 164.041885 -22.331701 0.000000
-343.257996 150.558594 -22.331701 0.000000
-329.774689 150.558594 -22.331701 0.000000
-316.291382 150.558594 -22.331701 2.227956
-302.808105 150.558594 -22.331701 2.193004
-289.324799 150.558594 -22.331701 2.425933
-275.841492 150.558594 -22.331701 2.564151
-262.358185 150.558594 -22.331701 3.252912
-248.874893 150.558594 -22.331701 3.781431
-235.391602 150.558594 -22.331701 4.337159
-221.908295 150.558594 -22.331701 4.675829
-208.424988 150.558594 -22.331701 4.958224
-194.941696 150.558594 -22.331701 5.442555
-181.458389 150.558594 -22.331701 5.770816
-167.975098 150.558594 -22.331701 5.827965
-154.491791 150.558594 -22.331701 6.407133
-141.008499 150.558594 -22.331701 6.833718
-127.525192 150.558594 -22.331701 7.222727
-114.041885 150.558594 -22.331701 7.269682
-100.558594 150.558594 -22.331701 7.305167
-87.075287 150.558594 -22.331701 7.301117
-73.591980 150.558594 -22.331701 6.822577
-60.108704 150.558594 -22.331701 5.855721
-46.625397 150.558594 -22.331701 5.197244
-33.142090 150.558594 -22.331701 4.507456
-19.658783 150.558594 -22.331701 4.265771
-6.175476 150.558594 -22.331701 4.286366
7.307800 150.558594 -22.331701 4.530551
20.791107 150.558594 -22.331701 4.817366
34.274414 150.558594 -22.331701 5.086324
47.757721 150.558594 -22.331701 5.176329
61.240997 150.558594 -22.331701 5.329930
74.724304 150.558594 -22.331701 5.422791
88.207611 150.558594 -22.331701 5.021604
101.690918 150.558594 -22.331701 4.500122
115.174225 150.558594 -22.331701 4.026203
128.657501 150.558594 -22.331701 4.242579
142.140808 150.558594 -22.331701 4.201921
155.624115 150.558594 -22.331701 4.043032
169.107422 150.558594 -22.331701 3.870809
182.590698 150.558594 -22.331701 3.544349
196.074036 150.558594 -22.331701 3.069647
209.557312 150.558594 -22.331701 2.173800
223.040588 150.558594 -22.331701 1.421546
236.523926 150.558594 -22.331701 1.038110
250.007202 150.558594 -22.331701 0.769999
263.490540 150.558594 -22.331701 0.637253
276.973816 150.558594 -22.331701 0.596270
290.457092 150.558594 -22.331701 0.507014
303.940430 150.558594 -22.331701 0.460420
317.423706 150.558594 -22.331701 0.461020
330.907043 150.558594 -22.331701 0.000000
344.390320 150.558594 -22.331701 0.000000
-343.257996 137.075287 -22.331701 0.000000
-329.774689 137.075287 -22.331701 0.000000
-316.291382 137.075287 -22.331701 2.728388
-302.808105 137.075287 -22.331701 2.738964
-289.324799 137.075287 -22.331701 2.639896
-275.841492 137.075287 -22.331701 2.948938
-262.358185 137.075287 -22.331701 3.467060
-248.874893 137.075287 -22.331701 4.212466
-235.391602 137.075287 -22.331701 4.773268
-221.908295 137.075287 -22.331701 4.965262
-208.424988 137.075287 -22.331701 5.235212
-194.941696 137.075287 -22.331701 5.700056
-181.458389 137.075287 -22.331701 6.053317
-167.975098 137.075287 -22.331701 6.664530
-154.491791 137.075287 -22.331701 6.801734
-141.008499 137.075287 -22.331701 7.598041
-127.525192 137.075287 -22.331701 7.676642
-114.041885 137.075287 -22.331701 7.763773
-100.558594 137.075287 -22.331701 7.826894
-87.075287 137.075287 -22.331701 7.911330
-73.591980 137.075287 -22.331701 7.150650
-60.108704 137.075287 -22.331701 6.254355
-46.625397 137.075287 -22.331701 5.286939
-33.142090 137.075287 -22.331701 4.540035
-19.658783 137.075287 -22.331701 4.563922
-6.175476 137.075287 -22.331701 4.262348
7.307800 137.075287 -22.331701 4.469865
20.791107 137.075287 -22.331701 4.914087
34.274414 137.075287 -22.331701 5.480572
47.757721 137.075287 -22.331701 5.589678
61.240997 137.075287 -22.331701 5.526413
74.724304 137.075287 -22.331701 5.832042
88.207611 137.075287 -22.331701 5.632756
101.690918 137.075287 -22.331701 4.515900
115.174225 137.075287 -22.331701 4.126262
128.657501 137.075287 -22.331701 4.100724
142.140808 137.075287 -22.331701 4.066571
155.624115 137.075287 -22.331701 3.832213
169.107422 137.075287 -22.331701 3.453610
182.590698 137.075287 -22.331701 2.811077
196.074036 137.075287 -22.331701 2.360382
209.557312 137.075287 -22.331701 1.692397
223.040588 137.075287 -22.331701 1.232754
236.523926 137.075287 -22.331701 0.909576
250.007202 137.075287 -22.331701 0.681541
263.490540 137.075287 -22.331701 0.603654
276.973816 137.075287 -22.331701 0.516248
290.457092 137.075287 -22.331701 0.459870
303.940430 137.075287 -22.331701 0.429371
317.423706 137.075287 -22.331701 0.433526
330.907043 137.075287 -22.331701 0.000000
344.390320 137.075287 -22.331701 0.000000
-343.257996 123.591980 -22.331701 0.000000
-329.774689 123.591980 -22.331701 0.000000
-316.291382 123.591980 -22.331701 0.000000
-302.808105 123.591980 -22.331701 2.817994
-289.324799 123.591980 -22.331701 2.848386
-275.841492 123.591980 -22.331701 2.962637
-262.358185 123.591980 -22.331701 3.236518
-248.874893 123.591980 -22.331701 3.899908
-235.391602 123.591980 -22.331701 4.794558
-221.908295 123.591980 -22.331701 5.220475
-208.424988 123.591980 -22.331701 5.495755
-194.941696 123.591980 -22.331701 6.057884
-181.458389 123.591980 -22.331701 6.720438
-167.975098 123.591980 -22.331701 7.292916
-154.491791 123.591980 -22.331701 7.812507
-141.008499 123.591980 -22.331701 7.988976
-127.525192 123.591980 -22.331701 8.879337
-114.041885 123.591980 -22.331701 8.842853
-100.558594 123.591980 -22.331701 9.125897
-87.075287 123.591980 -22.331701 8.686881
-73.591980 123.591980 -22.331701 8.025000
-60.108704 123.591980 -22.331701 6.583134
-46.625397 123.591980 -22.331701 5.609994
-33.142090 123.591980 -22.331701 4.703679
-19.658783 123.591980 -22.331701 4.498918
-6.175476 123.591980 -22.331701 4.548042
7.307800 123.591980 -22.331701 4.468996
20.791107 123.591980 -22.331701 4.725533
34.274414 123.591980 -22.331701 5.539706
47.757721 123.591980 -22.331701 5.724963
61.240997 123.591980 -22.331701 6.067330
74.724304 123.591980 -22.331701 6.012418
88.207611 123.591980 -22.331701 5.635108
101.690918 123.591980 -22.331701 4.904149
115.174225 123.591980 -22.331701 4.370083
128.657501 123.591980 -22.331701 3.920824
142.140808 123.591980 -22.331701 3.695182
155.624115 123.591980 -22.331701 3.462581
169.107422 123.591980 -22.331701 3.190058
182.590698 123.591980 -22.331701 2.466807
196.074036 123.591980 -22.331701 1.726724
209.557312 123.591980 -22.331701 1.353906
223.040588 123.591980 -22.331701 1.054697
236.523926 123.591980 -22.331701 0.774837
250.007202 123.591980 -22.331701 0.637221
263.490540 123.591980 -22.331701 0.545730
276.973816 123.591980 -22.331701 0.469851
290.457092 123.591980 -22.331701 0.413736
303.940430 123.591980 -22.331701 0.389311
317.423706 123.591980 -22.331701 0.381848
330.907043 123.591980 -22.331701 0.000000
344.390320 123.591980 -22.331701 0.000000
-343.257996 110.108704 -22.331701 0.000000
-329.774689 110.108704 -22.331701 0.000000
-316.291382 110.108704 -22.331701 0.000000
-302.808105 110.108704 -22.331701 2.983931
-289.324799 110.108704 -22.331701 3.232891
-275.841492 110.108704 -22.331701 3.043159
-262.358185 110.108704 -22.331701 3.525437
-248.874893 110.108704 -22.331701 4.175189
-235.391602 110.108704 -22.331701 4.847107
-221.908295 110.108704 -22.331701 5.368417
-208.424988 110.108704 -22.331701 5.579919
-194.941696 110.108704 -22.331701 6.227180
-181.458389 110.108704 -22.331701 7.255162
-167.975098 110.108704 -22.331701 8.235112
-154.491791 110.108704 -22.331701 8.899354
-141.008499 110.108704 -22.331701 9.136427
-127.525192 110.108704 -22.331701 10.194391
-114.041885 110.108704 -22.331701 10.637945
-100.558594 110.108704 -22.331701 9.822484
-87.075287 110.108704 -22.331701 9.251780
-73.591980 110.108704 -22.331701 9.113367
-60.108704 110.108704 -22.331701 7.308936
-46.625397 110.108704 -22.331701 5.866715
-33.142090 110.108704 -22.331701 4.989782
-19.658783 110.108704 -22.331701 4.287054
-6.175476 110.108704 -22.331701 4.630260
7.307800 110.108704 -22.331701 4.592792
20.791107 110.108704 -22.331701 5.052524
34.274414 110.108704 -22.331701 5.931979
47.757721 110.108704 -22.331701 6.657275
61.240997 110.108704 -22.331701 6.656839
74.724304 110.108704 -22.331701 6.628115
88.207611 110.108704 -22.331701 6.662130
101.690918 110.108704 -22.331701 5.536710
115.174225 110.108704 -22.331701 4.746533
128.657501 110.108704 -22.331701 3.979955
142.140808 110.108704 -22.331701 3.720436
155.624115 110.108704 -22.331701 3.132402
169.107422 110.108704 -22.331701 2.671282
182.590698 110.108704 -22.331701 2.057747
196.074036 110.108704 -22.331701 1.552106
209.557312 110.108704 -22.331701 1.210298
223.040588 110.108704 -22.331701 0.907164
236.523926 110.108704 -22.331701 0.709639
250.007202 110.108704 -22.331701 0.575395
263.490540 110.108704 -22.331701 0.492319
276.973816 110.108704 -22.331701 0.402027
290.457092 110.108704 -22.331701 0.389199
303.940430 110.108704 -22.331701 0.389757
317.423706 110.108704 -22.331701 0.386881
330.907043 110.108704 -22.331701 0.000000
344.390320 110.108704 -22.331701 0.000000
-343.257996 96.625397 -22.331701 0.000000
-329.774689 96.625397 -22.331701 0.000000
-316.291382 96.625397 -22.331701 0.000000
-302.808105 96.625397 -22.331701 3.564692
-289.324799 96.625397 -22.331701 3.264022
-275.841492 96.625397 -22.331701 3.467094
-262.358185 96.625397 -22.331701 3.961680
-248.874893 96.625397 -22.331701 4.119940
-235.391602 96.625397 -22.331701 4.728317
-221.908295 96.625397 -22.331701 4.945412
-208.424988 96.625397 -22.331701 5.371265
-194.941696 96.625397 -22.331701 6.398424
-181.458389 96.625397 -22.331701 7.049209
-167.975098 96.625397 -22.331701 9.103360
-154.491791 96.625397 -22.331701 10.893650
-141.008499 96.625397 -22.331701 11.494701
-127.525192 96.625397 -22.331701 12.237444
-114.041885 96.625397 -22.331701 12.226452
-100.558594 96.625397 -22.331701 11.950296
-87.075287 96.625397 -22.331701 9.823532
-73.591980 96.625397 -22.331701 8.750547
-60.108704 96.625397 -22.331701 7.009763
-46.625397 96.625397 -22.331701 6.207443
-33.142090 96.625397 -22.331701 5.059779
-19.658783 96.625397 -22.331701 4.231912
-6.175476 96.625397 -22.331701 4.517370
7.307800 96.625397 -22.331701 4.572104
20.791107 96.625397 -22.331701 5.423318
34.274414 96.625397 -22.331701 6.319656
47.757721 96.625397 -22.331701 7.612191
61.240997 96.625397 -22.331701 7.586869
74.724304 96.625397 -22.331701 7.137910
88.207611 96.625397 -22.331701 7.564322
101.690918 96.625397 -22.331701 6.737625
115.174225 96.625397 -22.331701 5.333250
128.657501 96.625397 -22.331701 4.012949
142.140808 96.625397 -22.331701 3.611007
155.624115 96.625397 -22.331701 3.109333
169.107422 96.625397 -22.331701 2.589689
182.590698 96.625397 -22.331701 1.943809
196.074036 96.625397 -22.331701 1.426802
209.557312 96.625397 -22.331701 1.047499
223.040588 96.625397 -22.331701 0.850375
236.523926 96.625397 -22.331701 0.722640
250.007202 96.625397 -22.331701 0.563156
263.490540 96.625397 -22.331701 0.474499
276.973816 96.625397 -22.331701 0.400983
290.457092 96.625397 -22.331701 0.392389
303.940430 96.625397 -22.331701 0.392010
317.423706 96.625397 -22.331701 0.404682
330.907043 96.625397 -22.331701 0.000000
344.390320 96.625397 -22.331701 0.000000
-343.257996 83.142090 -22.331701 0.000000
-329.774689 83.142090 -22.331701 0.000000
-316.291382 83.142090 -22.331701 0.000000
-302.808105 83.142090 -22.331701 3.846737
-289.324799 83.142090 -22.331701 3.892534
-275.841492 83.142090 -22.331701 3.942530
-262.358185 83.142090 -22.331701 4.352262
-248.874893 83.142090 -22.331701 4.631555
-235.391602 83.142090 -22.331701 4.870276
-221.908295 83.142090 -22.331701 5.136512
-208.424988 83.142090 -22.331701 5.665605
-194.941696 83.142090 -22.331701 6.825419
-181.458389 83.142090 -22.331701 7.575993
-167.975098 83.142090 -22.331701 9.989226
-154.491791 83.142090 -22.331701 12.242532
-141.008499 83.142090 -22.331701 12.993743
-127.525192 83.142090 -22.331701 13.982418
-114.041885 83.142090 -22.331701 13.811325
-100.558594 83.142090 -22.331701 13.051995
-87.075287 83.142090 -22.331701 10.707048
-73.591980 83.142090 -22.331701 9.062744
-60.108704 83.142090 -22.331701 7.716816
-46.625397 83.142090 -22.331701 6.456880
-33.142090 83.142090 -22.331701 5.388813
-19.658783 83.142090 -22.331701 4.620937
-6.175476 83.142090 -22.331701 4.705620
7.307800 83.142090 -22.331701 5.072063
20.791107 83.142090 -22.331701 5.534793
34.274414 83.142090 -22.331701 6.347441
47.757721 83.142090 -22.331701 7.738402
61.240997 83.142090 -22.331701 8.012145
74.724304 83.142090 -22.331701 8.121181
88.207611 83.142090 -22.331701 8.844876
101.690918 83.142090 -22.331701 7.875414
115.174225 83.142090 -22.331701 6.716430
128.657501 83.142090 -22.331701 5.225550
142.140808 83.142090 -22.331701 4.132342
155.624115 83.142090 -22.331701 3.422311
169.107422 83.142090 -22.331701 2.706541
182.590698 83.142090 -22.331701 1.849118
196.074036 83.142090 -22.331701 1.432039
209.557312 83.142090 -22.331701 1.180327
223.040588 83.142090 -22.331701 0.978579
236.523926 83.142090 -22.331701 0.755313
250.007202 83.142090 -22.331701 0.605006
263.490540 83.142090 -22.331701 0.531226
276.973816 83.142090 -22.331701 0.447225
290.457092 83.142090 -22.331701 0.435271
303.940430 83.142090 -22.331701 0.430244
317.423706 83.142090 -22.331701 0.460139
330.907043 83.142090 -22.331701 0.000000
344.390320 83.142090 -22.331701 0.000000
-343.257996 69.658783 -22.331701 0.000000
-329.774689 69.658783 -22.331701 0.000000
-316.291382 69.658783 -22.331701 0.000000
-302.808105 69.658783 -22.331701 0.000000
-289.324799 69.658783 -22.331701 4.319941
-275.841492 69.658783 -22.331701 3.915280
-262.358185 69.658783 -22.331701 3.845634
-248.874893 69.658783 -22.331701 4.289632
-235.391602 69.658783 -22.331701 4.251886
-221.908295 69.658783 -22.331701 4.675168
-208.424988 69.658783 -22.331701 5.914129
-194.941696 69.658783 -22.331701 7.306129
-181.458389 69.658783 -22.331701 9.449868
-167.975098 69.658783 -22.331701 11.689718
-154.491791 69.658783 -22.331701 13.831703
-141.008499 69.658783 -22.331701 14.882423
-127.525192 69.658783 -22.331701 15.089535
-114.041885 69.658783 -22.331701 15.447455
-100.558594 69.658783 -22.331701 14.287176
-87.075287 69.658783 -22.331701 11.729012
-73.591980 69.658783 -22.331701 9.801086
-60.108704 69.658783 -22.331701 8.766768
-46.625397 69.658783 -22.331701 7.249255
-33.142090 69.658783 -22.331701 6.116626
-19.658783 69.658783 -22.331701 5.076102
-6.175476 69.658783 -22.331701 4.826030
7.307800 69.658783 -22.331701 5.043729
20.791107 69.658783 -22.331701 5.268504
34.274414 69.658783 -22.331701 6.021430
47.757721 69.658783 -22.331701 6.671106
61.240997 69.658783 -22.331701 8.229121
74.724304 69.658783 -22.331701 9.374465
88.207611 69.658783 -22.331701 9.439463
101.690918 69.658783 -22.331701 9.278221
115.174225 69.658783 -22.331701 8.078734
128.657501 69.658783 -22.331701 6.119235
142.140808 69.658783 -22.331701 4.789529
155.624115 69.658783 -22.331701 3.688785
169.107422 69.658783 -22.331701 3.064589
182.590698 69.658783 -22.331701 2.402134
196.074036 69.658783 -22.331701 1.710581
209.557312 69.658783 -22.331701 1.173138
223.040588 69.658783 -22.331701 1.029277
236.523926 69.658783 -22.331701 0.843099
250.007202 69.658783 -22.331701 0.703980
263.490540 69.658783 -22.331701 0.635489
276.973816 69.658783 -22.331701 0.551459
290.457092 69.658783 -22.331701 0.514655
303.940430 69.658783 -22.331701 0.532594
317.423706 69.658783 -22.331701 0.546435
330.907043 69.658783 -22.331701 0.000000
344.390320 69.658783 -22.331701 0.000000
-343.257996 56.175476 -22.331701 0.000000
-329.774689 56.175476 -22.331701 0.000000
-316.291382 56.175476 -22.331701 0.000000
-302.808105 56.175476 -22.331701 4.307937
-289.324799 56.175476 -22.331701 3.914454
-275.841492 56.175476 -22.331701 3.886469
-262.358185 56.175476 -22.331701 3.819934
-248.874893 56.175476 -22.331701 4.057585
-235.391602 56.175476 -22.331701 4.030106
-221.908295 56.175476 -22.331701 4.995995
-208.424988 56.175476 -22.331701 6.766298
-194.941696 56.175476 -22.331701 9.201948
-181.458389 56.175476 -22.331701 11.300036
-167.975098 56.175476 -22.331701 14.523152
-154.491791 56.175476 -22.331701 16.142662
-141.008499 56.175476 -22.331701 17.443899
-127.525192 56.175476 -22.331701 16.833107
-114.041885 56.175476 -22.331701 16.609186
-100.558594 56.175476 -22.331701 16.052231
-87.075287 56.175476 -22.331701 13.508630
-73.591980 56.175476 -22.331701 11.446461
-60.108704 56.175476 -22.331701 9.826837
-46.625397 56.175476 -22.331701 7.561905
-33.142090 56.175476 -22.331701 6.137687
-19.658783 56.175476 -22.331701 5.572644
-6.175476 56.175476 -22.331701 5.033598
7.307800 56.175476 -22.331701 5.003722
20.791107 56.175476 -22.331701 5.357586
34.274414 56.175476 -22.331701 5.472450
47.757721 56.175476 -22.331701 6.929129
61.240997 56.175476 -22.331701 7.953188
74.724304 56.175476 -22.331701 9.051940
88.207611 56.175476 -22.331701 9.317213
101.690918 56.175476 -22.331701 9.031707
115.174225 56.175476 -22.331701 8.300069
128.657501 56.175476 -22.331701 6.865431
142.140808 56.175476 -22.331701 5.476066
155.624115 56.175476 -22.331701 4.393776
169.107422 56.175476 -22.331701 3.483324
182.590698 56.175476 -22.331701 2.846724
196.074036 56.175476 -22.331701 1.964863
209.557312 56.175476 -22.331701 1.365017
223.040588 56.175476 -22.331701 1.145000
236.523926 56.175476 -22.331701 1.053241
250.007202 56.175476 -22.331701 0.843582
263.490540 56.175476 -22.331701 0.776907
276.973816 56.175476 -22.331701 0.676188
290.457092 56.175476 -22.331701 0.656674
303.940430 56.175476 -22.331701 0.672427
317.423706 56.175476 -22.331701 0.728156
330.907043 56.175476 -22.331701 0.000000
344.390320 56.175476 -22.331701 0.000000
-343.257996 42.692200 -22.331701 0.000000
-329.774689 42.692200 -22.331701 0.000000
-316.291382 42.692200 -22.331701 0.000000
-302.808105 42.692200 -22.331701 3.996751
-289.324799 42.692200 -22.331701 4.002997
-275.841492 42.692200 -22.331701 3.602645
-262.358185 42.692200 -22.331701 3.680237
-248.874893 42.692200 -22.331701 3.727399
-235.391602 42.692200 -22.331701 4.307076
-221.908295 42.692200 -22.331701 5.452350
-208.424988 42.692200 -22.331701 7.468392
-194.941696 42.692200 -22.331701 9.442948
-181.458389 42.692200 -22.331701 12.825281
-167.975098 42.692200 -22.331701 16.230082
-154.491791 42.692200 -22.331701 19.103996
-141.008499 42.692200 -22.331701 19.970209
-127.525192 42.692200 -22.331701 18.539352
-114.041885 42.692200 -22.331701 17.107025
-100.558594 42.692200 -22.331701 15.691826
-87.075287 42.692200 -22.331701 13.138902
-73.591980 42.692200 -22.331701 10.660935
-60.108704 42.692200 -22.331701 9.569147
-46.625397 42.692200 -22.331701 8.253414
-33.142090 42.692200 -22.331701 6.476983
-19.658783 42.692200 -22.331701 5.606098
-6.175476 42.692200 -22.331701 5.761550
7.307800 42.692200 -22.331701 5.536297
20.791107 42.692200 -22.331701 5.092477
34.274414 42.692200 -22.331701 5.515788
47.757721 42.692200 -22.331701 6.907021
61.240997 42.692200 -22.331701 7.373320
74.724304 42.692200 -22.331701 8.005458
88.207611 42.692200 -22.331701 9.279066
101.690918 42.692200 -22.331701 8.448976
115.174225 42.692200 -22.331701 7.806015
128.657501 42.692200 -22.331701 7.185862
142.140808 42.692200 -22.331701 6.196748
155.624115 42.692200 -22.331701 5.121609
169.107422 42.692200 -22.331701 4.213975
182.590698 42.692200 -22.331701 3.155513
196.074036 42.692200 -22.331701 2.223665
209.557312 42.692200 -22.331701 1.587286
223.040588 42.692200 -22.331701 1.404655
236.523926 42.692200 -22.331701 1.268844
250.007202 42.692200 -22.331701 1.001352
263.490540 42.692200 -22.331701 0.900361
276.973816 42.692200 -22.331701 0.909981
290.457092 42.692200 -22.331701 0.882540
303.940430 42.692200 -22.331701 0.872610
317.423706 42.692200 -22.331701 0.903726
330.907043 42.692200 -22.331701 0.000000
344.390320 42.692200 -22.331701 0.000000
-343.257996 29.208893 -22.331701 0.000000
-329.774689 29.208893 -22.331701 0.000000
-316.291382 29.208893 -22.331701 0.000000
-302.808105 29.208893 -22.331701 4.033936
-289.324799 29.208893 -22.331701 3.691184
-275.841492 29.208893 -22.331701 3.882561
-262.358185 29.208893 -22.331701 3.831829
-248.874893 29.208893 -22.331701 3.987014
-235.391602 29.208893 -22.331701 4.224765
-221.908295 29.208893 -22.331701 5.279856
-208.424988 29.208893 -22.331701 7.947546
-194.941696 29.208893 -22.331701 10.560203
-181.458389 29.208893 -22.331701 13.873349
-167.975098 29.208893 -22.331701 18.772594
-154.491791 29.208893 -22.331701 20.298546
-141.008499 29.208893 -22.331701 21.903511
-127.525192 29.208893 -22.331701 20.316570
-114.041885 29.208893 -22.331701 18.696312
-100.558594 29.208893 -22.331701 16.099319
-87.075287 29.208893 -22.331701 14.078588
-73.591980 29.208893 -22.331701 11.168211
-60.108704 29.208893 -22.331701 8.445895
-46.625397 29.208893 -22.331701 7.531152
-33.142090 29.208893 -22.331701 6.582897
-19.658783 29.208893 -22.331701 5.411394
-6.175476 29.208893 -22.331701 5.421047
7.307800 29.208893 -22.331701 4.900578
20.791107 29.208893 -22.331701 4.829413
34.274414 29.208893 -22.331701 5.451025
47.757721 29.208893 -22.331701 5.781486
61.240997 29.208893 -22.331701 6.781295
74.724304 29.208893 -22.331701 7.742114
88.207611 29.208893 -22.331701 8.805387
101.690918 29.208893 -22.331701 8.729811
115.174225 29.208893 -22.331701 8.106915
128.657501 29.208893 -22.331701 7.135936
142.140808 29.208893 -22.331701 6.616985
155.624115 29.208893 -22.331701 5.847531
169.107422 29.208893 -22.331701 4.842102
182.590698 29.208893 -22.331701 3.582933
196.074036 29.208893 -22.331701 2.514626
209.557312 29.208893 -22.331701 1.892781
223.040588 29.208893 -22.331701 1.512432
236.523926 29.208893 -22.331701 1.412899
250.007202 29.208893 -22.331701 1.308792
263.490540 29.208893 -22.331701 1.140198
276.973816 29.208893 -22.331701 1.062599
290.457092 29.208893 -22.331701 0.982976
303.940430 29.208893 -22.331701 1.001351
317.423706 29.208893 -22.331701 1.129284
330.907043 29.208893 -22.331701 0.000000
344.390320 29.208893 -22.331701 0.000000
-343.257996 15.725586 -22.331701 0.000000
-329.774689 15.725586 -22.331701 0.000000
-316.291382 15.725586 -22.331701 2.813215
-302.808105 15.725586 -22.331701 3.282325
-289.324799 15.725586 -22.331701 3.223727
-275.841492 15.725586 -22.331701 3.584825
-262.358185 15.725586 -22.331701 3.709584
-248.874893 15.725586 -22.331701 4.007313
-235.391602 15.725586 -22.331701 3.672048
-221.908295 15.725586 -22.331701 4.467833
-208.424988 15.725586 -22.331701 7.240642
-194.941696 15.725586 -22.331701 10.590491
-181.458389 15.725586 -22.331701 15.348933
-167.975098 15.725586 -22.331701 18.895538
-154.491791 15.725586 -22.331701 22.739075
-141.008499 15.725586 -22.331701 23.637440
-127.525192 15.725586 -22.331701 21.561449
-114.041885 15.725586 -22.331701 19.436460
-100.558594 15.725586 -22.331701 16.052025
-87.075287 15.725586 -22.331701 14.241938
-73.591980 15.725586 -22.331701 12.085186
-60.108704 15.725586 -22.331701 8.958946
-46.625397 15.725586 -22.331701 7.695033
-33.142090 15.725586 -22.331701 6.529031
-19.658783 15.725586 -22.331701 5.706157
-6.175476 15.725586 -22.331701 5.224067
7.307800 15.725586 -22.331701 4.845224
20.791107 15.725586 -22.331701 4.751255
34.274414 15.725586 -22.331701 5.100900
47.757721 15.725586 -22.331701 5.873106
61.240997 15.725586 -22.331701 7.113595
74.724304 15.725586 -22.331701 8.278011
88.207611 15.725586 -22.331701 8.564694
101.690918 15.725586 -22.331701 8.515956
115.174225 15.725586 -22.331701 8.377565
128.657501 15.725586 -22.331701 7.488758
142.140808 15.725586 -22.331701 6.660775
155.624115 15.725586 -22.331701 5.928956
169.107422 15.725586 -22.331701 4.967851
182.590698 15.725586 -22.331701 3.518237
196.074036 15.725586 -22.331701 2.924403
209.557312 15.725586 -22.331701 2.147701
223.040588 15.725586 -22.331701 1.839903
236.523926 15.725586 -22.331701 1.731489
250.007202 15.725586 -22.331701 1.533859
263.490540 15.725586 -22.331701 1.280189
276.973816 15.725586 -22.331701 1.304869
290.457092 15.725586 -22.331701 0.999648
303.940430 15.725586 -22.331701 1.196936
317.423706 15.725586 -22.331701 1.345637
330.907043 15.725586 -22.331701 0.000000
344.390320 15.725586 -22.331701 0.000000
-343.257996 2.242279 -22.331701 0.000000
-329.774689 2.242279 -22.331701 0.000000
-316.291382 2.242279 -22.331701 3.199348
-302.808105 2.242279 -22.331701 2.824180
-289.324799 2.242279 -22.331701 3.058234
-275.841492 2.242279 -22.331701 3.130853
-262.358185 2.242279 -22.331701 3.588816
-248.874893 2.242279 -22.331701 4.677474
-235.391602 2.242279 -22.331701 4.199980
-221.908295 2.242279 -22.331701 6.158275
-208.424988 2.242279 -22.331701 7.440275
-194.941696 2.242279 -22.331701 11.810909
-181.458389 2.242279 -22.331701 15.764186
-167.975098 2.242279 -22.331701 19.734745
-154.491791 2.242279 -22.331701 23.656410
-141.008499 2.242279 -22.331701 24.690302
-127.525192 2.242279 -22.331701 23.681898
-114.041885 2.242279 -22.331701 19.707232
-100.558594 2.242279 -22.331701 17.257978
-87.075287 2.242279 -22.331701 14.263946
-73.591980 2.242279 -22.331701 11.838066
-60.108704 2.242279 -22.331701 9.871205
-46.625397 2.242279 -22.331701 8.460739
-33.142090 2.242279 -22.331701 6.856791
-19.658783 2.242279 -22.331701 5.531376
-6.175476 2.242279 -22.331701 5.303707
7.307800 2.242279 -22.331701 5.027040
20.791107 2.242279 -22.331701 4.967331
34.274414 2.242279 -22.331701 5.532144
47.757721 2.242279 -22.331701 6.182163
61.240997 2.242279 -22.331701 7.481519
74.724304 2.242279 -22.331701 8.533909
88.207611 2.242279 -22.331701 9.056430
101.690918 2.242279 -22.331701 8.582299
115.174225 2.242279 -22.331701 8.481354
128.657501 2.242279 -22.331701 7.543149
142.140808 2.242279 -22.331701 6.502387
155.624115 2.242279 -22.331701 5.676459
169.107422 2.242279 -22.331701 4.805842
182.590698 2.242279 -22.331701 3.824557
196.074036 2.242279 -22.331701 3.188464
209.557312 2.242279 -22.331701 2.560862
223.040588 2.242279 -22.331701 2.008318
236.523926 2.242279 -22.331701 2.061806
250.007202 2.242279 -22.331701 1.741248
263.490540 2.242279 -22.331701 1.588203
276.973816 2.242279 -22.331701 1.308222
290.457092 2.242279 -22.331701 1.246306
303.940430 2.242279 -22.331701 1.414908
317.423706 2.242279 -22.331701 1.222920
330.907043 2.242279 -22.331701 0.000000
344.390320 2.242279 -22.331701 0.000000
-343.257996 -11.240997 -22.331701 0.000000
-329.774689 -11.240997 -22.331701 0.000000
-316.291382 -11.240997 -22.331701 2.942159
-302.808105 -11.240997 -22.331701 2.585219
-289.324799 -11.240997 -22.331701 2.840977
-275.841492 -11.240997 -22.331701 2.796976
-262.358185 -11.240997 -22.331701 2.778084
-248.874893 -11.240997 -22.331701 3.930547
-235.391602 -11.240997 -22.331701 5.166672
-221.908295 -11.240997 -22.331701 6.484197
-208.424988 -11.240997 -22.331701 8.982399
-194.941696 -11.240997 -22.331701 12.574376
-181.458389 -11.240997 -22.331701 16.107521
-167.975098 -11.240997 -22.331701 19.645323
-154.491791 -11.240997 -22.331701 23.096224
-141.008499 -11.240997 -22.331701 24.110649
-127.525192 -11.240997 -22.331701 23.240118
-114.041885 -11.240997 -22.331701 20.765566
-100.558594 -11.240997 -22.331701 18.203306
-87.075287 -11.240997 -22.331701 14.675004
-73.591980 -11.240997 -22.331701 12.709819
-60.108704 -11.240997 -22.331701 10.965323
-46.625397 -11.240997 -22.331701 8.565935
-33.142090 -11.240997 -22.331701 7.090024
-19.658783 -11.240997 -22.331701 6.096866
-6.175476 -11.240997 -22.331701 5.911749
7.307800 -11.240997 -22.331701 5.416828
20.791107 -11.240997 -22.331701 6.119093
34.274414 -11.240997 -22.331701 6.131914
47.757721 -11.240997 -22.331701 6.739926
61.240997 -11.240997 -22.331701 8.512114
74.724304 -11.240997 -22.331701 9.436740
88.207611 -11.240997 -22.331701 10.135154
101.690918 -11.240997 -22.331701 9.185347
115.174225 -11.240997 -22.331701 8.744937
128.657501 -11.240997 -22.331701 7.595376
142.140808 -11.240997 -22.331701 6.236076
155.624115 -11.240997 -22.331701 5.525674
169.107422 -11.240997 -22.331701 4.778328
182.590698 -11.240997 -22.331701 3.899612
196.074036 -11.240997 -22.331701 3.361049
209.557312 -11.240997 -22.331701 2.913611
223.040588 -11.240997 -22.331701 2.302062
236.523926 -11.240997 -22.331701 1.864908
250.007202 -11.240997 -22.331701 1.963706
263.490540 -11.240997 -22.331701 1.802075
276.973816 -11.240997 -22.331701 1.633757
290.457092 -11.240997 -22.331701 1.549734
303.940430 -11.240997 -22.331701 2.135190
317.423706 -11.240997 -22.331701 1.904877
330.907043 -11.240997 -22.331701 0.000000
344.390320 -11.240997 -22.331701 0.000000
-343.257996 -24.724304 -22.331701 0.000000
-329.774689 -24.724304 -22.331701 0.000000
-316.291382 -24.724304 -22.331701 4.553642
-302.808105 -24.724304 -22.331701 3.899615
-289.324799 -24.724304 -22.331701 4.871893
-275.841492 -24.724304 -22.331701 4.765972
-262.358185 -24.724304 -22.331701 2.841779
-248.874893 -24.724304 -22.331701 3.794499
-235.391602 -24.724304 -22.331701 5.932556
-221.908295 -24.724304 -22.331701 8.035984
-208.424988 -24.724304 -22.331701 10.451584
-194.941696 -24.724304 -22.331701 13.809685
-181.458389 -24.724304 -22.331701 17.767864
-167.975098 -24.724304 -22.331701 20.860170
-154.491791 -24.724304 -22.331701 21.025684
-141.008499 -24.724304 -22.331701 21.671829
-127.525192 -24.724304 -22.331701 21.738272
-114.041885 -24.724304 -22.331701 22.066849
-100.558594 -24.724304 -22.331701 18.724321
-87.075287 -24.724304 -22.331701 15.573172
-73.591980 -24.724304 -22.331701 14.454863
-60.108704 -24.724304 -22.331701 11.218400
-46.625397 -24.724304 -22.331701 9.683223
-33.142090 -24.724304 -22.331701 8.289136
-19.658783 -24.724304 -22.331701 7.399178
-6.175476 -24.724304 -22.331701 6.488864
7.307800 -24.724304 -22.331701 6.150848
20.791107 -24.724304 -22.331701 6.683614
34.274414 -24.724304 -22.331701 7.547901
47.757721 -24.724304 -22.331701 9.031873
61.240997 -24.724304 -22.331701 10.575636
74.724304 -24.724304 -22.331701 11.497060
88.207611 -24.724304 -22.331701 11.130178
101.690918 -24.724304 -22.331701 10.339944
115.174225 -24.724304 -22.331701 7.982481
128.657501 -24.724304 -22.331701 6.876760
142.140808 -24.724304 -22.331701 5.877462
155.624115 -24.724304 -22.331701 5.323555
169.107422 -24.724304 -22.331701 4.505140
182.590698 -24.724304 -22.331701 3.717171
196.074036 -24.724304 -22.331701 2.895339
209.557312 -24.724304 -22.331701 2.515796
223.040588 -24.724304 -22.331701 2.262148
236.523926 -24.724304 -22.331701 1.924766
250.007202 -24.724304 -22.331701 2.073231
263.490540 -24.724304 -22.331701 2.165603
276.973816 -24.724304 -22.331701 2.306682
290.457092 -24.724304 -22.331701 2.149216
303.940430 -24.724304 -22.331701 2.240013
317.423706 -24.724304 -22.331701 0.908993
330.907043 -24.724304 -22.331701 0.000000
344.390320 -24.724304 -22.331701 0.000000
-343.257996 -38.207611 -22.331701 0.000000
-329.774689 -38.207611 -22.331701 0.000000
-316.291382 -38.207611 -22.331701 5.511751
-302.808105 -38.207611 -22.331701 5.079414
-289.324799 -38.207611 -22.331701 6.261493
-275.841492 -38.207611 -22.331701 3.735061
-262.358185 -38.207611 -22.331701 5.066189
-248.874893 -38.207611 -22.331701 5.247666
-235.391602 -38.207611 -22.331701 5.399414
-221.908295 -38.207611 -22.331701 9.268529
-208.424988 -38.207611 -22.331701 12.768632
-194.941696 -38.207611 -22.331701 15.198367
-181.458389 -38.207611 -22.331701 19.302145
-167.975098 -38.207611 -22.331701 20.793388
-154.491791 -38.207611 -22.331701 22.102291
-141.008499 -38.207611 -22.331701 20.708233
-127.525192 -38.207611 -22.331701 21.805779
-114.041885 -38.207611 -22.331701 19.579437
-100.558594 -38.207611 -22.331701 18.049585
-87.075287 -38.207611 -22.331701 16.195156
-73.591980 -38.207611 -22.331701 13.883761
-60.108704 -38.207611 -22.331701 11.746847
-46.625397 -38.207611 -22.331701 9.741707
-33.142090 -38.207611 -22.331701 8.630833
-19.658783 -38.207611 -22.331701 7.660011
-6.175476 -38.207611 -22.331701 7.682435
7.307800 -38.207611 -22.331701 7.481395
20.791107 -38.207611 -22.331701 7.922359
34.274414 -38.207611 -22.331701 9.028391
47.757721 -38.207611 -22.331701 10.830850
61.240997 -38.207611 -22.331701 11.724237
74.724304 -38.207611 -22.331701 12.504786
88.207611 -38.207611 -22.331701 11.282305
101.690918 -38.207611 -22.331701 9.781602
115.174225 -38.207611 -22.331701 7.698300
128.657501 -38.207611 -22.331701 6.890333
142.140808 -38.207611 -22.331701 5.383423
155.624115 -38.207611 -22.331701 4.860690
169.107422 -38.207611 -22.331701 4.117851
182.590698 -38.207611 -22.331701 3.756275
196.074036 -38.207611 -22.331701 2.818646
209.557312 -38.207611 -22.331701 2.436067
223.040588 -38.207611 -22.331701 2.306870
236.523926 -38.207611 -22.331701 2.102374
250.007202 -38.207611 -22.331701 2.206452
263.490540 -38.207611 -22.331701 2.564806
276.973816 -38.207611 -22.331701 2.084309
290.457092 -38.207611 -22.331701 2.464805
303.940430 -38.207611 -22.331701 1.235664
317.423706 -38.207611 -22.331701 0.982526
330.907043 -38.207611 -22.331701 0.000000
344.390320 -38.207611 -22.331701 0.000000
-343.257996 -51.690918 -22.331701 0.000000
-329.774689 -51.690918 -22.331701 0.000000
-316.291382 -51.690918 -22.331701 7.956103
-302.808105 -51.690918 -22.331701 9.188065
-289.324799 -51.690918 -22.331701 8.775276
-275.841492 -51.690918 -22.331701 5.697422
-262.358185 -51.690918 -22.331701 5.279486
-248.874893 -51.690918 -22.331701 7.477097
-235.391602 -51.690918 -22.331701 6.597692
-221.908295 -51.690918 -22.331701 10.567924
-208.424988 -51.690918 -22.331701 17.770586
-194.941696 -51.690918 -22.331701 19.077806
-181.458389 -51.690918 -22.331701 21.734928
-167.975098 -51.690918 -22.331701 22.738438
-154.491791 -51.690918 -22.331701 24.754879
-141.008499 -51.690918 -22.331701 22.765135
-127.525192 -51.690918 -22.331701 21.644459
-114.041885 -51.690918 -22.331701 20.219479
-100.558594 -51.690918 -22.331701 17.966164
-87.075287 -51.690918 -22.331701 16.174934
-73.591980 -51.690918 -22.331701 14.026281
-60.108704 -51.690918 -22.331701 12.391268
-46.625397 -51.690918 -22.331701 10.017301
-33.142090 -51.690918 -22.331701 8.829633
-19.658783 -51.690918 -22.331701 8.279426
-6.175476 -51.690918 -22.331701 9.094803
7.307800 -51.690918 -22.331701 9.047839
20.791107 -51.690918 -22.331701 9.342426
34.274414 -51.690918 -22.331701 10.968157
47.757721 -51.690918 -22.331701 11.495628
61.240997 -51.690918 -22.331701 11.388684
74.724304 -51.690918 -22.331701 11.235694
88.207611 -51.690918 -22.331701 9.713326
101.690918 -51.690918 -22.331701 7.776375
115.174225 -51.690918 -22.331701 7.146144
128.657501 -51.690918 -22.331701 6.011518
142.140808 -51.690918 -22.331701 4.990657
155.624115 -51.690918 -22.331701 4.383026
169.107422 -51.690918 -22.331701 3.882938
182.590698 -51.690918 -22.331701 3.800569
196.074036 -51.690918 -22.331701 3.005460
209.557312 -51.690918 -22.331701 2.605433
223.040588 -51.690918 -22.331701 2.512751
236.523926 -51.690918 -22.331701 2.496815
250.007202 -51.690918 -22.331701 2.221925
263.490540 -51.690918 -22.331701 2.741514
276.973816 -51.690918 -22.331701 2.702523
290.457092 -51.690918 -22.331701 2.951387
303.940430 -51.690918 -22.331701 2.991697
317.423706 -51.690918 -22.331701 2.498257
330.907043 -51.690918 -22.331701 0.000000
344.390320 -51.690918 -22.331701 0.000000
-343.257996 -65.174225 -22.331701 0.000000
-329.774689 -65.174225 -22.331701 0.000000
-316.291382 -65.174225 -22.331701 9.380927
-302.808105 -65.174225 -22.331701 8.197878
-289.324799 -65.174225 -22.331701 8.752076
-275.841492 -65.174225 -22.331701 6.973333
-262.358185 -65.174225 -22.331701 8.519371
-248.874893 -65.174225 -22.331701 9.683840
-235.391602 -65.174225 -22.331701 11.135312
-221.908295 -65.174225 -22.331701 14.319750
-208.424988 -65.174225 -22.331701 17.417315
-194.941696 -65.174225 -22.331701 26.420691
-181.458389 -65.174225 -22.331701 25.060995
-167.975098 -65.174225 -22.331701 26.761831
-154.491791 -65.174225 -22.331701 28.174446
-141.008499 -65.174225 -22.331701 24.853584
-127.525192 -65.174225 -22.331701 24.950123
-114.041885 -65.174225 -22.331701 23.349422
-100.558594 -65.174225 -22.331701 19.556465
-87.075287 -65.174225 -22.331701 15.959254
-73.591980 -65.174225 -22.331701 14.380939
-60.108704 -65.174225 -22.331701 13.124170
-46.625397 -65.174225 -22.331701 11.542468
-33.142090 -65.174225 -22.331701 10.332634
-19.658783 -65.174225 -22.331701 10.181811
-6.175476 -65.174225 -22.331701 10.663135
7.307800 -65.174225 -22.331701 10.597329
20.791107 -65.174225 -22.331701 10.512038
34.274414 -65.174225 -22.331701 12.603244
47.757721 -65.174225 -22.331701 11.781383
61.240997 -65.174225 -22.331701 10.710636
74.724304 -65.174225 -22.331701 9.227011
88.207611 -65.174225 -22.331701 8.500336
101.690918 -65.174225 -22.331701 6.960863
115.174225 -65.174225 -22.331701 6.009395
128.657501 -65.174225 -22.331701 5.084692
142.140808 -65.174225 -22.331701 4.544744
155.624115 -65.174225 -22.331701 4.064835
169.107422 -65.174225 -22.331701 3.890378
182.590698 -65.174225 -22.331701 3.549801
196.074036 -65.174225 -22.331701 3.055448
209.557312 -65.174225 -22.331701 2.967991
223.040588 -65.174225 -22.331701 2.763155
236.523926 -65.174225 -22.331701 3.011082
250.007202 -65.174225 -22.331701 2.911329
263.490540 -65.174225 -22.331701 3.115545
276.973816 -65.174225 -22.331701 3.451463
290.457092 -65.174225 -22.331701 3.646181
303.940430 -65.174225 -22.331701 4.355384
317.423706 -65.174225 -22.331701 2.222133
330.907043 -65.174225 -22.331701 0.000000
344.390320 -65.174225 -22.331701 0.000000
-343.257996 -78.657501 -22.331701 0.000000
-329.774689 -78.657501 -22.331701 0.000000
-316.291382 -78.657501 -22.331701 9.540779
-302.808105 -78.657501 -22.331701 10.719328
-289.324799 -78.657501 -22.331701 12.617393
-275.841492 -78.657501 -22.331701 12.993996
-262.358185 -78.657501 -22.331701 14.689347
-248.874893 -78.657501 -22.331701 16.266838
-235.391602 -78.657501 -22.331701 21.881365
-221.908295 -78.657501 -22.331701 25.993332
-208.424988 -78.657501 -22.331701 0.000000
-194.941696 -78.657501 -22.331701 0.000000
-181.458389 -78.657501 -22.331701 0.000000
-167.975098 -78.657501 -22.331701 37.325253
-154.491791 -78.657501 -22.331701 34.315063
-141.008499 -78.657501 -22.331701 29.583082
-127.525192 -78.657501 -22.331701 28.750309
-114.041885 -78.657501 -22.331701 26.133741
-100.558594 -78.657501 -22.331701 21.753891
-87.075287 -78.657501 -22.331701 17.981815
-73.591980 -78.657501 -22.331701 16.707199
-60.108704 -78.657501 -22.331701 14.586912
-46.625397 -78.657501 -22.331701 13.565498
-33.142090 -78.657501 -22.331701 11.213259
-19.658783 -78.657501 -22.331701 11.002533
-6.175476 -78.657501 -22.331701 11.427729
7.307800 -78.657501 -22.331701 11.928225
20.791107 -78.657501 -22.331701 11.657228
34.274414 -78.657501 -22.331701 12.643305
47.757721 -78.657501 -22.331701 10.819000
61.240997 -78.657501 -22.331701 8.652195
74.724304 -78.657501 -22.331701 7.529160
88.207611 -78.657501 -22.331701 6.710942
101.690918 -78.657501 -22.331701 5.590657
115.174225 -78.657501 -22.331701 4.846215
128.657501 -78.657501 -22.331701 4.447471
142.140808 -78.657501 -22.331701 4.189804
155.624115 -78.657501 -22.331701 3.999018
169.107422 -78.657501 -22.331701 3.817626
182.590698 -78.657501 -22.331701 3.541983
196.074036 -78.657501 -22.331701 3.282988
209.557312 -78.657501 -22.331701 3.249597
223.040588 -78.657501 -22.331701 3.306936
236.523926 -78.657501 -22.331701 3.788717
250.007202 -78.657501 -22.331701 3.571125
263.490540 -78.657501 -22.331701 3.523969
276.973816 -78.657501 -22.331701 4.396563
290.457092 -78.657501 -22.331701 4.993280
303.940430 -78.657501 -22.331701 4.699198
317.423706 -78.657501 -22.331701 3.288666
330.907043 -78.657501 -22.331701 0.000000
344.390320 -78.657501 -22.331701 0.000000
-343.257996 -92.140808 -22.331701 0.000000
-329.774689 -92.140808 -22.331701 0.000000
-316.291382 -92.140808 -22.331701 0.000000
-302.808105 -92.140808 -22.331701 16.805641
-289.324799 -92.140808 -22.331701 17.968828
-275.841492 -92.140808 -22.331701 22.333048
-262.358185 -92.140808 -22.331701 27.884586
-248.874893 -92.140808 -22.331701 30.014381
-235.391602 -92.140808 -22.331701 0.000000
-221.908295 -92.140808 -22.331701 0.000000
-208.424988 -92.140808 -22.331701 0.000000
-194.941696 -92.140808 -22.331701 0.000000
-181.458389 -92.140808 -22.331701 0.000000
-167.975098 -92.140808 -22.331701 0.000000
-154.491791 -92.140808 -22.331701 39.814873
-141.008499 -92.140808 -22.331701 35.757759
-127.525192 -92.140808 -22.331701 32.255241
-114.041885 -92.140808 -22.331701 30.896927
-100.558594 -92.140808 -22.331701 25.509195
-87.075287 -92.140808 -22.331701 20.656843
-73.591980 -92.140808 -22.331701 18.411068
-60.108704 -92.140808 -22.331701 17.577568
-46.625397 -92.140808 -22.331701 16.336784
-33.142090 -92.140808 -22.331701 14.587990
-19.658783 -92.140808 -22.331701 13.233701
-6.175476 -92.140808 -22.331701 13.377275
7.307800 -92.140808 -22.331701 12.970756
20.791107 -92.140808 -22.331701 12.638831
34.274414 -92.140808 -22.331701 10.931213
47.757721 -92.140808 -22.331701 9.450283
61.240997 -92.140808 -22.331701 7.568276
74.724304 -92.140808 -22.331701 6.208575
88.207611 -92.140808 -22.331701 5.210601
101.690918 -92.140808 -22.331701 4.834399
115.174225 -92.140808 -22.331701 4.231843
128.657501 -92.140808 -22.331701 4.438070
142.140808 -92.140808 -22.331701 4.527649
155.624115 -92.140808 -22.331701 4.344362
169.107422 -92.140808 -22.331701 4.347823
182.590698 -92.140808 -22.331701 4.408901
196.074036 -92.140808 -22.331701 3.952755
209.557312 -92.140808 -22.331701 3.766215
223.040588 -92.140808 -22.331701 4.139386
236.523926 -92.140808 -22.331701 4.012034
250.007202 -92.140808 -22.331701 4.652036
263.490540 -92.140808 -22.331701 5.473153
276.973816 -92.140808 -22.331701 4.971027
290.457092 -92.140808 -22.331701 5.052029
303.940430 -92.140808 -22.331701 8.370729
317.423706 -92.140808 -22.331701 8.063999
330.907043 -92.140808 -22.331701 0.000000
344.390320 -92.140808 -22.331701 0.000000
-343.257996 -105.624115 -22.331701 0.000000
-329.774689 -105.624115 -22.331701 0.000000
-316.291382 -105.624115 -22.331701 0.000000
-302.808105 -105.624115 -22.331701 33.045818
-289.324799 -105.624115 -22.331701 29.966209
-275.841492 -105.624115 -22.331701 31.515608
-262.358185 -105.624115 -22.331701 39.196445
-248.874893 -105.624115 -22.331701 44.878212
-235.391602 -105.624115 -22.331701 0.000000
-221.908295 -105.624115 -22.331701 0.000000
-208.424988 -105.624115 -22.331701 0.000000
-194.941696 -105.624115 -22.331701 0.000000
-181.458389 -105.624115 -22.331701 0.000000
-167.975098 -105.624115 -22.331701 0.000000
-154.491791 -105.624115 -22.331701 0.000000
-141.008499 -105.624115 -22.331701 37.059765
-127.525192 -105.624115 -22.331701 36.952271
-114.041885 -105.624115 -22.331701 35.385860
-100.558594 -105.624115 -22.331701 29.830259
-87.075287 -105.624115 -22.331701 25.376507
-73.591980 -105.624115 -22.331701 21.749317
-60.108704 -105.624115 -22.331701 19.597198
-46.625397 -105.624115 -22.331701 18.898380
-33.142090 -105.624115 -22.331701 17.367851
-19.658783 -105.624115 -22.331701 16.005745
-6.175476 -105.624115 -22.331701 15.737626
7.307800 -105.624115 -22.331701 13.912979
20.791107 -105.624115 -22.331701 12.603273
34.274414 -105.624115 -22.331701 10.302570
47.757721 -105.624115 -22.331701 8.782011
61.240997 -105.624115 -22.331701 6.908631
74.724304 -105.624115 -22.331701 6.084203
88.207611 -105.624115 -22.331701 4.880029
101.690918 -105.624115 -22.331701 4.299580
115.174225 -105.624115 -22.331701 4.702919
128.657501 -105.624115 -22.331701 5.047613
142.140808 -105.624115 -22.331701 5.309478
155.624115 -105.624115 -22.331701 5.535273
169.107422 -105.624115 -22.331701 5.241661
182.590698 -105.624115 -22.331701 5.085618
196.074036 -105.624115 -22.331701 5.115116
209.557312 -105.624115 -22.331701 4.732918
223.040588 -105.624115 -22.331701 6.069044
236.523926 -105.624115 -22.331701 6.695111
250.007202 -105.624115 -22.331701 7.313025
263.490540 -105.624115 -22.331701 8.097419
276.973816 -105.624115 -22.331701 9.470879
290.457092 -105.624115 -22.331701 10.112791
303.940430 -105.624115 -22.331701 12.126761
317.423706 -105.624115 -22.331701 0.000000
330.907043 -105.624115 -22.331701 0.000000
344.390320 -105.624115 -22.331701 0.000000
-343.257996 -119.107422 -22.331701 0.000000
-329.774689 -119.107422 -22.331701 0.000000
-316.291382 -119.107422 -22.331701 0.000000
-302.808105 -119.107422 -22.331701 0.000000
-289.324799 -119.107422 -22.331701 44.577633
-275.841492 -119.107422 -22.331701 48.114727
-262.358185 -119.107422 -22.331701 52.691566
-248.874893 -119.107422 -22.331701 0.000000
-235.391602 -119.107422 -22.331701 0.000000
-221.908295 -119.107422 -22.331701 0.000000
-208.424988 -119.107422 -22.331701 0.000000
-194.941696 -119.107422 -22.331701 0.000000
-181.458389 -119.107422 -22.331701 0.000000
-167.975098 -119.107422 -22.331701 0.000000
-154.491791 -119.107422 -22.331701 48.054352
-141.008499 -119.107422 -22.331701 42.928581
-127.525192 -119.107422 -22.331701 43.014408
-114.041885 -119.107422 -22.331701 42.087315
-100.558594 -119.107422 -22.331701 35.963188
-87.075287 -119.107422 -22.331701 29.815748
-73.591980 -119.107422 -22.331701 26.211714
-60.108704 -119.107422 -22.331701 22.246923
-46.625397 -119.107422 -22.331701 19.879507
-33.142090 -119.107422 -22.331701 19.125299
-19.658783 -119.107422 -22.331701 18.048233
-6.175476 -119.107422 -22.331701 16.749958
7.307800 -119.107422 -22.331701 14.762918
20.791107 -119.107422 -22.331701 13.145517
34.274414 -119.107422 -22.331701 11.822513
47.757721 -119.107422 -22.331701 8.920047
61.240997 -119.107422 -22.331701 8.006111
74.724304 -119.107422 -22.331701 6.291428
88.207611 -119.107422 -22.331701 6.089070
101.690918 -119.107422 -22.331701 5.520769
115.174225 -119.107422 -22.331701 5.991728
128.657501 -119.107422 -22.331701 6.524446
142.140808 -119.107422 -22.331701 6.662344
155.624115 -119.107422 -22.331701 6.412368
169.107422 -119.107422 -22.331701 6.585570
182.590698 -119.107422 -22.331701 7.125203
196.074036 -119.107422 -22.331701 7.982832
209.557312 -119.107422 -22.331701 7.465840
223.040588 -119.107422 -22.331701 8.650019
236.523926 -119.107422 -22.331701 9.187724
250.007202 -119.107422 -22.331701 10.132047
263.490540 -119.107422 -22.331701 11.295212
276.973816 -119.107422 -22.331701 17.751284
290.457092 -119.107422 -22.331701 19.196035
303.940430 -119.107422 -22.331701 25.446344
317.423706 -119.107422 -22.331701 0.000000
330.907043 -119.107422 -22.331701 0.000000
344.390320 -119.107422 -22.331701 0.000000
-343.257996 -132.590698 -22.331701 0.000000
-329.774689 -132.590698 -22.331701 0.000000
-316.291382 -132.590698 -22.331701 0.000000
-302.808105 -132.590698 -22.331701 0.000000
-289.324799 -132.590698 -22.331701 0.000000
-275.841492 -132.590698 -22.331701 0.000000
-262.358185 -132.590698 -22.331701 0.000000
-248.874893 -132.590698 -22.331701 0.000000
-235.391602 -132.590698 -22.331701 0.000000
-221.908295 -132.590698 -22.331701 0.000000
-208.424988 -132.590698 -22.331701 0.000000
-194.941696 -132.590698 -22.331701 0.000000
-181.458389 -132.590698 -22.331701 0.000000
-167.975098 -132.590698 -22.331701 0.000000
-154.491791 -132.590698 -22.331701 0.000000
-141.008499 -132.590698 -22.331701 47.631947
-127.525192 -132.590698 -22.331701 48.063400
-114.041885 -132.590698 -22.331701 44.267231
-100.558594 -132.590698 -22.331701 46.137798
-87.075287 -132.590698 -22.331701 34.336487
-73.591980 -132.590698 -22.331701 29.448080
-60.108704 -132.590698 -22.331701 26.293531
-46.625397 -132.590698 -22.331701 22.550900
-33.142090 -132.590698 -22.331701 18.874117
-19.658783 -132.590698 -22.331701 19.247843
-6.175476 -132.590698 -22.331701 19.027531
7.307800 -132.590698 -22.331701 17.911381
20.791107 -132.590698 -22.331701 16.157667
34.274414 -132.590698 -22.331701 12.237044
47.757721 -132.590698 -22.331701 10.883952
61.240997 -132.590698 -22.331701 9.622399
74.724304 -132.590698 -22.331701 8.070123
88.207611 -132.590698 -22.331701 7.020834
101.690918 -132.590698 -22.331701 8.058908
115.174225 -132.590698 -22.331701 7.647701
128.657501 -132.590698 -22.331701 8.137156
142.140808 -132.590698 -22.331701 8.522659
155.624115 -132.590698 -22.331701 8.414552
169.107422 -132.590698 -22.331701 8.814235
182.590698 -132.590698 -22.331701 9.195647
196.074036 -132.590698 -22.331701 10.821387
209.557312 -132.590698 -22.331701 11.881416
223.040588 -132.590698 -22.331701 12.265172
236.523926 -132.590698 -22.331701 16.795139
250.007202 -132.590698 -22.331701 16.527578
263.490540 -132.590698 -22.331701 20.861298
276.973816 -132.590698 -22.331701 24.137835
290.457092 -132.590698 -22.331701 0.000000
303.940430 -132.590698 -22.331701 0.000000
317.423706 -132.590698 -22.331701 0.000000
330.907043 -132.590698 -22.331701 0.000000
344.390320 -132.590698 -22.331701 0.000000
-343.257996 -146.074036 -22.331701 0.000000
-329.774689 -146.074036 -22.331701 0.000000
-316.291382 -146.074036 -22.331701 0.000000
-302.808105 -146.074036 -22.331701 0.000000
-289.324799 -146.074036 -22.331701 0.000000
-275.841492 -146.074036 -22.331701 0.000000
-262.358185 -146.074036 -22.331701 0.000000
-248.874893 -146.074036 -22.331701 0.000000
-235.391602 -146.074036 -22.331701 0.000000
-221.908295 -146.074036 -22.331701 0.000000
-208.424988 -146.074036 -22.331701 0.000000
-194.941696 -146.074036 -22.331701 0.000000
-181.458389 -146.074036 -22.331701 0.000000
-167.975098 -146.074036 -22.331701 0.000000
-154.491791 -146.074036 -22.331701 0.000000
-141.008499 -146.074036 -22.331701 0.000000
-127.525192 -146.074036 -22.331701 0.000000
-114.041885 -146.074036 -22.331701 0.000000
-100.558594 -146.074036 -22.331701 0.000000
-87.075287 -146.074036 -22.331701 0.000000
-73.591980 -146.074036 -22.331701 0.000000
-60.108704 -146.074036 -22.331701 0.000000
-46.625397 -146.074036 -22.331701 25.773890
-33.142090 -146.074036 -22.331701 22.541801
-19.658783 -146.074036 -22.331701 22.345043
-6.175476 -146.074036 -22.331701 21.220625
7.307800 -146.074036 -22.331701 18.309769
20.791107 -146.074036 -22.331701 17.350929
34.274414 -146.074036 -22.331701 0.000000
47.757721 -146.074036 -22.331701 0.000000
61.240997 -146.074036 -22.331701 0.000000
74.724304 -146.074036 -22.331701 0.000000
88.207611 -146.074036 -22.331701 0.000000
101.690918 -146.074036 -22.331701 0.000000
115.174225 -146.074036 -22.331701 8.459270
128.657501 -146.074036 -22.331701 10.327288
142.140808 -146.074036 -22.331701 9.245072
155.624115 -146.074036 -22.331701 0.000000
169.107422 -146.074036 -22.331701 0.000000
182.590698 -146.074036 -22.331701 0.000000
196.074036 -146.074036 -22.331701 0.000000
209.557312 -146.074036 -22.331701 0.000000
223.040588 -146.074036 -22.331701 0.000000
236.523926 -146.074036 -22.331701 0.000000
250.007202 -146.074036 -22.331701 0.000000
263.490540 -146.074036 -22.331701 0.000000
276.973816 -146.074036 -22.331701 0.000000
290.457092 -146.074036 -22.331701 0.000000
303.940430 -146.074036 -22.331701 0.000000
317.423706 -146.074036 -22.331701 0.000000
330.907043 -146.074036 -22.331701 0.000000
344.390320 -146.074036 -22.331701 0.000000
-343.257996 -159.557312 -22.331701 0.000000
-329.774689 -159.557312 -22.331701 0.000000
-316.291382 -159.557312 -22.331701 0.000000
-302.808105 -159.557312 -22.331701 0.000000
-289.324799 -159.557312 -22.331701 0.000000
-275.841492 -159.557312 -22.331701 0.000000
-262.358185 -159.557312 -22.331701 0.000000
-248.874893 -159.557312 -22.331701 0.000000
-235.391602 -159.557312 -22.331701 0.000000
-221.908295 -159.557312 -22.331701 0.000000
-208.424988 -159.557312 -22.331701 0.000000
-194.941696 -159.557312 -22.331701 0.000000
-181.458389 -159.557312 -22.331701 0.000000
-167.975098 -159.557312 -22.331701 0.000000
-154.491791 -159.557312 -22.331701 0.000000
-141.008499 -159.557312 -22.331701 0.000000
-127.525192 -159.557312 -22.331701 0.000000
-114.041885 -159.557312 -22.331701 0.000000
-100.558594 -159.557312 -22.331701 0.000000
-87.075287 -159.557312 -22.331701 0.000000
-73.591980 -159.557312 -22.331701 0.000000
-60.108704 -159.557312 -22.331701 0.000000
-46.625397 -159.557312 -22.331701 0.000000
-33.142090 -159.557312 -22.331701 0.000000
-19.658783 -159.557312 -22.331701 0.000000
-6.175476 -159.557312 -22.331701 0.000000
7.307800 -159.557312 -22.331701 0.000000
20.791107 -159.557312 -22.331701 0.000000
34.274414 -159.557312 -22.331701 0.000000
47.757721 -159.557312 -22.331701 0.000000
61.240997 -159.557312 -22.331701 0.000000
74.724304 -159.557312 -22.331701 0.000000
88.207611 -159.557312 -22.331701 0.000000
101.690918 -159.557312 -22.331701 0.000000
115.174225 -159.557312 -22.331701 0.000000
128.657501 -159.557312 -22.331701 0.000000
142.140808 -159.557312 -22.331701 0.000000
155.624115 -159.557312 -22.331701 0.000000
169.107422 -159.557312 -22.331701 0.000000
182.590698 -159.557312 -22.331701 0.000000
196.074036 -159.557312 -22.331701 0.000000
209.557312 -159.557312 -22.331701 0.000000
223.040588 -159.557312 -22.331701 0.000000
236.523926 -159.557312 -22.331701 0.000000
250.007202 -159.557312 -22.331701 0.000000
263.490540 -159.557312 -22.331701 0.000000
276.973816 -159.557312 -22.331701 0.000000
290.457092 -159.557312 -22.331701 0.000000
303.940430 -159.557312 -22.331701 0.000000
317.423706 -159.557312 -22.331701 0.000000
330.907043 -159.557312 -22.331701 0.000000
344.390320 -159.557312 -22.331701 0.000000
-343.257996 -173.040588 -22.331701 0.000000
-329.774689 -173.040588 -22.331701 0.000000
-316.291382 -173.040588 -22.331701 0.000000
-302.808105 -173.040588 -22.331701 0.000000
-289.324799 -173.040588 -22.331701 0.000000
-275.841492 -173.040588 -22.331701 0.000000
-262.358185 -173.040588 -22.331701 0.000000
-248.874893 -173.040588 -22.331701 0.000000
-235.391602 -173.040588 -22.331701 0.000000
-221.908295 -173.040588 -22.331701 0.000000
-208.424988 -173.040588 -22.331701 0.000000
-194.941696 -173.040588 -22.331701 0.000000
-181.458389 -173.040588 -22.331701 0.000000
-167.975098 -173.040588 -22.331701 0.000000
-154.491791 -173.040588 -22.331701 0.000000
-141.008499 -173.040588 -22.331701 0.000000
-127.525192 -173.040588 -22.331701 0.000000
-114.041885 -173.040588 -22.331701 0.000000
-100.558594 -173.040588 -22.331701 0.000000
-87.075287 -173.040588 -22.331701 0.000000
-73.591980 -173.040588 -22.331701 0.000000
-60.108704 -173.040588 -22.331701 0.000000
-46.625397 -173.040588 -22.331701 0.000000
-33.142090 -173.040588 -22.331701 0.000000
-19.658783 -173.040588 -22.331701 0.000000
-6.175476 -173.040588 -22.331701 0.000000
7.307800 -173.040588 -22.331701 0.000000
20.791107 -173.040588 -22.331701 0.000000
34.274414 -173.040588 -22.331701 0.000000
47.757721 -173.040588 -22.331701 0.000000
61.240997 -173.040588 -22.331701 0.000000
74.724304 -173.040588 -22.331701 0.000000
88.207611 -173.040588 -22.331701 0.000000
101.690918 -173.040588 -22.331701 0.000000
115.174225 -173.040588 -22.331701 0.000000
128.657501 -173.040588 -22.331701 0.000000
142.140808 -173.040588 -22.331701 0.000000
155.624115 -173.040588 -22.331701 0.000000
169.107422 -173.040588 -22.331701 0.000000
182.590698 -173.040588 -22.331701 0.000000
196.074036 -173.040588 -22.331701 0.000000
209.557312 -173.040588 -22.331701 0.000000
223.040588 -173.040588 -22.331701 0.000000
236.523926 -173.040588 -22.331701 0.000000
250.007202 -173.040588 -22.331701 0.000000
263.490540 -173.040588 -22.331701 0.000000
276.973816 -173.040588 -22.331701 0.000000
290.457092 -173.040588 -22.331701 0.000000
303.940430 -173.040588 -22.331701 0.000000
317.423706 -173.040588 -22.331701 0.000000
330.907043 -173.040588 -22.331701 0.000000
344.390320 -173.040588 -22.331701 0.000000
-343.257996 -186.523926 -22.331701 0.000000
-329.774689 -186.523926 -22.331701 0.000000
-316.291382 -186.523926 -22.331701 0.000000
-302.808105 -186.523926 -22.331701 0.000000
-289.324799 -186.523926 -22.331701 0.000000
-275.841492 -186.523926 -22.331701 0.000000
-262.358185 -186.523926 -22.331701 0.000000
-248.874893 -186.523926 -22.331701 0.000000
-235.391602 -186.523926 -22.331701 0.000000
-221.908295 -186.523926 -22.331701 0.000000
-208.424988 -186.523926 -22.331701 0.000000
-194.941696 -186.523926 -22.331701 0.000000
-181.458389 -186.523926 -22.331701 0.000000
-167.975098 -186.523926 -22.331701 0.000000
-154.491791 -186.523926 -22.331701 0.000000
-141.008499 -186.523926 -22.331701 0.000000
-127.525192 -186.523926 -22.331701 0.000000
-114.041885 -186.523926 -22.331701 0.000000
-100.558594 -186.523926 -22.331701 0.000000
-87.075287 -186.523926 -22.331701 0.000000
-73.591980 -186.523926 -22.331701 0.000000
-60.108704 -186.523926 -22.331701 0.000000
-46.625397 -186.523926 -22.331701 0.000000
-33.142090 -186.523926 -22.331701 0.000000
-19.658783 -186.523926 -22.331701 0.000000
-6.175476 -186.523926 -22.331701 0.000000
7.307800 -186.523926 -22.331701 0.000000
20.791107 -186.523926 -22.331701 0.000000
34.274414 -186.523926 -22.331701 0.000000
47.757721 -186.523926 -22.331701 0.000000
61.240997 -186.523926 -22.331701 0.000000
74.724304 -186.523926 -22.331701 0.000000
88.207611 -186.523926 -22.331701 0.000000
101.690918 -186.523926 -22.331701 0.000000
115.174225 -186.523926 -22.331701 0.000000
128.657501 -186.523926 -22.331701 0.000000
142.140808 -186.523926 -22.331701 0.000000
155.624115 -186.523926 -22.331701 0.000000
169.107422 -186.523926 -22.331701 0.000000
182.590698 -186.523926 -22.331701 0.000000
196.074036 -186.523926 -22.331701 0.000000
209.557312 -186.523926 -22.331701 0.000000
223.040588 -186.523926 -22.331701 0.000000
236.523926 -186.523926 -22.331701 0.000000
250.007202 -186.523926 -22.331701 0.000000
263.490540 -186.523926 -22.331701 0.000000
276.973816 -186.523926 -22.331701 0.000000
290.457092 -186.523926 -22.331701 0.000000
303.940430 -186.523926 -22.331701 0.000000
317.423706 -186.523926 -22.331701 0.000000
330.907043 -186.523926 -22.331701 0.000000
344.390320 -186.523926 -22.331701 0.000000
-343.257996 -200.007202 -22.331701 0.000000
-329.774689 -200.007202 -22.331701 0.000000
-316.291382 -200.007202 -22.331701 0.000000
-302.808105 -200.007202 -22.331701 0.000000
-289.324799 -200.007202 -22.331701 0.000000
-275.841492 -200.007202 -22.331701 0.000000
-262.358185 -200.007202 -22.331701 0.000000
-248.874893 -200.007202 -22.331701 0.000000
-235.391602 -200.007202 -22.331701 0.000000
-221.908295 -200.007202 -22.331701 0.000000
-208.424988 -200.007202 -22.331701 0.000000
-194.941696 -200.007202 -22.331701 0.000000
-181.458389 -200.007202 -22.331701 0.000000
-167.975098 -200.007202 -22.331701 0.000000
-154.491791 -200.007202 -22.331701 0.000000
-141.008499 -200.007202 -22.331701 0.000000
-127.525192 -200.007202 -22.331701 0.000000
-114.041885 -200.007202 -22.331701 0.000000
-100.558594 -200.007202 -22.331701 0.000000
-87.075287 -200.007202 -22.331701 0.000000
-73.591980 -200.007202 -22.331701 0.000000
-60.108704 -200.007202 -22.331701 0.000000
-46.625397 -200.007202 -22.331701 0.000000
-33.142090 -200.007202 -22.331701 0.000000
-19.658783 -200.007202 -22.331701 0.000000
-6.175476 -200.007202 -22.331701 0.000000
7.307800 -200.007202 -22.331701 0.000000
20.791107 -200.007202 -22.331701 0.000000
34.274414 -200.007202 -22.331701 0.000000
47.757721 -200.007202 -22.331701 0.000000
61.240997 -200.007202 -22.331701 0.000000
74.724304 -200.007202 -22.331701 0.000000
88.207611 -200.007202 -22.331701 0.000000
101.690918 -200.007202 -22.331701 0.000000
115.174225 -200.007202 -22.331701 0.000000
128.657501 -200.007202 -22.331701 0.000000
142.140808 -200.007202 -22.331701 0.000000
155.624115 -200.007202 -22.331701 0.000000
169.107422 -200.007202 -22.331701 0.000000
182.590698 -200.007202 -22.331701 0.000000
196.074036 -200.007202 -22.331701 0.000000
209.557312 -200.007202 -22.331701 0.000000
223.040588 -200.007202 -22.331701 0.000000
236.523926 -200.007202 -22.331701 0.000000
250.007202 -200.007202 -22.331701 0.000000
263.490540 -200.007202 -22.331701 0.000000
276.973816 -200.007202 -22.331701 0.000000
290.457092 -200.007202 -22.331701 0.000000
303.940430 -200.007202 -22.331701 0.000000
317.423706 -200.007202 -22.331701 0.000000
330.907043 -200.007202 -22.331701 0.000000
344.390320 -200.007202 -22.331701 0.000000
-343.257996 393.257996 -8.848400 0.000000
-329.774689 393.257996 -8.848400 0.000000
-316.291382 393.257996 -8.848400 0.000000
-302.808105 393.257996 -8.848400 0.000000
-289.324799 393.257996 -8.848400 0.000000
-275.841492 393.257996 -8.848400 0.000000
-262.358185 393.257996 -8.848400 0.000000
-248.874893 393.257996 -8.848400 0.000000
-235.391602 393.257996 -8.848400 0.000000
-221.908295 393.257996 -8.848400 0.000000
-208.424988 393.257996 -8.848400 0.000000
-194.941696 393.257996 -8.848400 0.000000
-181.458389 393.257996 -8.848400 0.000000
-167.975098 393.257996 -8.848400 0.000000
-154.491791 393.257996 -8.848400 0.000000
-141.008499 393.257996 -8.848400 0.000000
-127.525192 393.257996 -8.848400 0.000000
-114.041885 393.257996 -8.848400 0.000000
-100.558594 393.257996 -8.848400 0.000000
-87.075287 393.257996 -8.848400 0.000000
-73.591980 393.257996 -8.848400 0.000000
-60.108704 393.257996 -8.848400 0.000000
-46.625397 393.257996 -8.848400 0.000000
-33.142090 393.257996 -8.848400 0.000000
-19.658783 393.257996 -8.848400 0.000000
-6.175476 393.257996 -8.848400 0.000000
7.307800 393.257996 -8.848400 0.000000
20.791107 393.257996 -8.848400 0.000000
34.274414 393.257996 -8.848400 0.000000
47.757721 393.257996 -8.848400 0.000000
61.240997 393.257996 -8.848400 0.000000
74.724304 393.257996 -8.848400 0.000000
88.207611 393.257996 -8.848400 0.000000
101.690918 393.257996 -8.848400 0.000000
115.174225 393.257996 -8.848400 0.000000
128.657501 393.257996 -8.848400 0.000000
142.140808 393.257996 -8.848400 0.000000
155.624115 393.257996 -8.848400 0.000000
169.107422 393.257996 -8.848400 0.000000
182.590698 393.257996 -8.848400 0.000000
196.074036 393.257996 -8.848400 0.000000
209.557312 393.257996 -8.848400 0.000000
223.040588 393.257996 -8.848400 0.000000
236.523926 393.257996 -8.848400 0.000000
250.007202 393.257996 -8.848400 0.000000
263.490540 393.257996 -8.848400 0.000000
276.973816 393.257996 -8.848400 0.000000
290.457092 393.257996 -8.848400 0.000000
303.940430 393.257996 -8.848400 0.000000
317.423706 393.257996 -8.848400 0.000000
330.907043 393.257996 -8.848400 0.000000
344.390320 393.257996 -8.848400 0.000000
-343.257996 379.774689 -8.848400 0.000000
-329.774689 379.774689 -8.848400 0.000000
-316.291382 379.774689 -8.848400 0.000000
-302.808105 379.774689 -8.848400 0.000000
-289.324799 379.774689 -8.848400 0.000000
-275.841492 379.774689 -8.848400 0.000000
-262.358185 379.774689 -8.848400 0.000000
-248.874893 379.774689 -8.848400 0.000000
-235.391602 379.774689 -8.848400 0.000000
-221.908295 379.774689 -8.848400 0.000000
-208.424988 379.774689 -8.848400 0.000000
-194.941696 379.774689 -8.848400 0.000000
-181.458389 379.774689 -8.848400 0.000000
-167.975098 379.774689 -8.848400 0.000000
-154.491791 379.774689 -8.848400 0.000000
-141.008499 379.774689 -8.848400 0.000000
-127.525192 379.774689 -8.848400 0.000000
-114.041885 379.774689 -8.848400 0.000000
-100.558594 379.774689 -8.848400 0.000000
-87.075287 379.774689 -8.848400 0.000000
-73.591980 379.774689 -8.848400 0.000000
-60.108704 379.774689 -8.848400 0.000000
-46.625397 379.774689 -8.848400 0.000000
-33.142090 379.774689 -8.848400 0.000000
-19.658783 379.774689 -8.848400 0.000000
-6.175476 379.774689 -8.848400 0.000000
7.307800 379.774689 -8.848400 0.000000
20.791107 379.774689 -8.848400 0.000000
34.274414 379.774689 -8.848400 0.000000
47.757721 379.774689 -8.848400 0.000000
61.240997 379.774689 -8.848400 0.000000
74.724304 379.774689 -8.848400 0.000000
88.207611 379.774689 -8.848400 0.000000
101.690918 379.774689 -8.848400 0.000000
115.174225 379.774689 -8.848400 0.000000
128.657501 379.774689 -8.848400 0.000000
142.140808 379.774689 -8.848400 0.000000
155.624115 379.774689 -8.848400 0.000000
169.107422 379.774689 -8.848400 0.000000
182.590698 379.774689 -8.848400 0.000000
196.074036 379.774689 -8.848400 0.000000
209.557312 379.774689 -8.848400 0.000000
223.040588 379.774689 -8.848400 0.000000
236.523926 379.774689 -8.848400 0.000000
250.007202 379.774689 -8.848400 0.000000
263.490540 379.774689 -8.848400 0.000000
276.973816 379.774689 -8.848400 0.000000
290.457092 379.774689 -8.848400 0.000000
303.940430 379.774689 -8.848400 0.000000
317.423706 379.774689 -8.848400 0.000000
330.907043 379.774689 -8.848400 0.000000
344.390320 379.774689 -8.848400 0.000000
-343.257996 366.291382 -8.848400 0.000000
-329.774689 366.291382 -8.848400 0.000000
-316.291382 366.291382 -8.848400 0.000000
-302.808105 366.291382 -8.848400 0.000000
-289.324799 366.291382 -8.848400 0.000000
-275.841492 366.291382 -8.848400 0.000000
-262.358185 366.291382 -8.848400 0.000000
-248.874893 366.291382 -8.848400 0.000000
-235.391602 366.291382 -8.848400 0.000000
-221.908295 366.291382 -8.848400 0.000000
-208.424988 366.291382 -8.848400 0.000000
-194.941696 366.291382 -8.848400 0.000000
-181.458389 366.291382 -8.848400 0.000000
-167.975098 366.291382 -8.848400 0.000000
-154.491791 366.291382 -8.848400 0.000000
-141.008499 366.291382 -8.848400 0.000000
-127.525192 366.291382 -8.848400 0.000000
-114.041885 366.291382 -8.848400 0.000000
-100.558594 366.291382 -8.848400 0.000000
-87.075287 366.291382 -8.848400 0.000000
-73.591980 366.291382 -8.848400 0.000000
-60.108704 366.291382 -8.848400 0.000000
-46.625397 366.291382 -8.848400 0.000000
-33.142090 366.291382 -8.848400 0.000000
-19.658783 366.291382 -8.848400 0.000000
-6.175476 366.291382 -8.848400 0.000000
7.307800 366.291382 -8.848400 0.000000
20.791107 366.291382 -8.848400 0.000000
34.274414 366.291382 -8.848400 0.000000
47.757721 366.291382 -8.848400 0.000000
61.240997 366.291382 -8.848400 0.000000
74.724304 366.291382 -8.848400 0.000000
88.207611 366.291382 -8.848400 0.000000
101.690918 366.291382 -8.848400 0.000000
115.174225 366.291382 -8.848400 0.000000
128.657501 366.291382 -8.848400 0.000000
142.140808 366.291382 -8.848400 0.000000
155.624115 366.291382 -8.848400 0.000000
169.107422 366.291382 -8.848400 0.000000
182.590698 366.291382 -8.848400 0.000000
196.074036 366.291382 -8.848400 0.000000
209.557312 366.291382 -8.848400 0.000000
223.040588 366.291382 -8.848400 0.000000
236.523926 366.291382 -8.848400 0.000000
250.007202 366.291382 -8.848400 0.000000
263.490540 366.291382 -8.848400 0.000000
276.973816 366.291382 -8.848400 0.000000
290.457092 366.291382 -8.848400 0.000000
303.940430 366.291382 -8.848400 0.000000
317.423706 366.291382 -8.848400 0.000000
330.907043 366.291382 -8.848400 0.000000
344.390320 366.291382 -8.848400 0.000000
-343.257996 352.808105 -8.848400 0.000000
-329.774689 352.808105 -8.848400 0.000000
-316.291382 352.808105 -8.848400 0.000000
-302.808105 352.808105 -8.848400 0.000000
-289.324799 352.808105 -8.848400 0.000000
-275.841492 352.808105 -8.848400 0.000000
-262.358185 352.808105 -8.848400 0.000000
-248.874893 352.808105 -8.848400 0.000000
-235.391602 352.808105 -8.848400 0.000000
-221.908295 352.808105 -8.848400 0.000000
-208.424988 352.808105 -8.848400 0.000000
-194.941696 352.808105 -8.848400 0.000000
-181.458389 352.808105 -8.848400 0.000000
-167.975098 352.808105 -8.848400 0.000000
-154.491791 352.808105 -8.848400 0.000000
-141.008499 352.808105 -8.848400 0.000000
-127.525192 352.808105 -8.848400 0.000000
-114.041885 352.808105 -8.848400 0.000000
-100.558594 352.808105 -8.848400 0.000000
-87.075287 352.808105 -8.848400 0.000000
-73.591980 352.808105 -8.848400 0.000000
-60.108704 352.808105 -8.848400 0.000000
-46.625397 352.808105 -8.848400 0.000000
-33.142090 352.808105 -8.848400 0.000000
-19.658783 352.808105 -8.848400 0.000000
-6.175476 352.808105 -8.848400 0.000000
7.307800 352.808105 -8.848400 0.000000
20.791107 352.808105 -8.848400 0.000000
34.274414 352.808105 -8.848400 0.000000
47.757721 352.808105 -8.848400 0.000000
61.240997 352.808105 -8.848400 0.000000
74.724304 352.808105 -8.848400 0.000000
88.207611 352.808105 -8.848400 0.000000
101.690918 352.808105 -8.848400 0.000000
115.174225 352.808105 -8.848400 0.000000
128.657501 352.808105 -8.848400 0.000000
142.140808 352.808105 -8.848400 0.000000
155.624115 352.808105 -8.848400 0.000000
169.107422 352.808105 -8.848400 0.000000
182.590698 352.808105 -8.848400 0.000000
196.074036 352.808105 -8.848400 0.000000
209.557312 352.808105 -8.848400 0.000000
223.040588 352.808105 -8.848400 0.000000
236.523926 352.808105 -8.848400 0.000000
250.007202 352.808105 -8.848400 0.000000
263.490540 352.808105 -8.848400 0.000000
276.973816 352.808105 -8.848400 0.000000
290.457092 352.808105 -8.848400 0.000000
303.940430 352.808105 -8.848400 0.000000
317.423706 352.808105 -8.848400 0.000000
330.907043 352.808105 -8.848400 0.000000
344.390320 352.808105 -8.848400 0.000000
-343.257996 339.324799 -8.848400 0.000000
-329.774689 339.324799 -8.848400 0.000000
-316.291382 339.324799 -8.848400 0.000000
-302.808105 339.324799 -8.848400 0.000000
-289.324799 339.324799 -8.848400 0.000000
-275.841492 339.324799 -8.848400 0.000000
-262.358185 339.324799 -8.848400 0.000000
-248.874893 339.324799 -8.848400 0.000000
-235.391602 339.324799 -8.848400 0.000000
-221.908295 339.324799 -8.848400 0.000000
-208.424988 339.324799 -8.848400 0.000000
-194.941696 339.324799 -8.848400 0.000000
-181.458389 339.324799 -8.848400 0.000000
-167.975098 339.324799 -8.848400 0.000000
-154.491791 339.324799 -8.848400 0.000000
-141.008499 339.324799 -8.848400 0.000000
-127.525192 339.324799 -8.848400 0.000000
-114.041885 339.324799 -8.848400 0.000000
-100.558594 339.324799 -8.848400 0.000000
-87.075287 339.324799 -8.848400 0.000000
-73.591980 339.324799 -8.848400 0.000000
-60.108704 339.324799 -8.848400 0.000000
-46.625397 339.324799 -8.848400 0.000000
-33.142090 339.324799 -8.848400 0.000000
-19.658783 339.324799 -8.848400 0.000000
-6.175476 339.324799 -8.848400 0.000000
7.307800 339.324799 -8.848400 0.000000
20.791107 339.324799 -8.848400 0.000000
34.274414 339.324799 -8.848400 0.000000
47.757721 339.324799 -8.848400 0.000000
61.240997 339.324799 -8.848400 0.000000
74.724304 339.324799 -8.848400 0.000000
88.207611 339.324799 -8.848400 0.000000
101.690918 339.324799 -8.848400 0.000000
115.174225 339.324799 -8.848400 0.000000
128.657501 339.324799 -8.848400 0.000000
142.140808 339.324799 -8.848400 0.000000
155.624115 339.324799 -8.848400 0.000000
169.107422 339.324799 -8.848400 0.000000
182.590698 339.324799 -8.848400 0.000000
196.074036 339.324799 -8.848400 0.000000
209.557312 339.324799 -8.848400 0.000000
223.040588 339.324799 -8.848400 0.000000
236.523926 339.324799 -8.848400 0.000000
250.007202 339.324799 -8.848400 0.000000
263.490540 339.324799 -8.848400 0.000000
276.973816 339.324799 -8.848400 0.000000
290.457092 339.324799 -8.848400 0.000000
303.940430 339.324799 -8.848400 0.000000
317.423706 339.324799 -8.848400 0.000000
330.907043 339.324799 -8.848400 0.000000
344.390320 339.324799 -8.848400 0.000000
-343.257996 325.841492 -8.848400 0.000000
-329.774689 325.841492 -8.848400 0.000000
-316.291382 325.841492 -8.848400 0.000000
-302.808105 325.841492 -8.848400 0.000000
-289.324799 325.841492 -8.848400 0.000000
-275.841492 325.841492 -8.848400 0.000000
-262.358185 325.841492 -8.848400 0.000000
-248.874893 325.841492 -8.848400 0.000000
-235.391602 325.841492 -8.848400 0.000000
-221.908295 325.841492 -8.848400 0.000000
-208.424988 325.841492 -8.848400 0.000000
-194.941696 325.841492 -8.848400 0.000000
-181.458389 325.841492 -8.848400 0.000000
-167.975098 325.841492 -8.848400 0.000000
-154.491791 325.841492 -8.848400 0.000000
-141.008499 325.841492 -8.848400 0.000000
-127.525192 325.841492 -8.848400 4.979037
-114.041885 325.841492 -8.848400 5.476360
-100.558594 325.841492 -8.848400 5.205041
-87.075287 325.841492 -8.848400 5.239973
-73.591980 325.841492 -8.848400 5.027241
-60.108704 325.841492 -8.848400 4.624537
-46.625397 325.841492 -8.848400 4.336361
-33.142090 325.841492 -8.848400 0.000000
-19.658783 325.841492 -8.848400 0.000000
-6.175476 325.841492 -8.848400 0.000000
7.307800 325.841492 -8.848400 0.000000
20.791107 325.841492 -8.848400 0.000000
34.274414 325.841492 -8.848400 0.000000
47.757721 325.841492 -8.848400 0.000000
61.240997 325.841492 -8.848400 0.000000
74.724304 325.841492 -8.848400 0.000000
88.207611 325.841492 -8.848400 0.000000
101.690918 325.841492 -8.848400 0.000000
115.174225 325.841492 -8.848400 0.000000
128.657501 325.841492 -8.848400 0.000000
142.140808 325.841492 -8.848400 0.000000
155.624115 325.841492 -8.848400 0.000000
169.107422 325.841492 -8.848400 0.000000
182.590698 325.841492 -8.848400 0.000000
196.074036 325.841492 -8.848400 0.000000
209.557312 325.841492 -8.848400 0.000000
223.040588 325.841492 -8.848400 0.000000
236.523926 325.841492 -8.848400 0.000000
250.007202 325.841492 -8.848400 0.000000
263.490540 325.841492 -8.848400 0.000000
276.973816 325.841492 -8.848400 0.000000
290.457092 325.841492 -8.848400 0.000000
303.940430 325.841492 -8.848400 0.000000
317.423706 325.841492 -8.848400 0.000000
330.907043 325.841492 -8.848400 0.000000
344.390320 325.841492 -8.848400 0.000000
-343.257996 312.358185 -8.848400 0.000000
-329.774689 312.358185 -8.848400 0.000000
-316.291382 312.358185 -8.848400 0.000000
-302.808105 312.358185 -8.848400 0.000000
-289.324799 312.358185 -8.848400 0.000000
-275.841492 312.358185 -8.848400 0.000000
-262.358185 312.358185 -8.848400 0.000000
-248.874893 312.358185 -8.848400 0.000000
-235.391602 312.358185 -8.848400 0.000000
-221.908295 312.358185 -8.848400 0.000000
-208.424988 312.358185 -8.848400 0.000000
-194.941696 312.358185 -8.848400 0.000000
-181.458389 312.358185 -8.848400 0.000000
-167.975098 312.358185 -8.848400 0.000000
-154.491791 312.358185 -8.848400 0.000000
-141.008499 312.358185 -8.848400 4.396479
-127.525192 312.358185 -8.848400 4.717106
-114.041885 312.358185 -8.848400 5.173229
-100.558594 312.358185 -8.848400 5.321608
-87.075287 312.358185 -8.848400 5.302007
-73.591980 312.358185 -8.848400 5.696577
-60.108704 312.358185 -8.848400 5.172905
-46.625397 312.358185 -8.848400 4.827723
-33.142090 312.358185 -8.848400 3.865200
-19.658783 312.358185 -8.848400 0.000000
-6.175476 312.358185 -8.848400 0.000000
7.307800 312.358185 -8.848400 0.000000
20.791107 312.358185 -8.848400 0.000000
34.274414 312.358185 -8.848400 0.000000
47.757721 312.358185 -8.848400 0.000000
61.240997 312.358185 -8.848400 0.000000
74.724304 312.358185 -8.848400 0.000000
88.207611 312.358185 -8.848400 0.000000
101.690918 312.358185 -8.848400 0.000000
115.174225 312.358185 -8.848400 0.000000
128.657501 312.358185 -8.848400 0.000000
142.140808 312.358185 -8.848400 0.000000
155.624115 312.358185 -8.848400 0.000000
169.107422 312.358185 -8.848400 0.000000
182.590698 312.358185 -8.848400 0.000000
196.074036 312.358185 -8.848400 0.000000
209.557312 312.358185 -8.848400 0.000000
223.040588 312.358185 -8.848400 0.000000
236.523926 312.358185 -8.848400 0.000000
250.007202 312.358185 -8.848400 0.000000
263.490540 312.358185 -8.848400 0.000000
276.973816 312.358185 -8.848400 0.000000
290.457092 312.358185 -8.848400 0.000000
303.940430 312.358185 -8.848400 0.000000
317.423706 312.358185 -8.848400 0.000000
330.907043 312.358185 -8.848400 0.000000
344.390320 312.358185 -8.848400 0.000000
-343.257996 298.874878 -8.848400 0.000000
-329.774689 298.874878 -8.848400 0.000000
-316.291382 298.874878 -8.848400 0.000000
-302.808105 298.874878 -8.848400 0.000000
-289.324799 298.874878 -8.848400 0.000000
-275.841492 298.874878 -8.848400 0.000000
-262.358185 298.874878 -8.848400 0.000000
-248.874893 298.874878 -8.848400 0.000000
-235.391602 298.874878 -8.848400 0.000000
-221.908295 298.874878 -8.848400 0.000000
-208.424988 298.874878 -8.848400 0.000000
-194.941696 298.874878 -8.848400 0.000000
-181.458389 298.874878 -8.848400 0.000000
-167.975098 298.874878 -8.848400 0.000000
-154.491791 298.874878 -8.848400 0.000000
-141.008499 298.874878 -8.848400 4.462049
-127.525192 298.874878 -8.848400 5.150950
-114.041885 298.874878 -8.848400 5.376880
-100.558594 298.874878 -8.848400 5.157818
-87.075287 298.874878 -8.848400 5.267498
-73.591980 298.874878 -8.848400 5.181482
-60.108704 298.874878 -8.848400 5.165861
-46.625397 298.874878 -8.848400 5.543776
-33.142090 298.874878 -8.848400 4.837049
-19.658783 298.874878 -8.848400 4.271801
-6.175476 298.874878 -8.848400 0.000000
7.307800 298.874878 -8.848400 0.000000
20.791107 298.874878 -8.848400 0.000000
34.274414 298.874878 -8.848400 0.000000
47.757721 298.874878 -8.848400 0.000000
61.240997 298.874878 -8.848400 0.000000
74.724304 298.874878 -8.848400 0.000000
88.207611 298.874878 -8.848400 0.000000
101.690918 298.874878 -8.848400 0.000000
115.174225 298.874878 -8.848400 0.000000
128.657501 298.874878 -8.848400 0.000000
142.140808 298.874878 -8.848400 0.000000
155.624115 298.874878 -8.848400 0.000000
169.107422 298.874878 -8.848400 0.000000
182.590698 298.874878 -8.848400 0.000000
196.074036 298.874878 -8.848400 0.000000
209.557312 298.874878 -8.848400 0.000000
223.040588 298.874878 -8.848400 0.000000
236.523926 298.874878 -8.848400 0.000000
250.007202 298.874878 -8.848400 0.000000
263.490540 298.874878 -8.848400 0.000000
276.973816 298.874878 -8.848400 0.000000
290.457092 298.874878 -8.848400 0.000000
303.940430 298.874878 -8.848400 0.000000
317.423706 298.874878 -8.848400 0.000000
330.907043 298.874878 -8.848400 0.000000
344.390320 298.874878 -8.848400 0.000000
-343.257996 285.391602 -8.848400 0.000000
-329.774689 285.391602 -8.848400 0.000000
-316.291382 285.391602 -8.848400 0.000000
-302.808105 285.391602 -8.848400 0.000000
-289.324799 285.391602 -8.848400 0.000000
-275.841492 285.391602 -8.848400 0.000000
-262.358185 285.391602 -8.848400 0.000000
-248.874893 285.391602 -8.848400 0.000000
-235.391602 285.391602 -8.848400 0.000000
-221.908295 285.391602 -8.848400 0.000000
-208.424988 285.391602 -8.848400 0.000000
-194.941696 285.391602 -8.848400 0.000000
-181.458389 285.391602 -8.848400 0.000000
-167.975098 285.391602 -8.848400 0.000000
-154.491791 285.391602 -8.848400 0.000000
-141.008499 285.391602 -8.848400 4.266671
-127.525192 285.391602 -8.848400 4.645617
-114.041885 285.391602 -8.848400 5.026807
-100.558594 285.391602 -8.848400 5.125070
-87.075287 285.391602 -8.848400 5.068626
-73.591980 285.391602 -8.848400 4.843237
-60.108704 285.391602 -8.848400 5.207183
-46.625397 285.391602 -8.848400 5.397231
-33.142090 285.391602 -8.848400 5.331256
-19.658783 285.391602 -8.848400 4.502896
-6.175476 285.391602 -8.848400 3.655523
7.307800 285.391602 -8.848400 3.192114
20.791107 285.391602 -8.848400 3.143929
34.274414 285.391602 -8.848400 0.000000
47.757721 285.391602 -8.848400 0.000000
61.240997 285.391602 -8.848400 0.000000
74.724304 285.391602 -8.848400 0.000000
88.207611 285.391602 -8.848400 0.000000
101.690918 285.391602 -8.848400 0.000000
115.174225 285.391602 -8.848400 0.000000
128.657501 285.391602 -8.848400 0.000000
142.140808 285.391602 -8.848400 0.000000
155.624115 285.391602 -8.848400 0.000000
169.107422 285.391602 -8.848400 0.000000
182.590698 285.391602 -8.848400 0.000000
196.074036 285.391602 -8.848400 0.000000
209.557312 285.391602 -8.848400 0.000000
223.040588 285.391602 -8.848400 0.000000
236.523926 285.391602 -8.848400 0.000000
250.007202 285.391602 -8.848400 0.000000
263.490540 285.391602 -8.848400 0.000000
276.973816 285.391602 -8.848400 0.000000
290.457092 285.391602 -8.848400 0.000000
303.940430 285.391602 -8.848400 0.000000
317.423706 285.391602 -8.848400 0.000000
330.907043 285.391602 -8.848400 0.000000
344.390320 285.391602 -8.848400 0.000000
-343.257996 271.908295 -8.848400 0.000000
-329.774689 271.908295 -8.848400 0.000000
-316.291382 271.908295 -8.848400 0.000000
-302.808105 271.908295 -8.848400 0.000000
-289.324799 271.908295 -8.848400 0.000000
-275.841492 271.908295 -8.848400 0.000000
-262.358185 271.908295 -8.848400 0.000000
-248.874893 271.908295 -8.848400 0.000000
-235.391602 271.908295 -8.848400 0.000000
-221.908295 271.908295 -8.848400 0.000000
-208.424988 271.908295 -8.848400 0.000000
-194.941696 271.908295 -8.848400 0.000000
-181.458389 271.908295 -8.848400 0.000000
-167.975098 271.908295 -8.848400 0.000000
-154.491791 271.908295 -8.848400 0.000000
-141.008499 271.908295 -8.848400 3.695197
-127.525192 271.908295 -8.848400 4.317337
-114.041885 271.908295 -8.848400 4.894836
-100.558594 271.908295 -8.848400 5.019794
-87.075287 271.908295 -8.848400 4.556427
-73.591980 271.908295 -8.848400 4.773163
-60.108704 271.908295 -8.848400 4.961106
-46.625397 271.908295 -8.848400 5.547537
-33.142090 271.908295 -8.848400 5.175103
-19.658783 271.908295 -8.848400 4.679267
-6.175476 271.908295 -8.848400 4.162630
7.307800 271.908295 -8.848400 3.689092
20.791107 271.908295 -8.848400 3.599563
34.274414 271.908295 -8.848400 3.542548
47.757721 271.908295 -8.848400 3.479985
61.240997 271.908295 -8.848400 0.000000
74.724304 271.908295 -8.848400 0.000000
88.207611 271.908295 -8.848400 5.030544
101.690918 271.908295 -8.848400 5.205021
115.174225 271.908295 -8.848400 5.567472
128.657501 271.908295 -8.848400 4.966523
142.140808 271.908295 -8.848400 4.528860
155.624115 271.908295 -8.848400 0.000000
169.107422 271.908295 -8.848400 0.000000
182.590698 271.908295 -8.848400 0.000000
196.074036 271.908295 -8.848400 0.000000
209.557312 271.908295 -8.848400 0.000000
223.040588 271.908295 -8.848400 0.000000
236.523926 271.908295 -8.848400 0.000000
250.007202 271.908295 -8.848400 0.000000
263.490540 271.908295 -8.848400 0.000000
276.973816 271.908295 -8.848400 0.000000
290.457092 271.908295 -8.848400 0.000000
303.940430 271.908295 -8.848400 0.000000
317.423706 271.908295 -8.848400 0.000000
330.907043 271.908295 -8.848400 0.000000
344.390320 271.908295 -8.848400 0.000000
-343.257996 258.424988 -8.848400 0.000000
-329.774689 258.424988 -8.848400 0.000000
-316.291382 258.424988 -8.848400 0.000000
-302.808105 258.424988 -8.848400 0.000000
-289.324799 258.424988 -8.848400 0.000000
-275.841492 258.424988 -8.848400 0.000000
-262.358185 258.424988 -8.848400 0.000000
-248.874893 258.424988 -8.848400 0.000000
-235.391602 258.424988 -8.848400 0.000000
-221.908295 258.424988 -8.848400 0.000000
-208.424988 258.424988 -8.848400 0.000000
-194.941696 258.424988 -8.848400 0.000000
-181.458389 258.424988 -8.848400 0.000000
-167.975098 258.424988 -8.848400 0.000000
-154.491791 258.424988 -8.848400 0.000000
-141.008499 258.424988 -8.848400 3.497219
-127.525192 258.424988 -8.848400 4.649298
-114.041885 258.424988 -8.848400 4.944357
-100.558594 258.424988 -8.848400 4.974339
-87.075287 258.424988 -8.848400 4.606035
-73.591980 258.424988 -8.848400 4.865764
-60.108704 258.424988 -8.848400 5.095619
-46.625397 258.424988 -8.848400 5.280705
-33.142090 258.424988 -8.848400 5.403720
-19.658783 258.424988 -8.848400 4.805037
-6.175476 258.424988 -8.848400 4.251260
7.307800 258.424988 -8.848400 4.026708
20.791107 258.424988 -8.848400 4.299930
34.274414 258.424988 -8.848400 3.887488
47.757721 258.424988 -8.848400 3.678996
61.240997 258.424988 -8.848400 4.723660
74.724304 258.424988 -8.848400 4.840785
88.207611 258.424988 -8.848400 4.800735
101.690918 258.424988 -8.848400 5.162787
115.174225 258.424988 -8.848400 5.148450
128.657501 258.424988 -8.848400 4.711770
142.140808 258.424988 -8.848400 4.803314
155.624115 258.424988 -8.848400 4.360492
169.107422 258.424988 -8.848400 0.000000
182.590698 258.424988 -8.848400 0.000000
196.074036 258.424988 -8.848400 0.000000
209.557312 258.424988 -8.848400 0.000000
223.040588 258.424988 -8.848400 0.000000
236.523926 258.424988 -8.848400 0.000000
250.007202 258.424988 -8.848400 0.000000
263.490540 258.424988 -8.848400 0.000000
276.973816 258.424988 -8.848400 0.000000
290.457092 258.424988 -8.848400 0.000000
303.940430 258.424988 -8.848400 0.000000
317.423706 258.424988 -8.848400 0.000000
330.907043 258.424988 -8.848400 0.000000
344.390320 258.424988 -8.848400 0.000000
-343.257996 244.941696 -8.848400 0.000000
-329.774689 244.941696 -8.848400 0.000000
-316.291382 244.941696 -8.848400 0.000000
-302.808105 244.941696 -8.848400 0.000000
-289.324799 244.941696 -8.848400 0.000000
-275.841492 244.941696 -8.848400 0.000000
-262.358185 244.941696 -8.848400 0.000000
-248.874893 244.941696 -8.848400 0.000000
-235.391602 244.941696 -8.848400 0.000000
-221.908295 244.941696 -8.848400 0.000000
-208.424988 244.941696 -8.848400 0.000000
-194.941696 244.941696 -8.848400 0.000000
-181.458389 244.941696 -8.848400 0.000000
-167.975098 244.941696 -8.848400 0.000000
-154.491791 244.941696 -8.848400 3.032633
-141.008499 244.941696 -8.848400 3.297054
-127.525192 244.941696 -8.848400 4.532844
-114.041885 244.941696 -8.848400 5.576768
-100.558594 244.941696 -8.848400 5.448226
-87.075287 244.941696 -8.848400 4.909714
-73.591980 244.941696 -8.848400 4.897084
-60.108704 244.941696 -8.848400 4.641125
-46.625397 244.941696 -8.848400 5.276061
-33.142090 244.941696 -8.848400 5.347000
-19.658783 244.941696 -8.848400 5.001326
-6.175476 244.941696 -8.848400 5.007140
7.307800 244.941696 -8.848400 4.860737
20.791107 244.941696 -8.848400 4.781219
34.274414 244.941696 -8.848400 4.278634
47.757721 244.941696 -8.848400 4.191471
61.240997 244.941696 -8.848400 4.330821
74.724304 244.941696 -8.848400 4.337295
88.207611 244.941696 -8.848400 4.898509
101.690918 244.941696 -8.848400 4.958995
115.174225 244.941696 -8.848400 4.800347
128.657501 244.941696 -8.848400 4.739274
142.140808 244.941696 -8.848400 4.562743
155.624115 244.941696 -8.848400 4.516098
169.107422 244.941696 -8.848400 3.804854
182.590698 244.941696 -8.848400 0.000000
196.074036 244.941696 -8.848400 0.000000
209.557312 244.941696 -8.848400 0.000000
223.040588 244.941696 -8.848400 0.000000
236.523926 244.941696 -8.848400 0.000000
250.007202 244.941696 -8.848400 0.000000
263.490540 244.941696 -8.848400 0.000000
276.973816 244.941696 -8.848400 0.000000
290.457092 244.941696 -8.848400 0.000000
303.940430 244.941696 -8.848400 0.000000
317.423706 244.941696 -8.848400 0.000000
330.907043 244.941696 -8.848400 0.000000
344.390320 244.941696 -8.848400 0.000000
-343.257996 231.458389 -8.848400 0.000000
-329.774689 231.458389 -8.848400 0.000000
-316.291382 231.458389 -8.848400 0.000000
-302.808105 231.458389 -8.848400 0.000000
-289.324799 231.458389 -8.848400 0.000000
-275.841492 231.458389 -8.848400 0.000000
-262.358185 231.458389 -8.848400 0.000000
-248.874893 231.458389 -8.848400 0.000000
-235.391602 231.458389 -8.848400 0.000000
-221.908295 231.458389 -8.848400 0.000000
-208.424988 231.458389 -8.848400 0.000000
-194.941696 231.458389 -8.848400 0.000000
-181.458389 231.458389 -8.848400 0.000000
-167.975098 231.458389 -8.848400 0.000000
-154.491791 231.458389 -8.848400 0.000000
-141.008499 231.458389 -8.848400 3.638787
-127.525192 231.458389 -8.848400 4.525249
-114.041885 231.458389 -8.848400 5.282393
-100.558594 231.458389 -8.848400 5.554415
-87.075287 231.458389 -8.848400 5.068244
-73.591980 231.458389 -8.848400 4.670537
-60.108704 231.458389 -8.848400 4.915902
-46.625397 231.458389 -8.848400 4.555172
-33.142090 231.458389 -8.848400 4.887054
-19.658783 231.458389 -8.848400 4.972640
-6.175476 231.458389 -8.848400 5.076473
7.307800 231.458389 -8.848400 4.536860
20.791107 231.458389 -8.848400 4.398252
34.274414 231.458389 -8.848400 4.177319
47.757721 231.458389 -8.848400 4.572784
61.240997 231.458389 -8.848400 4.400306
74.724304 231.458389 -8.848400 4.475945
88.207611 231.458389 -8.848400 4.753778
101.690918 231.458389 -8.848400 4.571377
115.174225 231.458389 -8.848400 4.455219
128.657501 231.458389 -8.848400 4.654031
142.140808 231.458389 -8.848400 4.481988
155.624115 231.458389 -8.848400 4.048728
169.107422 231.458389 -8.848400 3.204941
182.590698 231.458389 -8.848400 0.000000
196.074036 231.458389 -8.848400 0.000000
209.557312 231.458389 -8.848400 0.000000
223.040588 231.458389 -8.848400 0.000000
236.523926 231.458389 -8.848400 0.000000
250.007202 231.458389 -8.848400 0.000000
263.490540 231.458389 -8.848400 0.000000
276.973816 231.458389 -8.848400 0.000000
290.457092 231.458389 -8.848400 0.000000
303.940430 231.458389 -8.848400 0.000000
317.423706 231.458389 -8.848400 0.000000
330.907043 231.458389 -8.848400 0.000000
344.390320 231.458389 -8.848400 0.000000
-343.257996 217.975098 -8.848400 0.000000
-329.774689 217.975098 -8.848400 0.000000
-316.291382 217.975098 -8.848400 0.000000
-302.808105 217.975098 -8.848400 0.000000
-289.324799 217.975098 -8.848400 0.000000
-275.841492 217.975098 -8.848400 0.000000
-262.358185 217.975098 -8.848400 0.000000
-248.874893 217.975098 -8.848400 0.000000
-235.391602 217.975098 -8.848400 0.000000
-221.908295 217.975098 -8.848400 0.000000
-208.424988 217.975098 -8.848400 0.000000
-194.941696 217.975098 -8.848400 0.000000
-181.458389 217.975098 -8.848400 0.000000
-167.975098 217.975098 -8.848400 0.000000
-154.491791 217.975098 -8.848400 3.062976
-141.008499 217.975098 -8.848400 3.756251
-127.525192 217.975098 -8.848400 4.660705
-114.041885 217.975098 -8.848400 5.225761
-100.558594 217.975098 -8.848400 5.237637
-87.075287 217.975098 -8.848400 5.071784
-73.591980 217.975098 -8.848400 4.884209
-60.108704 217.975098 -8.848400 4.802043
-46.625397 217.975098 -8.848400 5.134650
-33.142090 217.975098 -8.848400 4.578370
-19.658783 217.975098 -8.848400 4.443547
-6.175476 217.975098 -8.848400 4.403799
7.307800 217.975098 -8.848400 4.234436
20.791107 217.975098 -8.848400 4.315012
34.274414 217.975098 -8.848400 4.465627
47.757721 217.975098 -8.848400 4.490820
61.240997 217.975098 -8.848400 4.528835
74.724304 217.975098 -8.848400 4.702038
88.207611 217.975098 -8.848400 4.682775
101.690918 217.975098 -8.848400 4.557020
115.174225 217.975098 -8.848400 4.951977
128.657501 217.975098 -8.848400 4.744477
142.140808 217.975098 -8.848400 4.237749
155.624115 217.975098 -8.848400 3.640071
169.107422 217.975098 -8.848400 2.757968
182.590698 217.975098 -8.848400 0.000000
196.074036 217.975098 -8.848400 0.000000
209.557312 217.975098 -8.848400 0.000000
223.040588 217.975098 -8.848400 0.000000
236.523926 217.975098 -8.848400 0.000000
250.007202 217.975098 -8.848400 0.000000
263.490540 217.975098 -8.848400 0.000000
276.973816 217.975098 -8.848400 0.000000
290.457092 217.975098 -8.848400 0.000000
303.940430 217.975098 -8.848400 0.000000
317.423706 217.975098 -8.848400 0.000000
330.907043 217.975098 -8.848400 0.000000
344.390320 217.975098 -8.848400 0.000000
-343.257996 204.491791 -8.848400 0.000000
-329.774689 204.491791 -8.848400 0.000000
-316.291382 204.491791 -8.848400 0.000000
-302.808105 204.491791 -8.848400 0.000000
-289.324799 204.491791 -8.848400 0.000000
-275.841492 204.491791 -8.848400 0.000000
-262.358185 204.491791 -8.848400 0.000000
-248.874893 204.491791 -8.848400 0.000000
-235.391602 204.491791 -8.848400 0.000000
-221.908295 204.491791 -8.848400 0.000000
-208.424988 204.491791 -8.848400 0.000000
-194.941696 204.491791 -8.848400 0.000000
-181.458389 204.491791 -8.848400 0.000000
-167.975098 204.491791 -8.848400 0.000000
-154.491791 204.491791 -8.848400 3.025620
-141.008499 204.491791 -8.848400 3.972002
-127.525192 204.491791 -8.848400 4.869548
-114.041885 204.491791 -8.848400 5.268612
-100.558594 204.491791 -8.848400 5.769923
-87.075287 204.491791 -8.848400 5.665623
-73.591980 204.491791 -8.848400 5.627758
-60.108704 204.491791 -8.848400 5.142217
-46.625397 204.491791 -8.848400 5.033610
-33.142090 204.491791 -8.848400 4.829749
-19.658783 204.491791 -8.848400 4.442039
-6.175476 204.491791 -8.848400 4.127962
7.307800 204.491791 -8.848400 4.229978
20.791107 204.491791 -8.848400 4.948468
34.274414 204.491791 -8.848400 4.906312
47.757721 204.491791 -8.848400 5.051307
61.240997 204.491791 -8.848400 4.763143
74.724304 204.491791 -8.848400 5.134665
88.207611 204.491791 -8.848400 5.022495
101.690918 204.491791 -8.848400 4.825531
115.174225 204.491791 -8.848400 5.028577
128.657501 204.491791 -8.848400 4.590317
142.140808 204.491791 -8.848400 3.570080
155.624115 204.491791 -8.848400 2.935843
169.107422 204.491791 -8.848400 2.714332
182.590698 204.491791 -8.848400 0.000000
196.074036 204.491791 -8.848400 0.000000
209.557312 204.491791 -8.848400 0.000000
223.040588 204.491791 -8.848400 0.000000
236.523926 204.491791 -8.848400 0.000000
250.007202 204.491791 -8.848400 0.000000
263.490540 204.491791 -8.848400 0.000000
276.973816 204.491791 -8.848400 0.000000
290.457092 204.491791 -8.848400 0.000000
303.940430 204.491791 -8.848400 0.000000
317.423706 204.491791 -8.848400 0.000000
330.907043 204.491791 -8.848400 0.000000
344.390320 204.491791 -8.848400 0.000000
-343.257996 191.008499 -8.848400 0.000000
-329.774689 191.008499 -8.848400 0.000000
-316.291382 191.008499 -8.848400 0.000000
-302.808105 191.008499 -8.848400 0.000000
-289.324799 191.008499 -8.848400 0.000000
-275.841492 191.008499 -8.848400 0.000000
-262.358185 191.008499 -8.848400 0.000000
-248.874893 191.008499 -8.848400 0.000000
-235.391602 191.008499 -8.848400 0.000000
-221.908295 191.008499 -8.848400 0.000000
-208.424988 191.008499 -8.848400 0.000000
-194.941696 191.008499 -8.848400 0.000000
-181.458389 191.008499 -8.848400 0.000000
-167.975098 191.008499 -8.848400 0.000000
-154.491791 191.008499 -8.848400 3.098337
-141.008499 191.008499 -8.848400 4.073417
-127.525192 191.008499 -8.848400 4.796131
-114.041885 191.008499 -8.848400 5.564939
-100.558594 191.008499 -8.848400 6.098201
-87.075287 191.008499 -8.848400 6.159203
-73.591980 191.008499 -8.848400 5.991552
-60.108704 191.008499 -8.848400 5.272907
-46.625397 191.008499 -8.848400 4.886375
-33.142090 191.008499 -8.848400 4.779631
-19.658783 191.008499 -8.848400 4.285256
-6.175476 191.008499 -8.848400 4.188751
7.307800 191.008499 -8.848400 4.445182
20.791107 191.008499 -8.848400 4.585478
34.274414 191.008499 -8.848400 5.022239
47.757721 191.008499 -8.848400 4.972805
61.240997 191.008499 -8.848400 5.005640
74.724304 191.008499 -8.848400 5.133272
88.207611 191.008499 -8.848400 4.818200
101.690918 191.008499 -8.848400 4.674079
115.174225 191.008499 -8.848400 4.408078
128.657501 191.008499 -8.848400 3.555052
142.140808 191.008499 -8.848400 3.136078
155.624115 191.008499 -8.848400 2.679265
169.107422 191.008499 -8.848400 0.000000
182.590698 191.008499 -8.848400 0.000000
196.074036 191.008499 -8.848400 0.000000
209.557312 191.008499 -8.848400 0.000000
223.040588 191.008499 -8.848400 0.000000
236.523926 191.008499 -8.848400 0.000000
250.007202 191.008499 -8.848400 0.000000
263.490540 191.008499 -8.848400 0.000000
276.973816 191.008499 -8.848400 0.000000
290.457092 191.008499 -8.848400 0.000000
303.940430 191.008499 -8.848400 0.000000
317.423706 191.008499 -8.848400 0.000000
330.907043 191.008499 -8.848400 0.000000
344.390320 191.008499 -8.848400 0.000000
-343.257996 177.525192 -8.848400 0.000000
-329.774689 177.525192 -8.848400 0.000000
-316.291382 177.525192 -8.848400 0.000000
-302.808105 177.525192 -8.848400 0.000000
-289.324799 177.525192 -8.848400 0.000000
-275.841492 177.525192 -8.848400 0.000000
-262.358185 177.525192 -8.848400 0.000000
-248.874893 177.525192 -8.848400 0.000000
-235.391602 177.525192 -8.848400 0.000000
-221.908295 177.525192 -8.848400 0.000000
-208.424988 177.525192 -8.848400 0.000000
-194.941696 177.525192 -8.848400 0.000000
-181.458389 177.525192 -8.848400 0.000000
-167.975098 177.525192 -8.848400 0.000000
-154.491791 177.525192 -8.848400 3.580839
-141.008499 177.525192 -8.848400 4.414352
-127.525192 177.525192 -8.848400 5.136267
-114.041885 177.525192 -8.848400 5.642859
-100.558594 177.525192 -8.848400 6.609566
-87.075287 177.525192 -8.848400 6.712732
-73.591980 177.525192 -8.848400 6.573779
-60.108704 177.525192 -8.848400 5.311587
-46.625397 177.525192 -8.848400 4.781715
-33.142090 177.525192 -8.848400 4.610587
-19.658783 177.525192 -8.848400 4.128271
-6.175476 177.525192 -8.848400 3.886214
7.307800 177.525192 -8.848400 4.062033
20.791107 177.525192 -8.848400 4.531250
34.274414 177.525192 -8.848400 4.586837
47.757721 177.525192 -8.848400 5.041035
61.240997 177.525192 -8.848400 4.994417
74.724304 177.525192 -8.848400 4.753593
88.207611 177.525192 -8.848400 4.639363
101.690918 177.525192 -8.848400 3.981343
115.174225 177.525192 -8.848400 3.532084
128.657501 177.525192 -8.848400 2.792319
142.140808 177.525192 -8.848400 2.598293
155.624115 177.525192 -8.848400 0.000000
169.107422 177.525192 -8.848400 0.000000
182.590698 177.525192 -8.848400 0.000000
196.074036 177.525192 -8.848400 0.000000
209.557312 177.525192 -8.848400 0.000000
223.040588 177.525192 -8.848400 0.000000
236.523926 177.525192 -8.848400 0.000000
250.007202 177.525192 -8.848400 0.000000
263.490540 177.525192 -8.848400 0.000000
276.973816 177.525192 -8.848400 0.000000
290.457092 177.525192 -8.848400 0.000000
303.940430 177.525192 -8.848400 0.000000
317.423706 177.525192 -8.848400 0.000000
330.907043 177.525192 -8.848400 0.000000
344.390320 177.525192 -8.848400 0.000000
-343.257996 164.041885 -8.848400 0.000000
-329.774689 164.041885 -8.848400 0.000000
-316.291382 164.041885 -8.848400 0.000000
-302.808105 164.041885 -8.848400 0.000000
-289.324799 164.041885 -8.848400 0.000000
-275.841492 164.041885 -8.848400 0.000000
-262.358185 164.041885 -8.848400 0.000000
-248.874893 164.041885 -8.848400 0.000000
-235.391602 164.041885 -8.848400 0.000000
-221.908295 164.041885 -8.848400 0.000000
-208.424988 164.041885 -8.848400 0.000000
-194.941696 164.041885 -8.848400 0.000000
-181.458389 164.041885 -8.848400 0.000000
-167.975098 164.041885 -8.848400 0.000000
-154.491791 164.041885 -8.848400 3.551471
-141.008499 164.041885 -8.848400 4.740691
-127.525192 164.041885 -8.848400 5.400730
-114.041885 164.041885 -8.848400 6.164450
-100.558594 164.041885 -8.848400 6.934122
-87.075287 164.041885 -8.848400 6.837235
-73.591980 164.041885 -8.848400 6.967513
-60.108704 164.041885 -8.848400 5.915872
-46.625397 164.041885 -8.848400 4.990111
-33.142090 164.041885 -8.848400 4.458911
-19.658783 164.041885 -8.848400 3.794368
-6.175476 164.041885 -8.848400 3.998382
7.307800 164.041885 -8.848400 4.265524
20.791107 164.041885 -8.848400 4.549222
34.274414 164.041885 -8.848400 4.873048
47.757721 164.041885 -8.848400 4.720218
61.240997 164.041885 -8.848400 5.159330
74.724304 164.041885 -8.848400 4.712983
88.207611 164.041885 -8.848400 4.093417
101.690918 164.041885 -8.848400 3.349702
115.174225 164.041885 -8.848400 2.850695
128.657501 164.041885 -8.848400 0.000000
142.140808 164.041885 -8.848400 0.000000
155.624115 164.041885 -8.848400 0.000000
169.107422 164.041885 -8.848400 0.000000
182.590698 164.041885 -8.848400 0.000000
196.074036 164.041885 -8.848400 0.000000
209.557312 164.041885 -8.848400 0.000000
223.040588 164.041885 -8.848400 0.000000
236.523926 164.041885 -8.848400 0.000000
250.007202 164.041885 -8.848400 0.000000
263.490540 164.041885 -8.848400 0.000000
276.973816 164.041885 -8.848400 0.000000
290.457092 164.041885 -8.848400 0.000000
303.940430 164.041885 -8.848400 0.000000
317.423706 164.041885 -8.848400 0.000000
330.907043 164.041885 -8.848400 0.000000
344.390320 164.041885 -8.848400 0.000000
-343.257996 150.558594 -8.848400 0.000000
-329.774689 150.558594 -8.848400 0.000000
-316.291382 150.558594 -8.848400 0.000000
-302.808105 150.558594 -8.848400 0.000000
-289.324799 150.558594 -8.848400 0.000000
-275.841492 150.558594 -8.848400 0.000000
-262.358185 150.558594 -8.848400 0.000000
-248.874893 150.558594 -8.848400 0.000000
-235.391602 150.558594 -8.848400 0.000000
-221.908295 150.558594 -8.848400 0.000000
-208.424988 150.558594 -8.848400 0.000000
-194.941696 150.558594 -8.848400 0.000000
-181.458389 150.558594 -8.848400 0.000000
-167.975098 150.558594 -8.848400 0.000000
-154.491791 150.558594 -8.848400 3.866056
-141.008499 150.558594 -8.848400 5.071744
-127.525192 150.558594 -8.848400 5.922987
-114.041885 150.558594 -8.848400 6.571310
-100.558594 150.558594 -8.848400 6.861643
-87.075287 150.558594 -8.848400 7.091867
-73.591980 150.558594 -8.848400 6.898509
-60.108704 150.558594 -8.848400 6.069126
-46.625397 150.558594 -8.848400 5.176888
-33.142090 150.558594 -8.848400 4.317303
-19.658783 150.558594 -8.848400 4.150437
-6.175476 150.558594 -8.848400 4.123071
7.307800 150.558594 -8.848400 4.579412
20.791107 150.558594 -8.848400 4.862545
34.274414 150.558594 -8.848400 4.744511
47.757721 150.558594 -8.848400 5.189933
61.240997 150.558594 -8.848400 4.951017
74.724304 150.558594 -8.848400 4.580206
88.207611 150.558594 -8.848400 4.036048
101.690918 150.558594 -8.848400 2.615256
115.174225 150.558594 -8.848400 0.000000
128.657501 150.558594 -8.848400 0.000000
142.140808 150.558594 -8.848400 0.000000
155.624115 150.558594 -8.848400 0.000000
169.107422 150.558594 -8.848400 0.000000
182.590698 150.558594 -8.848400 0.000000
196.074036 150.558594 -8.848400 0.000000
209.557312 150.558594 -8.848400 0.000000
223.040588 150.558594 -8.848400 0.000000
236.523926 150.558594 -8.848400 0.000000
250.007202 150.558594 -8.848400 0.000000
263.490540 150.558594 -8.848400 0.000000
276.973816 150.558594 -8.848400 0.000000
290.457092 150.558594 -8.848400 0.000000
303.940430 150.558594 -8.848400 0.000000
317.423706 150.558594 -8.848400 0.000000
330.907043 150.558594 -8.848400 0.000000
344.390320 150.558594 -8.848400 0.000000
-343.257996 137.075287 -8.848400 0.000000
-329.774689 137.075287 -8.848400 0.000000
-316.291382 137.075287 -8.848400 0.000000
-302.808105 137.075287 -8.848400 0.000000
-289.324799 137.075287 -8.848400 0.000000
-275.841492 137.075287 -8.848400 0.000000
-262.358185 137.075287 -8.848400 0.000000
-248.874893 137.075287 -8.848400 0.000000
-235.391602 137.075287 -8.848400 0.000000
-221.908295 137.075287 -8.848400 0.000000
-208.424988 137.075287 -8.848400 0.000000
-194.941696 137.075287 -8.848400 0.000000
-181.458389 137.075287 -8.848400 0.000000
-167.975098 137.075287 -8.848400 0.000000
-154.491791 137.075287 -8.848400 4.494426
-141.008499 137.075287 -8.848400 5.531674
-127.525192 137.075287 -8.848400 5.949154
-114.041885 137.075287 -8.848400 6.862506
-100.558594 137.075287 -8.848400 7.402853
-87.075287 137.075287 -8.848400 7.529007
-73.591980 137.075287 -8.848400 7.129873
-60.108704 137.075287 -8.848400 6.047467
-46.625397 137.075287 -8.848400 5.396079
-33.142090 137.075287 -8.848400 4.588999
-19.658783 137.075287 -8.848400 4.774303
-6.175476 137.075287 -8.848400 4.307498
7.307800 137.075287 -8.848400 4.482392
20.791107 137.075287 -8.848400 4.852435
34.274414 137.075287 -8.848400 5.156890
47.757721 137.075287 -8.848400 5.352435
61.240997 137.075287 -8.848400 5.323665
74.724304 137.075287 -8.848400 4.804074
88.207611 137.075287 -8.848400 4.117753
101.690918 137.075287 -8.848400 0.000000
115.174225 137.075287 -8.848400 0.000000
128.657501 137.075287 -8.848400 0.000000
142.140808 137.075287 -8.848400 0.000000
155.624115 137.075287 -8.848400 0.000000
169.107422 137.075287 -8.848400 0.000000
182.590698 137.075287 -8.848400 0.000000
196.074036 137.075287 -8.848400 0.000000
209.557312 137.075287 -8.848400 0.000000
223.040588 137.075287 -8.848400 0.000000
236.523926 137.075287 -8.848400 0.000000
250.007202 137.075287 -8.848400 0.000000
263.490540 137.075287 -8.848400 0.000000
276.973816 137.075287 -8.848400 0.000000
290.457092 137.075287 -8.848400 0.000000
303.940430 137.075287 -8.848400 0.000000
317.423706 137.075287 -8.848400 0.000000
330.907043 137.075287 -8.848400 0.000000
344.390320 137.075287 -8.848400 0.000000
-343.257996 123.591980 -8.848400 0.000000
-329.774689 123.591980 -8.848400 0.000000
-316.291382 123.591980 -8.848400 0.000000
-302.808105 123.591980 -8.848400 0.000000
-289.324799 123.591980 -8.848400 0.000000
-275.841492 123.591980 -8.848400 0.000000
-262.358185 123.591980 -8.848400 0.000000
-248.874893 123.591980 -8.848400 0.000000
-235.391602 123.591980 -8.848400 0.000000
-221.908295 123.591980 -8.848400 0.000000
-208.424988 123.591980 -8.848400 0.000000
-194.941696 123.591980 -8.848400 0.000000
-181.458389 123.591980 -8.848400 0.000000
-167.975098 123.591980 -8.848400 0.000000
-154.491791 123.591980 -8.848400 5.157283
-141.008499 123.591980 -8.848400 6.119092
-127.525192 123.591980 -8.848400 7.433478
-114.041885 123.591980 -8.848400 7.834516
-100.558594 123.591980 -8.848400 8.843262
-87.075287 123.591980 -8.848400 8.542806
-73.591980 123.591980 -8.848400 8.147065
-60.108704 123.591980 -8.848400 6.877496
-46.625397 123.591980 -8.848400 5.558521
-33.142090 123.591980 -8.848400 4.977195
-19.658783 123.591980 -8.848400 4.661753
-6.175476 123.591980 -8.848400 4.647242
7.307800 123.591980 -8.848400 4.610345
20.791107 123.591980 -8.848400 4.681097
34.274414 123.591980 -8.848400 5.444510
47.757721 123.591980 -8.848400 5.807920
61.240997 123.591980 -8.848400 5.403278
74.724304 123.591980 -8.848400 4.682754
88.207611 123.591980 -8.848400 3.911674
101.690918 123.591980 -8.848400 0.000000
115.174225 123.591980 -8.848400 0.000000
128.657501 123.591980 -8.848400 0.000000
142.140808 123.591980 -8.848400 0.000000
155.624115 123.591980 -8.848400 0.000000
169.107422 123.591980 -8.848400 0.000000
182.590698 123.591980 -8.848400 0.000000
196.074036 123.591980 -8.848400 0.000000
209.557312 123.591980 -8.848400 0.000000
223.040588 123.591980 -8.848400 0.000000
236.523926 123.591980 -8.848400 0.000000
250.007202 123.591980 -8.848400 0.000000
263.490540 123.591980 -8.848400 0.000000
276.973816 123.591980 -8.848400 0.000000
290.457092 123.591980 -8.848400 0.000000
303.940430 123.591980 -8.848400 0.000000
317.423706 123.591980 -8.848400 0.000000
330.907043 123.591980 -8.848400 0.000000
344.390320 123.591980 -8.848400 0.000000
-343.257996 110.108704 -8.848400 0.000000
-329.774689 110.108704 -8.848400 0.000000
-316.291382 110.108704 -8.848400 0.000000
-302.808105 110.108704 -8.848400 0.000000
-289.324799 110.108704 -8.848400 0.000000
-275.841492 110.108704 -8.848400 0.000000
-262.358185 110.108704 -8.848400 0.000000
-248.874893 110.108704 -8.848400 0.000000
-235.391602 110.108704 -8.848400 0.000000
-221.908295 110.108704 -8.848400 0.000000
-208.424988 110.108704 -8.848400 0.000000
-194.941696 110.108704 -8.848400 0.000000
-181.458389 110.108704 -8.848400 0.000000
-167.975098 110.108704 -8.848400 0.000000
-154.491791 110.108704 -8.848400 6.116199
-141.008499 110.108704 -8.848400 7.005858
-127.525192 110.108704 -8.848400 8.487348
-114.041885 110.108704 -8.848400 9.313336
-100.558594 110.108704 -8.848400 9.840303
-87.075287 110.108704 -8.848400 9.257799
-73.591980 110.108704 -8.848400 8.760702
-60.108704 110.108704 -8.848400 7.552308
-46.625397 110.108704 -8.848400 6.024091
-33.142090 110.108704 -8.848400 4.967203
-19.658783 110.108704 -8.848400 4.356032
-6.175476 110.108704 -8.848400 4.798357
7.307800 110.108704 -8.848400 4.820883
20.791107 110.108704 -8.848400 5.081787
34.274414 110.108704 -8.848400 6.060713
47.757721 110.108704 -8.848400 6.392703
61.240997 110.108704 -8.848400 6.081803
74.724304 110.108704 -8.848400 5.438682
88.207611 110.108704 -8.848400 4.597220
101.690918 110.108704 -8.848400 0.000000
115.174225 110.108704 -8.848400 0.000000
128.657501 110.108704 -8.848400 0.000000
142.140808 110.108704 -8.848400 0.000000
155.624115 110.108704 -8.848400 0.000000
169.107422 110.108704 -8.848400 0.000000
182.590698 110.108704 -8.848400 0.000000
196.074036 110.108704 -8.848400 0.000000
209.557312 110.108704 -8.848400 0.000000
223.040588 110.108704 -8.848400 0.000000
236.523926 110.108704 -8.848400 0.000000
250.007202 110.108704 -8.848400 0.000000
263.490540 110.108704 -8.848400 0.000000
276.973816 110.108704 -8.848400 0.000000
290.457092 110.108704 -8.848400 0.000000
303.940430 110.108704 -8.848400 0.000000
317.423706 110.108704 -8.848400 0.000000
330.907043 110.108704 -8.848400 0.000000
344.390320 110.108704 -8.848400 0.000000
-343.257996 96.625397 -8.848400 0.000000
-329.774689 96.625397 -8.848400 0.000000
-316.291382 96.625397 -8.848400 0.000000
-302.808105 96.625397 -8.848400 0.000000
-289.324799 96.625397 -8.848400 0.000000
-275.841492 96.625397 -8.848400 0.000000
-262.358185 96.625397 -8.848400 0.000000
-248.874893 96.625397 -8.848400 0.000000
-235.391602 96.625397 -8.848400 0.000000
-221.908295 96.625397 -8.848400 0.000000
-208.424988 96.625397 -8.848400 0.000000
-194.941696 96.625397 -8.848400 0.000000
-181.458389 96.625397 -8.848400 0.000000
-167.975098 96.625397 -8.848400 0.000000
-154.491791 96.625397 -8.848400 7.126915
-141.008499 96.625397 -8.848400 8.463898
-127.525192 96.625397 -8.848400 9.030312
-114.041885 96.625397 -8.848400 10.484342
-100.558594 96.625397 -8.848400 11.229919
-87.075287 96.625397 -8.848400 9.776372
-73.591980 96.625397 -8.848400 8.410683
-60.108704 96.625397 -8.848400 7.269630
-46.625397 96.625397 -8.848400 6.360842
-33.142090 96.625397 -8.848400 5.312418
-19.658783 96.625397 -8.848400 4.512904
-6.175476 96.625397 -8.848400 4.659447
7.307800 96.625397 -8.848400 4.797170
20.791107 96.625397 -8.848400 5.632688
34.274414 96.625397 -8.848400 6.469032
47.757721 96.625397 -8.848400 7.722972
61.240997 96.625397 -8.848400 6.704217
74.724304 96.625397 -8.848400 6.371443
88.207611 96.625397 -8.848400 5.559968
101.690918 96.625397 -8.848400 0.000000
115.174225 96.625397 -8.848400 0.000000
128.657501 96.625397 -8.848400 0.000000
142.140808 96.625397 -8.848400 0.000000
155.624115 96.625397 -8.848400 0.000000
169.107422 96.625397 -8.848400 0.000000
182.590698 96.625397 -8.848400 0.000000
196.074036 96.625397 -8.848400 0.000000
209.557312 96.625397 -8.848400 0.000000
223.040588 96.625397 -8.848400 0.000000
236.523926 96.625397 -8.848400 0.000000
250.007202 96.625397 -8.848400 0.000000
263.490540 96.625397 -8.848400 0.000000
276.973816 96.625397 -8.848400 0.000000
290.457092 96.625397 -8.848400 0.000000
303.940430 96.625397 -8.848400 0.000000
317.423706 96.625397 -8.848400 0.000000
330.907043 96.625397 -8.848400 0.000000
344.390320 96.625397 -8.848400 0.000000
-343.257996 83.142090 -8.848400 0.000000
-329.774689 83.142090 -8.848400 0.000000
-316.291382 83.142090 -8.848400 0.000000
-302.808105 83.142090 -8.848400 0.000000
-289.324799 83.142090 -8.848400 0.000000
-275.841492 83.142090 -8.848400 0.000000
-262.358185 83.142090 -8.848400 0.000000
-248.874893 83.142090 -8.848400 0.000000
-235.391602 83.142090 -8.848400 0.000000
-221.908295 83.142090 -8.848400 0.000000
-208.424988 83.142090 -8.848400 0.000000
-194.941696 83.142090 -8.848400 0.000000
-181.458389 83.142090 -8.848400 0.000000
-167.975098 83.142090 -8.848400 0.000000
-154.491791 83.142090 -8.848400 0.000000
-141.008499 83.142090 -8.848400 9.396984
-127.525192 83.142090 -8.848400 10.448566
-114.041885 83.142090 -8.848400 11.263905
-100.558594 83.142090 -8.848400 11.125070
-87.075287 83.142090 -8.848400 10.323484
-73.591980 83.142090 -8.848400 8.687380
-60.108704 83.142090 -8.848400 7.313034
-46.625397 83.142090 -8.848400 6.729877
-33.142090 83.142090 -8.848400 5.602131
-19.658783 83.142090 -8.848400 4.597152
-6.175476 83.142090 -8.848400 4.900107
7.307800 83.142090 -8.848400 5.282804
20.791107 83.142090 -8.848400 5.602176
34.274414 83.142090 -8.848400 6.188550
47.757721 83.142090 -8.848400 7.669231
61.240997 83.142090 -8.848400 7.552435
74.724304 83.142090 -8.848400 7.118243
88.207611 83.142090 -8.848400 6.402131
101.690918 83.142090 -8.848400 0.000000
115.174225 83.142090 -8.848400 0.000000
128.657501 83.142090 -8.848400 0.000000
142.140808 83.142090 -8.848400 0.000000
155.624115 83.142090 -8.848400 0.000000
169.107422 83.142090 -8.848400 0.000000
182.590698 83.142090 -8.848400 0.000000
196.074036 83.142090 -8.848400 0.000000
209.557312 83.142090 -8.848400 0.000000
223.040588 83.142090 -8.848400 0.000000
236.523926 83.142090 -8.848400 0.000000
250.007202 83.142090 -8.848400 0.000000
263.490540 83.142090 -8.848400 0.000000
276.973816 83.142090 -8.848400 0.000000
290.457092 83.142090 -8.848400 0.000000
303.940430 83.142090 -8.848400 0.000000
317.423706 83.142090 -8.848400 0.000000
330.907043 83.142090 -8.848400 0.000000
344.390320 83.142090 -8.848400 0.000000
-343.257996 69.658783 -8.848400 0.000000
-329.774689 69.658783 -8.848400 0.000000
-316.291382 69.658783 -8.848400 0.000000
-302.808105 69.658783 -8.848400 0.000000
-289.324799 69.658783 -8.848400 0.000000
-275.841492 69.658783 -8.848400 0.000000
-262.358185 69.658783 -8.848400 0.000000
-248.874893 69.658783 -8.848400 0.000000
-235.391602 69.658783 -8.848400 0.000000
-221.908295 69.658783 -8.848400 0.000000
-208.424988 69.658783 -8.848400 0.000000
-194.941696 69.658783 -8.848400 0.000000
-181.458389 69.658783 -8.848400 0.000000
-167.975098 69.658783 -8.848400 0.000000
-154.491791 69.658783 -8.848400 0.000000
-141.008499 69.658783 -8.848400 9.712801
-127.525192 69.658783 -8.848400 10.631246
-114.041885 69.658783 -8.848400 11.091426
-100.558594 69.658783 -8.848400 11.107928
-87.075287 69.658783 -8.848400 11.012959
-73.591980 69.658783 -8.848400 9.172821
-60.108704 69.658783 -8.848400 7.592315
-46.625397 69.658783 -8.848400 6.880179
-33.142090 69.658783 -8.848400 5.962881
-19.658783 69.658783 -8.848400 5.165875
-6.175476 69.658783 -8.848400 5.088576
7.307800 69.658783 -8.848400 5.243528
20.791107 69.658783 -8.848400 5.530049
34.274414 69.658783 -8.848400 6.134507
47.757721 69.658783 -8.848400 6.702856
61.240997 69.658783 -8.848400 7.732520
74.724304 69.658783 -8.848400 8.286376
88.207611 69.658783 -8.848400 7.118950
101.690918 69.658783 -8.848400 0.000000
115.174225 69.658783 -8.848400 0.000000
128.657501 69.658783 -8.848400 0.000000
142.140808 69.658783 -8.848400 0.000000
155.624115 69.658783 -8.848400 0.000000
169.107422 69.658783 -8.848400 0.000000
182.590698 69.658783 -8.848400 0.000000
196.074036 69.658783 -8.848400 0.000000
209.557312 69.658783 -8.848400 0.000000
223.040588 69.658783 -8.848400 0.000000
236.523926 69.658783 -8.848400 0.000000
250.007202 69.658783 -8.848400 0.000000
263.490540 69.658783 -8.848400 0.000000
276.973816 69.658783 -8.848400 0.000000
290.457092 69.658783 -8.848400 0.000000
303.940430 69.658783 -8.848400 0.000000
317.423706 69.658783 -8.848400 0.000000
330.907043 69.658783 -8.848400 0.000000
344.390320 69.658783 -8.848400 0.000000
-343.257996 56.175476 -8.848400 0.000000
-329.774689 56.175476 -8.848400 0.000000
-316.291382 56.175476 -8.848400 0.000000
-302.808105 56.175476 -8.848400 0.000000
-289.324799 56.175476 -8.848400 0.000000
-275.841492 56.175476 -8.848400 0.000000
-262.358185 56.175476 -8.848400 0.000000
-248.874893 56.175476 -8.848400 0.000000
-235.391602 56.175476 -8.848400 0.000000
-221.908295 56.175476 -8.848400 0.000000
-208.424988 56.175476 -8.848400 0.000000
-194.941696 56.175476 -8.848400 0.000000
-181.458389 56.175476 -8.848400 0.000000
-167.975098 56.175476 -8.848400 0.000000
-154.491791 56.175476 -8.848400 0.000000
-141.008499 56.175476 -8.848400 10.154207
-127.525192 56.175476 -8.848400 10.948021
-114.041885 56.175476 -8.848400 11.283647
-100.558594 56.175476 -8.848400 11.680715
-87.075287 56.175476 -8.848400 12.026741
-73.591980 56.175476 -8.848400 10.590347
-60.108704 56.175476 -8.848400 9.094192
-46.625397 56.175476 -8.848400 6.971412
-33.142090 56.175476 -8.848400 6.057627
-19.658783 56.175476 -8.848400 5.441515
-6.175476 56.175476 -8.848400 4.948912
7.307800 56.175476 -8.848400 5.090843
20.791107 56.175476 -8.848400 5.550143
34.274414 56.175476 -8.848400 5.594043
47.757721 56.175476 -8.848400 6.785030
61.240997 56.175476 -8.848400 7.666165
74.724304 56.175476 -8.848400 7.901548
88.207611 56.175476 -8.848400 7.322942
101.690918 56.175476 -8.848400 6.187855
115.174225 56.175476 -8.848400 0.000000
128.657501 56.175476 -8.848400 0.000000
142.140808 56.175476 -8.848400 0.000000
155.624115 56.175476 -8.848400 0.000000
169.107422 56.175476 -8.848400 0.000000
182.590698 56.175476 -8.848400 0.000000
196.074036 56.175476 -8.848400 0.000000
209.557312 56.175476 -8.848400 0.000000
223.040588 56.175476 -8.848400 0.000000
236.523926 56.175476 -8.848400 0.000000
250.007202 56.175476 -8.848400 0.000000
263.490540 56.175476 -8.848400 0.000000
276.973816 56.175476 -8.848400 0.000000
290.457092 56.175476 -8.848400 0.000000
303.940430 56.175476 -8.848400 0.000000
317.423706 56.175476 -8.848400 0.000000
330.907043 56.175476 -8.848400 0.000000
344.390320 56.175476 -8.848400 0.000000
-343.257996 42.692200 -8.848400 0.000000
-329.774689 42.692200 -8.848400 0.000000
-316.291382 42.692200 -8.848400 0.000000
-302.808105 42.692200 -8.848400 0.000000
-289.324799 42.692200 -8.848400 0.000000
-275.841492 42.692200 -8.848400 0.000000
-262.358185 42.692200 -8.848400 0.000000
-248.874893 42.692200 -8.848400 0.000000
-235.391602 42.692200 -8.848400 0.000000
-221.908295 42.692200 -8.848400 0.000000
-208.424988 42.692200 -8.848400 0.000000
-194.941696 42.692200 -8.848400 0.000000
-181.458389 42.692200 -8.848400 0.000000
-167.975098 42.692200 -8.848400 0.000000
-154.491791 42.692200 -8.848400 0.000000
-141.008499 42.692200 -8.848400 11.004355
-127.525192 42.692200 -8.848400 11.454807
-114.041885 42.692200 -8.848400 11.535424
-100.558594 42.692200 -8.848400 11.904354
-87.075287 42.692200 -8.848400 10.102982
-73.591980 42.692200 -8.848400 9.368201
-60.108704 42.692200 -8.848400 8.721484
-46.625397 42.692200 -8.848400 7.143318
-33.142090 42.692200 -8.848400 6.252216
-19.658783 42.692200 -8.848400 5.444346
-6.175476 42.692200 -8.848400 5.509733
7.307800 42.692200 -8.848400 5.578567
20.791107 42.692200 -8.848400 5.166606
34.274414 42.692200 -8.848400 5.683412
47.757721 42.692200 -8.848400 6.924337
61.240997 42.692200 -8.848400 7.187418
74.724304 42.692200 -8.848400 7.462347
88.207611 42.692200 -8.848400 7.443163
101.690918 42.692200 -8.848400 6.197424
115.174225 42.692200 -8.848400 0.000000
128.657501 42.692200 -8.848400 0.000000
142.140808 42.692200 -8.848400 0.000000
155.624115 42.692200 -8.848400 0.000000
169.107422 42.692200 -8.848400 0.000000
182.590698 42.692200 -8.848400 0.000000
196.074036 42.692200 -8.848400 0.000000
209.557312 42.692200 -8.848400 0.000000
223.040588 42.692200 -8.848400 0.000000
236.523926 42.692200 -8.848400 0.000000
250.007202 42.692200 -8.848400 0.000000
263.490540 42.692200 -8.848400 0.000000
276.973816 42.692200 -8.848400 0.000000
290.457092 42.692200 -8.848400 0.000000
303.940430 42.692200 -8.848400 0.000000
317.423706 42.692200 -8.848400 0.000000
330.907043 42.692200 -8.848400 0.000000
344.390320 42.692200 -8.848400 0.000000
-343.257996 29.208893 -8.848400 0.000000
-329.774689 29.208893 -8.848400 0.000000
-316.291382 29.208893 -8.848400 0.000000
-302.808105 29.208893 -8.848400 0.000000
-289.324799 29.208893 -8.848400 0.000000
-275.841492 29.208893 -8.848400 0.000000
-262.358185 29.208893 -8.848400 0.000000
-248.874893 29.208893 -8.848400 0.000000
-235.391602 29.208893 -8.848400 0.000000
-221.908295 29.208893 -8.848400 0.000000
-208.424988 29.208893 -8.848400 0.000000
-194.941696 29.208893 -8.848400 0.000000
-181.458389 29.208893 -8.848400 0.000000
-167.975098 29.208893 -8.848400 0.000000
-154.491791 29.208893 -8.848400 0.000000
-141.008499 29.208893 -8.848400 0.000000
-127.525192 29.208893 -8.848400 11.962505
-114.041885 29.208893 -8.848400 11.749346
-100.558594 29.208893 -8.848400 11.511325
-87.075287 29.208893 -8.848400 10.681345
-73.591980 29.208893 -8.848400 9.302428
-60.108704 29.208893 -8.848400 7.803523
-46.625397 29.208893 -8.848400 6.883173
-33.142090 29.208893 -8.848400 6.012403
-19.658783 29.208893 -8.848400 5.148319
-6.175476 29.208893 -8.848400 5.366445
7.307800 29.208893 -8.848400 4.957701
20.791107 29.208893 -8.848400 4.883884
34.274414 29.208893 -8.848400 5.611511
47.757721 29.208893 -8.848400 5.560208
61.240997 29.208893 -8.848400 6.313625
74.724304 29.208893 -8.848400 7.353509
88.207611 29.208893 -8.848400 8.007395
101.690918 29.208893 -8.848400 6.903746
115.174225 29.208893 -8.848400 5.267721
128.657501 29.208893 -8.848400 0.000000
142.140808 29.208893 -8.848400 0.000000
155.624115 29.208893 -8.848400 0.000000
169.107422 29.208893 -8.848400 0.000000
182.590698 29.208893 -8.848400 0.000000
196.074036 29.208893 -8.848400 0.000000
209.557312 29.208893 -8.848400 0.000000
223.040588 29.208893 -8.848400 0.000000
236.523926 29.208893 -8.848400 0.000000
250.007202 29.208893 -8.848400 0.000000
263.490540 29.208893 -8.848400 0.000000
276.973816 29.208893 -8.848400 0.000000
290.457092 29.208893 -8.848400 0.000000
303.940430 29.208893 -8.848400 0.000000
317.423706 29.208893 -8.848400 0.000000
330.907043 29.208893 -8.848400 0.000000
344.390320 29.208893 -8.848400 0.000000
-343.257996 15.725586 -8.848400 0.000000
-329.774689 15.725586 -8.848400 0.000000
-316.291382 15.725586 -8.848400 0.000000
-302.808105 15.725586 -8.848400 0.000000
-289.324799 15.725586 -8.848400 0.000000
-275.841492 15.725586 -8.848400 0.000000
-262.358185 15.725586 -8.848400 0.000000
-248.874893 15.725586 -8.848400 0.000000
-235.391602 15.725586 -8.848400 0.000000
-221.908295 15.725586 -8.848400 0.000000
-208.424988 15.725586 -8.848400 0.000000
-194.941696 15.725586 -8.848400 0.000000
-181.458389 15.725586 -8.848400 0.000000
-167.975098 15.725586 -8.848400 0.000000
-154.491791 15.725586 -8.848400 0.000000
-141.008499 15.725586 -8.848400 0.000000
-127.525192 15.725586 -8.848400 12.484896
-114.041885 15.725586 -8.848400 12.010018
-100.558594 15.725586 -8.848400 11.811368
-87.075287 15.725586 -8.848400 10.674486
-73.591980 15.725586 -8.848400 10.188107
-60.108704 15.725586 -8.848400 8.254302
-46.625397 15.725586 -8.848400 7.121933
-33.142090 15.725586 -8.848400 6.028649
-19.658783 15.725586 -8.848400 5.710272
-6.175476 15.725586 -8.848400 5.381524
7.307800 15.725586 -8.848400 4.740666
20.791107 15.725586 -8.848400 4.747548
34.274414 15.725586 -8.848400 5.103370
47.757721 15.725586 -8.848400 6.131110
61.240997 15.725586 -8.848400 7.108874
74.724304 15.725586 -8.848400 7.896088
88.207611 15.725586 -8.848400 7.745324
101.690918 15.725586 -8.848400 6.952857
115.174225 15.725586 -8.848400 6.036875
128.657501 15.725586 -8.848400 0.000000
142.140808 15.725586 -8.848400 0.000000
155.624115 15.725586 -8.848400 0.000000
169.107422 15.725586 -8.848400 0.000000
182.590698 15.725586 -8.848400 0.000000
196.074036 15.725586 -8.848400 0.000000
209.557312 15.725586 -8.848400 0.000000
223.040588 15.725586 -8.848400 0.000000
236.523926 15.725586 -8.848400 0.000000
250.007202 15.725586 -8.848400 0.000000
263.490540 15.725586 -8.848400 0.000000
276.973816 15.725586 -8.848400 0.000000
290.457092 15.725586 -8.848400 0.000000
303.940430 15.725586 -8.848400 0.000000
317.423706 15.725586 -8.848400 0.000000
330.907043 15.725586 -8.848400 0.000000
344.390320 15.725586 -8.848400 0.000000
-343.257996 2.242279 -8.848400 0.000000
-329.774689 2.242279 -8.848400 0.000000
-316.291382 2.242279 -8.848400 0.000000
-302.808105 2.242279 -8.848400 0.000000
-289.324799 2.242279 -8.848400 0.000000
-275.841492 2.242279 -8.848400 0.000000
-262.358185 2.242279 -8.848400 0.000000
-248.874893 2.242279 -8.848400 0.000000
-235.391602 2.242279 -8.848400 0.000000
-221.908295 2.242279 -8.848400 0.000000
-208.424988 2.242279 -8.848400 0.000000
-194.941696 2.242279 -8.848400 0.000000
-181.458389 2.242279 -8.848400 0.000000
-167.975098 2.242279 -8.848400 0.000000
-154.491791 2.242279 -8.848400 0.000000
-141.008499 2.242279 -8.848400 0.000000
-127.525192 2.242279 -8.848400 0.000000
-114.041885 2.242279 -8.848400 12.598311
-100.558594 2.242279 -8.848400 12.059214
-87.075287 2.242279 -8.848400 11.405549
-73.591980 2.242279 -8.848400 9.970307
-60.108704 2.242279 -8.848400 8.857786
-46.625397 2.242279 -8.848400 7.657794
-33.142090 2.242279 -8.848400 6.088476
-19.658783 2.242279 -8.848400 5.623765
-6.175476 2.242279 -8.848400 5.531655
7.307800 2.242279 -8.848400 5.048717
20.791107 2.242279 -8.848400 5.068461
34.274414 2.242279 -8.848400 5.557324
47.757721 2.242279 -8.848400 6.231377
61.240997 2.242279 -8.848400 7.538869
74.724304 2.242279 -8.848400 8.245393
88.207611 2.242279 -8.848400 7.686777
101.690918 2.242279 -8.848400 6.406809
115.174225 2.242279 -8.848400 5.759853
128.657501 2.242279 -8.848400 0.000000
142.140808 2.242279 -8.848400 0.000000
155.624115 2.242279 -8.848400 0.000000
169.107422 2.242279 -8.848400 0.000000
182.590698 2.242279 -8.848400 0.000000
196.074036 2.242279 -8.848400 0.000000
209.557312 2.242279 -8.848400 0.000000
223.040588 2.242279 -8.848400 0.000000
236.523926 2.242279 -8.848400 0.000000
250.007202 2.242279 -8.848400 0.000000
263.490540 2.242279 -8.848400 0.000000
276.973816 2.242279 -8.848400 0.000000
290.457092 2.242279 -8.848400 0.000000
303.940430 2.242279 -8.848400 0.000000
317.423706 2.242279 -8.848400 0.000000
330.907043 2.242279 -8.848400 0.000000
344.390320 2.242279 -8.848400 0.000000
-343.257996 -11.240997 -8.848400 0.000000
-329.774689 -11.240997 -8.848400 0.000000
-316.291382 -11.240997 -8.848400 0.000000
-302.808105 -11.240997 -8.848400 0.000000
-289.324799 -11.240997 -8.848400 0.000000
-275.841492 -11.240997 -8.848400 0.000000
-262.358185 -11.240997 -8.848400 0.000000
-248.874893 -11.240997 -8.848400 0.000000
-235.391602 -11.240997 -8.848400 0.000000
-221.908295 -11.240997 -8.848400 0.000000
-208.424988 -11.240997 -8.848400 0.000000
-194.941696 -11.240997 -8.848400 0.000000
-181.458389 -11.240997 -8.848400 0.000000
-167.975098 -11.240997 -8.848400 0.000000
-154.491791 -11.240997 -8.848400 0.000000
-141.008499 -11.240997 -8.848400 0.000000
-127.525192 -11.240997 -8.848400 0.000000
-114.041885 -11.240997 -8.848400 0.000000
-100.558594 -11.240997 -8.848400 12.274989
-87.075287 -11.240997 -8.848400 11.893148
-73.591980 -11.240997 -8.848400 10.581246
-60.108704 -11.240997 -8.848400 9.632026
-46.625397 -11.240997 -8.848400 8.257131
-33.142090 -11.240997 -8.848400 7.016629
-19.658783 -11.240997 -8.848400 6.129224
-6.175476 -11.240997 -8.848400 5.683871
7.307800 -11.240997 -8.848400 5.270206
20.791107 -11.240997 -8.848400 5.797512
34.274414 -11.240997 -8.848400 6.102674
47.757721 -11.240997 -8.848400 6.929082
61.240997 -11.240997 -8.848400 8.455911
74.724304 -11.240997 -8.848400 8.860416
88.207611 -11.240997 -8.848400 8.635587
101.690918 -11.240997 -8.848400 6.646382
115.174225 -11.240997 -8.848400 0.000000
128.657501 -11.240997 -8.848400 0.000000
142.140808 -11.240997 -8.848400 0.000000
155.624115 -11.240997 -8.848400 0.000000
169.107422 -11.240997 -8.848400 0.000000
182.590698 -11.240997 -8.848400 0.000000
196.074036 -11.240997 -8.848400 0.000000
209.557312 -11.240997 -8.848400 0.000000
223.040588 -11.240997 -8.848400 0.000000
236.523926 -11.240997 -8.848400 0.000000
250.007202 -11.240997 -8.848400 0.000000
263.490540 -11.240997 -8.848400 0.000000
276.973816 -11.240997 -8.848400 0.000000
290.457092 -11.240997 -8.848400 0.000000
303.940430 -11.240997 -8.848400 0.000000
317.423706 -11.240997 -8.848400 0.000000
330.907043 -11.240997 -8.848400 0.000000
344.390320 -11.240997 -8.848400 0.000000
-343.257996 -24.724304 -8.848400 0.000000
-329.774689 -24.724304 -8.848400 0.000000
-316.291382 -24.724304 -8.848400 0.000000
-302.808105 -24.724304 -8.848400 0.000000
-289.324799 -24.724304 -8.848400 0.000000
-275.841492 -24.724304 -8.848400 0.000000
-262.358185 -24.724304 -8.848400 0.000000
-248.874893 -24.724304 -8.848400 0.000000
-235.391602 -24.724304 -8.848400 0.000000
-221.908295 -24.724304 -8.848400 0.000000
-208.424988 -24.724304 -8.848400 0.000000
-194.941696 -24.724304 -8.848400 0.000000
-181.458389 -24.724304 -8.848400 0.000000
-167.975098 -24.724304 -8.848400 0.000000
-154.491791 -24.724304 -8.848400 0.000000
-141.008499 -24.724304 -8.848400 0.000000
-127.525192 -24.724304 -8.848400 0.000000
-114.041885 -24.724304 -8.848400 0.000000
-100.558594 -24.724304 -8.848400 12.781681
-87.075287 -24.724304 -8.848400 12.212067
-73.591980 -24.724304 -8.848400 12.009261
-60.108704 -24.724304 -8.848400 10.511569
-46.625397 -24.724304 -8.848400 9.469925
-33.142090 -24.724304 -8.848400 8.429971
-19.658783 -24.724304 -8.848400 7.118345
-6.175476 -24.724304 -8.848400 6.163947
7.307800 -24.724304 -8.848400 5.837700
20.791107 -24.724304 -8.848400 6.469647
34.274414 -24.724304 -8.848400 7.659509
47.757721 -24.724304 -8.848400 9.101149
61.240997 -24.724304 -8.848400 9.775110
74.724304 -24.724304 -8.848400 9.085794
88.207611 -24.724304 -8.848400 7.961981
101.690918 -24.724304 -8.848400 6.963357
115.174225 -24.724304 -8.848400 0.000000
128.657501 -24.724304 -8.848400 0.000000
142.140808 -24.724304 -8.848400 0.000000
155.624115 -24.724304 -8.848400 0.000000
169.107422 -24.724304 -8.848400 0.000000
182.590698 -24.724304 -8.848400 0.000000
196.074036 -24.724304 -8.848400 0.000000
209.557312 -24.724304 -8.848400 0.000000
223.040588 -24.724304 -8.848400 0.000000
236.523926 -24.724304 -8.848400 0.000000
250.007202 -24.724304 -8.848400 0.000000
263.490540 -24.724304 -8.848400 0.000000
276.973816 -24.724304 -8.848400 0.000000
290.457092 -24.724304 -8.848400 0.000000
303.940430 -24.724304 -8.848400 0.000000
317.423706 -24.724304 -8.848400 0.000000
330.907043 -24.724304 -8.848400 0.000000
344.390320 -24.724304 -8.848400 0.000000
-343.257996 -38.207611 -8.848400 0.000000
-329.774689 -38.207611 -8.848400 0.000000
-316.291382 -38.207611 -8.848400 0.000000
-302.808105 -38.207611 -8.848400 0.000000
-289.324799 -38.207611 -8.848400 0.000000
-275.841492 -38.207611 -8.848400 0.000000
-262.358185 -38.207611 -8.848400 0.000000
-248.874893 -38.207611 -8.848400 0.000000
-235.391602 -38.207611 -8.848400 0.000000
-221.908295 -38.207611 -8.848400 0.000000
-208.424988 -38.207611 -8.848400 0.000000
-194.941696 -38.207611 -8.848400 0.000000
-181.458389 -38.207611 -8.848400 0.000000
-167.975098 -38.207611 -8.848400 0.000000
-154.491791 -38.207611 -8.848400 0.000000
-141.008499 -38.207611 -8.848400 0.000000
-127.525192 -38.207611 -8.848400 0.000000
-114.041885 -38.207611 -8.848400 0.000000
-100.558594 -38.207611 -8.848400 13.360761
-87.075287 -38.207611 -8.848400 12.021670
-73.591980 -38.207611 -8.848400 11.609385
-60.108704 -38.207611 -8.848400 10.701535
-46.625397 -38.207611 -8.848400 9.884137
-33.142090 -38.207611 -8.848400 8.583274
-19.658783 -38.207611 -8.848400 7.255856
-6.175476 -38.207611 -8.848400 7.304894
7.307800 -38.207611 -8.848400 7.462925
20.791107 -38.207611 -8.848400 7.631648
34.274414 -38.207611 -8.848400 8.978283
47.757721 -38.207611 -8.848400 10.016935
61.240997 -38.207611 -8.848400 9.629259
74.724304 -38.207611 -8.848400 8.905471
88.207611 -38.207611 -8.848400 7.741329
101.690918 -38.207611 -8.848400 0.000000
115.174225 -38.207611 -8.848400 0.000000
128.657501 -38.207611 -8.848400 0.000000
142.140808 -38.207611 -8.848400 0.000000
155.624115 -38.207611 -8.848400 0.000000
169.107422 -38.207611 -8.848400 0.000000
182.590698 -38.207611 -8.848400 0.000000
196.074036 -38.207611 -8.848400 0.000000
209.557312 -38.207611 -8.848400 0.000000
223.040588 -38.207611 -8.848400 0.000000
236.523926 -38.207611 -8.848400 0.000000
250.007202 -38.207611 -8.848400 0.000000
263.490540 -38.207611 -8.848400 0.000000
276.973816 -38.207611 -8.848400 0.000000
290.457092 -38.207611 -8.848400 0.000000
303.940430 -38.207611 -8.848400 0.000000
317.423706 -38.207611 -8.848400 0.000000
330.907043 -38.207611 -8.848400 0.000000
344.390320 -38.207611 -8.848400 0.000000
-343.257996 -51.690918 -8.848400 0.000000
-329.774689 -51.690918 -8.848400 0.000000
-316.291382 -51.690918 -8.848400 0.000000
-302.808105 -51.690918 -8.848400 0.000000
-289.324799 -51.690918 -8.848400 0.000000
-275.841492 -51.690918 -8.848400 0.000000
-262.358185 -51.690918 -8.848400 0.000000
-248.874893 -51.690918 -8.848400 0.000000
-235.391602 -51.690918 -8.848400 0.000000
-221.908295 -51.690918 -8.848400 0.000000
-208.424988 -51.690918 -8.848400 0.000000
-194.941696 -51.690918 -8.848400 0.000000
-181.458389 -51.690918 -8.848400 0.000000
-167.975098 -51.690918 -8.848400 0.000000
-154.491791 -51.690918 -8.848400 0.000000
-141.008499 -51.690918 -8.848400 0.000000
-127.525192 -51.690918 -8.848400 0.000000
-114.041885 -51.690918 -8.848400 0.000000
-100.558594 -51.690918 -8.848400 0.000000
-87.075287 -51.690918 -8.848400 11.697345
-73.591980 -51.690918 -8.848400 11.352205
-60.108704 -51.690918 -8.848400 10.266380
-46.625397 -51.690918 -8.848400 9.869085
-33.142090 -51.690918 -8.848400 8.482782
-19.658783 -51.690918 -8.848400 7.959787
-6.175476 -51.690918 -8.848400 8.690269
7.307800 -51.690918 -8.848400 8.809348
20.791107 -51.690918 -8.848400 8.480362
34.274414 -51.690918 -8.848400 9.596201
47.757721 -51.690918 -8.848400 9.250143
61.240997 -51.690918 -8.848400 8.221748
74.724304 -51.690918 -8.848400 7.463726
88.207611 -51.690918 -8.848400 0.000000
101.690918 -51.690918 -8.848400 0.000000
115.174225 -51.690918 -8.848400 0.000000
128.657501 -51.690918 -8.848400 0.000000
142.140808 -51.690918 -8.848400 0.000000
155.624115 -51.690918 -8.848400 0.000000
169.107422 -51.690918 -8.848400 0.000000
182.590698 -51.690918 -8.848400 0.000000
196.074036 -51.690918 -8.848400 0.000000
209.557312 -51.690918 -8.848400 0.000000
223.040588 -51.690918 -8.848400 0.000000
236.523926 -51.690918 -8.848400 0.000000
250.007202 -51.690918 -8.848400 0.000000
263.490540 -51.690918 -8.848400 0.000000
276.973816 -51.690918 -8.848400 0.000000
290.457092 -51.690918 -8.848400 0.000000
303.940430 -51.690918 -8.848400 0.000000
317.423706 -51.690918 -8.848400 0.000000
330.907043 -51.690918 -8.848400 0.000000
344.390320 -51.690918 -8.848400 0.000000
-343.257996 -65.174225 -8.848400 0.000000
-329.774689 -65.174225 -8.848400 0.000000
-316.291382 -65.174225 -8.848400 0.000000
-302.808105 -65.174225 -8.848400 0.000000
-289.324799 -65.174225 -8.848400 0.000000
-275.841492 -65.174225 -8.848400 0.000000
-262.358185 -65.174225 -8.848400 0.000000
-248.874893 -65.174225 -8.848400 0.000000
-235.391602 -65.174225 -8.848400 0.000000
-221.908295 -65.174225 -8.848400 0.000000
-208.424988 -65.174225 -8.848400 0.000000
-194.941696 -65.174225 -8.848400 0.000000
-181.458389 -65.174225 -8.848400 0.000000
-167.975098 -65.174225 -8.848400 0.000000
-154.491791 -65.174225 -8.848400 0.000000
-141.008499 -65.174225 -8.848400 0.000000
-127.525192 -65.174225 -8.848400 0.000000
-114.041885 -65.174225 -8.848400 0.000000
-100.558594 -65.174225 -8.848400 0.000000
-87.075287 -65.174225 -8.848400 11.472594
-73.591980 -65.174225 -8.848400 11.341092
-60.108704 -65.174225 -8.848400 10.852932
-46.625397 -65.174225 -8.848400 10.592003
-33.142090 -65.174225 -8.848400 9.156768
-19.658783 -65.174225 -8.848400 8.898484
-6.175476 -65.174225 -8.848400 8.891396
7.307800 -65.174225 -8.848400 9.668144
20.791107 -65.174225 -8.848400 9.030316
34.274414 -65.174225 -8.848400 9.526174
47.757721 -65.174225 -8.848400 8.644102
61.240997 -65.174225 -8.848400 0.000000
74.724304 -65.174225 -8.848400 0.000000
88.207611 -65.174225 -8.848400 0.000000
101.690918 -65.174225 -8.848400 0.000000
115.174225 -65.174225 -8.848400 0.000000
128.657501 -65.174225 -8.848400 0.000000
142.140808 -65.174225 -8.848400 0.000000
155.624115 -65.174225 -8.848400 0.000000
169.107422 -65.174225 -8.848400 0.000000
182.590698 -65.174225 -8.848400 0.000000
196.074036 -65.174225 -8.848400 0.000000
209.557312 -65.174225 -8.848400 0.000000
223.040588 -65.174225 -8.848400 0.000000
236.523926 -65.174225 -8.848400 0.000000
250.007202 -65.174225 -8.848400 0.000000
263.490540 -65.174225 -8.848400 0.000000
276.973816 -65.174225 -8.848400 0.000000
290.457092 -65.174225 -8.848400 0.000000
303.940430 -65.174225 -8.848400 0.000000
317.423706 -65.174225 -8.848400 0.000000
330.907043 -65.174225 -8.848400 0.000000
344.390320 -65.174225 -8.848400 0.000000
-343.257996 -78.657501 -8.848400 0.000000
-329.774689 -78.657501 -8.848400 0.000000
-316.291382 -78.657501 -8.848400 0.000000
-302.808105 -78.657501 -8.848400 0.000000
-289.324799 -78.657501 -8.848400 0.000000
-275.841492 -78.657501 -8.848400 0.000000
-262.358185 -78.657501 -8.848400 0.000000
-248.874893 -78.657501 -8.848400 0.000000
-235.391602 -78.657501 -8.848400 0.000000
-221.908295 -78.657501 -8.848400 0.000000
-208.424988 -78.657501 -8.848400 0.000000
-194.941696 -78.657501 -8.848400 0.000000
-181.458389 -78.657501 -8.848400 0.000000
-167.975098 -78.657501 -8.848400 0.000000
-154.491791 -78.657501 -8.848400 0.000000
-141.008499 -78.657501 -8.848400 0.000000
-127.525192 -78.657501 -8.848400 0.000000
-114.041885 -78.657501 -8.848400 0.000000
-100.558594 -78.657501 -8.848400 0.000000
-87.075287 -78.657501 -8.848400 0.000000
-73.591980 -78.657501 -8.848400 11.289609
-60.108704 -78.657501 -8.848400 11.224225
-46.625397 -78.657501 -8.848400 10.715800
-33.142090 -78.657501 -8.848400 9.630137
-19.658783 -78.657501 -8.848400 9.060301
-6.175476 -78.657501 -8.848400 8.785738
7.307800 -78.657501 -8.848400 8.611247
20.791107 -78.657501 -8.848400 7.842648
34.274414 -78.657501 -8.848400 7.908323
47.757721 -78.657501 -8.848400 0.000000
61.240997 -78.657501 -8.848400 0.000000
74.724304 -78.657501 -8.848400 0.000000
88.207611 -78.657501 -8.848400 0.000000
101.690918 -78.657501 -8.848400 0.000000
115.174225 -78.657501 -8.848400 0.000000
128.657501 -78.657501 -8.848400 0.000000
142.140808 -78.657501 -8.848400 0.000000
155.624115 -78.657501 -8.848400 0.000000
169.107422 -78.657501 -8.848400 0.000000
182.590698 -78.657501 -8.848400 0.000000
196.074036 -78.657501 -8.848400 0.000000
209.557312 -78.657501 -8.848400 0.000000
223.040588 -78.657501 -8.848400 0.000000
236.523926 -78.657501 -8.848400 0.000000
250.007202 -78.657501 -8.848400 0.000000
263.490540 -78.657501 -8.848400 0.000000
276.973816 -78.657501 -8.848400 0.000000
290.457092 -78.657501 -8.848400 0.000000
303.940430 -78.657501 -8.848400 0.000000
317.423706 -78.657501 -8.848400 0.000000
330.907043 -78.657501 -8.848400 0.000000
344.390320 -78.657501 -8.848400 0.000000
-343.257996 -92.140808 -8.848400 0.000000
-329.774689 -92.140808 -8.848400 0.000000
-316.291382 -92.140808 -8.848400 0.000000
-302.808105 -92.140808 -8.848400 0.000000
-289.324799 -92.140808 -8.848400 0.000000
-275.841492 -92.140808 -8.848400 0.000000
-262.358185 -92.140808 -8.848400 0.000000
-248.874893 -92.140808 -8.848400 0.000000
-235.391602 -92.140808 -8.848400 0.000000
-221.908295 -92.140808 -8.848400 0.000000
-208.424988 -92.140808 -8.848400 0.000000
-194.941696 -92.140808 -8.848400 0.000000
-181.458389 -92.140808 -8.848400 0.000000
-167.975098 -92.140808 -8.848400 0.000000
-154.491791 -92.140808 -8.848400 0.000000
-141.008499 -92.140808 -8.848400 0.000000
-127.525192 -92.140808 -8.848400 0.000000
-114.041885 -92.140808 -8.848400 0.000000
-100.558594 -92.140808 -8.848400 0.000000
-87.075287 -92.140808 -8.848400 0.000000
-73.591980 -92.140808 -8.848400 12.438442
-60.108704 -92.140808 -8.848400 12.537546
-46.625397 -92.140808 -8.848400 10.621629
-33.142090 -92.140808 -8.848400 10.265305
-19.658783 -92.140808 -8.848400 9.299864
-6.175476 -92.140808 -8.848400 8.979420
7.307800 -92.140808 -8.848400 0.000000
20.791107 -92.140808 -8.848400 0.000000
34.274414 -92.140808 -8.848400 0.000000
47.757721 -92.140808 -8.848400 0.000000
61.240997 -92.140808 -8.848400 0.000000
74.724304 -92.140808 -8.848400 0.000000
88.207611 -92.140808 -8.848400 0.000000
101.690918 -92.140808 -8.848400 0.000000
115.174225 -92.140808 -8.848400 0.000000
128.657501 -92.140808 -8.848400 0.000000
142.140808 -92.140808 -8.848400 0.000000
155.624115 -92.140808 -8.848400 0.000000
169.107422 -92.140808 -8.848400 0.000000
182.590698 -92.140808 -8.848400 0.000000
196.074036 -92.140808 -8.848400 0.000000
209.557312 -92.140808 -8.848400 0.000000
223.040588 -92.140808 -8.848400 0.000000
236.523926 -92.140808 -8.848400 0.000000
250.007202 -92.140808 -8.848400 0.000000
263.490540 -92.140808 -8.848400 0.000000
276.973816 -92.140808 -8.848400 0.000000
290.457092 -92.140808 -8.848400 0.000000
303.940430 -92.140808 -8.848400 0.000000
317.423706 -92.140808 -8.848400 0.000000
330.907043 -92.140808 -8.848400 0.000000
344.390320 -92.140808 -8.848400 0.000000
-343.257996 -105.624115 -8.848400 0.000000
-329.774689 -105.624115 -8.848400 0.000000
-316.291382 -105.624115 -8.848400 0.000000
-302.808105 -105.624115 -8.848400 0.000000
-289.324799 -105.624115 -8.848400 0.000000
-275.841492 -105.624115 -8.848400 0.000000
-262.358185 -105.624115 -8.848400 0.000000
-248.874893 -105.624115 -8.848400 0.000000
-235.391602 -105.624115 -8.848400 0.000000
-221.908295 -105.624115 -8.848400 0.000000
-208.424988 -105.624115 -8.848400 0.000000
-194.941696 -105.624115 -8.848400 0.000000
-181.458389 -105.624115 -8.848400 0.000000
-167.975098 -105.624115 -8.848400 0.000000
-154.491791 -105.624115 -8.848400 0.000000
-141.008499 -105.624115 -8.848400 0.000000
-127.525192 -105.624115 -8.848400 0.000000
-114.041885 -105.624115 -8.848400 0.000000
-100.558594 -105.624115 -8.848400 0.000000
-87.075287 -105.624115 -8.848400 0.000000
-73.591980 -105.624115 -8.848400 0.000000
-60.108704 -105.624115 -8.848400 0.000000
-46.625397 -105.624115 -8.848400 0.000000
-33.142090 -105.624115 -8.848400 0.000000
-19.658783 -105.624115 -8.848400 0.000000
-6.175476 -105.624115 -8.848400 0.000000
7.307800 -105.624115 -8.848400 0.000000
20.791107 -105.624115 -8.848400 0.000000
34.274414 -105.624115 -8.848400 0.000000
47.757721 -105.624115 -8.848400 0.000000
61.240997 -105.624115 -8.848400 0.000000
74.724304 -105.624115 -8.848400 0.000000
88.207611 -105.624115 -8.848400 0.000000
101.690918 -105.624115 -8.848400 0.000000
115.174225 -105.624115 -8.848400 0.000000
128.657501 -105.624115 -8.848400 0.000000
142.140808 -105.624115 -8.848400 0.000000
155.624115 -105.624115 -8.848400 0.000000
169.107422 -105.624115 -8.848400 0.000000
182.590698 -105.624115 -8.848400 0.000000
196.074036 -105.624115 -8.848400 0.000000
209.557312 -105.624115 -8.848400 0.000000
223.040588 -105.624115 -8.848400 0.000000
236.523926 -105.624115 -8.848400 0.000000
250.007202 -105.624115 -8.848400 0.000000
263.490540 -105.624115 -8.848400 0.000000
276.973816 -105.624115 -8.848400 0.000000
290.457092 -105.624115 -8.848400 0.000000
303.940430 -105.624115 -8.848400 0.000000
317.423706 -105.624115 -8.848400 0.000000
330.907043 -105.624115 -8.848400 0.000000
344.390320 -105.624115 -8.848400 0.000000
-343.257996 -119.107422 -8.848400 0.000000
-329.774689 -119.107422 -8.848400 0.000000
-316.291382 -119.107422 -8.848400 0.000000
-302.808105 -119.107422 -8.848400 0.000000
-289.324799 -119.107422 -8.848400 0.000000
-275.841492 -119.107422 -8.848400 0.000000
-262.358185 -119.107422 -8.848400 0.000000
-248.874893 -119.107422 -8.848400 0.000000
-235.391602 -119.107422 -8.848400 0.000000
-221.908295 -119.107422 -8.848400 0.000000
-208.424988 -119.107422 -8.848400 0.000000
-194.941696 -119.107422 -8.848400 0.000000
-181.458389 -119.107422 -8.848400 0.000000
-167.975098 -119.107422 -8.848400 0.000000
-154.491791 -119.107422 -8.848400 0.000000
-141.008499 -119.107422 -8.848400 0.000000
-127.525192 -119.107422 -8.848400 0.000000
-114.041885 -119.107422 -8.848400 0.000000
-100.558594 -119.107422 -8.848400 0.000000
-87.075287 -119.107422 -8.848400 0.000000
-73.591980 -119.107422 -8.848400 0.000000
-60.108704 -119.107422 -8.848400 0.000000
-46.625397 -119.107422 -8.848400 0.000000
-33.142090 -119.107422 -8.848400 0.000000
-19.658783 -119.107422 -8.848400 0.000000
-6.175476 -119.107422 -8.848400 0.000000
7.307800 -119.107422 -8.848400 0.000000
20.791107 -119.107422 -8.848400 0.000000
34.274414 -119.107422 -8.848400 0.000000
47.757721 -119.107422 -8.848400 0.000000
61.240997 -119.107422 -8.848400 0.000000
74.724304 -119.107422 -8.848400 0.000000
88.207611 -119.107422 -8.848400 0.000000
101.690918 -119.107422 -8.848400 0.000000
115.174225 -119.107422 -8.848400 0.000000
128.657501 -119.107422 -8.848400 0.000000
142.140808 -119.107422 -8.848400 0.000000
155.624115 -119.107422 -8.848400 0.000000
169.107422 -119.107422 -8.848400 0.000000
182.590698 -119.107422 -8.848400 0.000000
196.074036 -119.107422 -8.848400 0.000000
209.557312 -119.107422 -8.848400 0.000000
223.040588 -119.107422 -8.848400 0.000000
236.523926 -119.107422 -8.848400 0.000000
250.007202 -119.107422 -8.848400 0.000000
263.490540 -119.107422 -8.848400 0.000000
276.973816 -119.107422 -8.848400 0.000000
290.457092 -119.107422 -8.848400 0.000000
303.940430 -119.107422 -8.848400 0.000000
317.423706 -119.107422 -8.848400 0.000000
330.907043 -119.107422 -8.848400 0.000000
344.390320 -119.107422 -8.848400 0.000000
-343.257996 -132.590698 -8.848400 0.000000
-329.774689 -132.590698 -8.848400 0.000000
-316.291382 -132.590698 -8.848400 0.000000
-302.808105 -132.590698 -8.848400 0.000000
-289.324799 -132.590698 -8.848400 0.000000
-275.841492 -132.590698 -8.848400 0.000000
-262.358185 -132.590698 -8.848400 0.000000
-248.874893 -132.590698 -8.848400 0.000000
-235.391602 -132.590698 -8.848400 0.000000
-221.908295 -132.590698 -8.848400 0.000000
-208.424988 -132.590698 -8.848400 0.000000
-194.941696 -132.590698 -8.848400 0.000000
-181.458389 -132.590698 -8.848400 0.000000
-167.975098 -132.590698 -8.848400 0.000000
-154.491791 -132.590698 -8.848400 0.000000
-141.008499 -132.590698 -8.848400 0.000000
-127.525192 -132.590698 -8.848400 0.000000
-114.041885 -132.590698 -8.848400 0.000000
-100.558594 -132.590698 -8.848400 0.000000
-87.075287 -132.590698 -8.848400 0.000000
-73.591980 -132.590698 -8.848400 0.000000
-60.108704 -132.590698 -8.848400 0.000000
-46.625397 -132.590698 -8.848400 0.000000
-33.142090 -132.590698 -8.848400 0.000000
-19.658783 -132.590698 -8.848400 0.000000
-6.175476 -132.590698 -8.848400 0.000000
7.307800 -132.590698 -8.848400 0.000000
20.791107 -132.590698 -8.848400 0.000000
34.274414 -132.590698 -8.848400 0.000000
47.757721 -132.590698 -8.848400 0.000000
61.240997 -132.590698 -8.848400 0.000000
74.724304 -132.590698 -8.848400 0.000000
88.207611 -132.590698 -8.848400 0.000000
101.690918 -132.590698 -8.848400 0.000000
115.174225 -132.590698 -8.848400 0.000000
128.657501 -132.590698 -8.848400 0.000000
142.140808 -132.590698 -8.848400 0.000000
155.624115 -132.590698 -8.848400 0.000000
169.107422 -132.590698 -8.848400 0.000000
182.590698 -132.590698 -8.848400 0.000000
196.074036 -132.590698 -8.848400 0.000000
209.557312 -132.590698 -8.848400 0.000000
223.040588 -132.590698 -8.848400 0.000000
236.523926 -132.590698 -8.848400 0.000000
250.007202 -132.590698 -8.848400 0.000000
263.490540 -132.590698 -8.848400 0.000000
276.973816 -132.590698 -8.848400 0.000000
290.457092 -132.590698 -8.848400 0.000000
303.940430 -132.590698 -8.848400 0.000000
317.423706 -132.590698 -8.848400 0.000000
330.907043 -132.590698 -8.848400 0.000000
344.390320 -132.590698 -8.848400 0.000000
-343.257996 -146.074036 -8.848400 0.000000
-329.774689 -146.074036 -8.848400 0.000000
-316.291382 -146.074036 -8.848400 0.000000
-302.808105 -146.074036 -8.848400 0.000000
-289.324799 -146.074036 -8.848400 0.000000
-275.841492 -146.074036 -8.848400 0.000000
-262.358185 -146.074036 -8.848400 0.000000
-248.874893 -146.074036 -8.848400 0.000000
-235.391602 -146.074036 -8.848400 0.000000
-221.908295 -146.074036 -8.848400 0.000000
-208.424988 -146.074036 -8.848400 0.000000
-194.941696 -146.074036 -8.848400 0.000000
-181.458389 -146.074036 -8.848400 0.000000
-167.975098 -146.074036 -8.848400 0.000000
-154.491791 -146.074036 -8.848400 0.000000
-141.008499 -146.074036 -8.848400 0.000000
-127.525192 -146.074036 -8.848400 0.000000
-114.041885 -146.074036 -8.848400 0.000000
-100.558594 -146.074036 -8.848400 0.000000
-87.075287 -146.074036 -8.848400 0.000000
-73.591980 -146.074036 -8.848400 0.000000
-60.108704 -146.074036 -8.848400 0.000000
-46.625397 -146.074036 -8.848400 0.000000
-33.142090 -146.074036 -8.848400 0.000000
-19.658783 -146.074036 -8.848400 0.000000
-6.175476 -146.074036 -8.848400 0.000000
7.307800 -146.074036 -8.848400 0.000000
20.791107 -146.074036 -8.848400 0.000000
34.274414 -146.074036 -8.848400 0.000000
47.757721 -146.074036 -8.848400 0.000000
61.240997 -146.074036 -8.848400 0.000000
74.724304 -146.074036 -8.848400 0.000000
88.207611 -146.074036 -8.848400 0.000000
101.690918 -146.074036 -8.848400 0.000000
115.174225 -146.074036 -8.848400 0.000000
128.657501 -146.074036 -8.848400 0.000000
142.140808 -146.074036 -8.848400 0.000000
155.624115 -146.074036 -8.848400 0.000000
169.107422 -146.074036 -8.848400 0.000000
182.590698 -146.074036 -8.848400 0.000000
196.074036 -146.074036 -8.848400 0.000000
209.557312 -146.074036 -8.848400 0.000000
223.040588 -146.074036 -8.848400 0.000000
236.523926 -146.074036 -8.848400 0.000000
250.007202 -146.074036 -8.848400 0.000000
263.490540 -146.074036 -8.848400 0.000000
276.973816 -146.074036 -8.848400 0.000000
290.457092 -146.074036 -8.848400 0.000000
303.940430 -146.074036 -8.848400 0.000000
317.423706 -146.074036 -8.848400 0.000000
330.907043 -146.074036 -8.848400 0.000000
344.390320 -146.074036 -8.848400 0.000000
-343.257996 -159.557312 -8.848400 0.000000
-329.774689 -159.557312 -8.848400 0.000000
-316.291382 -159.557312 -8.848400 0.000000
-302.808105 -159.557312 -8.848400 0.000000
-289.324799 -159.557312 -8.848400 0.000000
-275.841492 -159.557312 -8.848400 0.000000
-262.358185 -159.557312 -8.848400 0.000000
-248.874893 -159.557312 -8.848400 0.000000
-235.391602 -159.557312 -8.848400 0.000000
-221.908295 -159.557312 -8.848400 0.000000
-208.424988 -159.557312 -8.848400 0.000000
-194.941696 -159.557312 -8.848400 0.000000
-181.458389 -159.557312 -8.848400 0.000000
-167.975098 -159.557312 -8.848400 0.000000
-154.491791 -159.557312 -8.848400 0.000000
-141.008499 -159.557312 -8.848400 0.000000
-127.525192 -159.557312 -8.848400 0.000000
-114.041885 -159.557312 -8.848400 0.000000
-100.558594 -159.557312 -8.848400 0.000000
-87.075287 -159.557312 -8.848400 0.000000
-73.591980 -159.557312 -8.848400 0.000000
-60.108704 -159.557312 -8.848400 0.000000
-46.625397 -159.557312 -8.848400 0.000000
-33.142090 -159.557312 -8.848400 0.000000
-19.658783 -159.557312 -8.848400 0.000000
-6.175476 -159.557312 -8.848400 0.000000
7.307800 -159.557312 -8.848400 0.000000
20.791107 -159.557312 -8.848400 0.000000
34.274414 -159.557312 -8.848400 0.000000
47.757721 -159.557312 -8.848400 0.000000
61.240997 -159.557312 -8.848400 0.000000
74.724304 -159.557312 -8.848400 0.000000
88.207611 -159.557312 -8.848400 0.000000
101.690918 -159.557312 -8.848400 0.000000
115.174225 -159.557312 -8.848400 0.000000
128.657501 -159.557312 -8.848400 0.000000
142.140808 -159.557312 -8.848400 0.000000
155.624115 -159.557312 -8.848400 0.000000
169.107422 -159.557312 -8.848400 0.000000
182.590698 -159.557312 -8.848400 0.000000
196.074036 -159.557312 -8.848400 0.000000
209.557312 -159.557312 -8.848400 0.000000
223.040588 -159.557312 -8.848400 0.000000
236.523926 -159.557312 -8.848400 0.000000
250.007202 -159.557312 -8.848400 0.000000
263.490540 -159.557312 -8.848400 0.000000
276.973816 -159.557312 -8.848400 0.000000
290.457092 -159.557312 -8.848400 0.000000
303.940430 -159.557312 -8.848400 0.000000
317.423706 -159.557312 -8.848400 0.000000
330.907043 -159.557312 -8.848400 0.000000
344.390320 -159.557312 -8.848400 0.000000
-343.257996 -173.040588 -8.848400 0.000000
-329.774689 -173.040588 -8.848400 0.000000
-316.291382 -173.040588 -8.848400 0.000000
-302.808105 -173.040588 -8.848400 0.000000
-289.324799 -173.040588 -8.848400 0.000000
-275.841492 -173.040588 -8.848400 0.000000
-262.358185 -173.040588 -8.848400 0.000000
-248.874893 -173.040588 -8.848400 0.000000
-235.391602 -173.040588 -8.848400 0.000000
-221.908295 -173.040588 -8.848400 0.000000
-208.424988 -173.040588 -8.848400 0.000000
-194.941696 -173.040588 -8.848400 0.000000
-181.458389 -173.040588 -8.848400 0.000000
-167.975098 -173.040588 -8.848400 0.000000
-154.491791 -173.040588 -8.848400 0.000000
-141.008499 -173.040588 -8.848400 0.000000
-127.525192 -173.040588 -8.848400 0.000000
-114.041885 -173.040588 -8.848400 0.000000
-100.558594 -173.040588 -8.848400 0.000000
-87.075287 -173.040588 -8.848400 0.000000
-73.591980 -173.040588 -8.848400 0.000000
-60.108704 -173.040588 -8.848400 0.000000
-46.625397 -173.040588 -8.848400 0.000000
-33.142090 -173.040588 -8.848400 0.000000
-19.658783 -173.040588 -8.848400 0.000000
-6.175476 -173.040588 -8.848400 0.000000
7.307800 -173.040588 -8.848400 0.000000
20.791107 -173.040588 -8.848400 0.000000
34.274414 -173.040588 -8.848400 0.000000
47.757721 -173.040588 -8.848400 0.000000
61.240997 -173.040588 -8.848400 0.000000
74.724304 -173.040588 -8.848400 0.000000
88.207611 -173.040588 -8.848400 0.000000
101.690918 -173.040588 -8.848400 0.000000
115.174225 -173.040588 -8.848400 0.000000
128.657501 -173.040588 -8.848400 0.000000
142.140808 -173.040588 -8.848400 0.000000
155.624115 -173.040588 -8.848400 0.000000
169.107422 -173.040588 -8.848400 0.000000
182.590698 -173.040588 -8.848400 0.000000
196.074036 -173.040588 -8.848400 0.000000
209.557312 -173.040588 -8.848400 0.000000
223.040588 -173.040588 -8.848400 0.000000
236.523926 -173.040588 -8.848400 0.000000
250.007202 -173.040588 -8.848400 0.000000
263.490540 -173.040588 -8.848400 0.000000
276.973816 -173.040588 -8.848400 0.000000
290.457092 -173.040588 -8.848400 0.000000
303.940430 -173.040588 -8.848400 0.000000
317.423706 -173.040588 -8.848400 0.000000
330.907043 -173.040588 -8.848400 0.000000
344.390320 -173.040588 -8.848400 0.000000
-343.257996 -186.523926 -8.848400 0.000000
-329.774689 -186.523926 -8.848400 0.000000
-316.291382 -186.523926 -8.848400 0.000000
-302.808105 -186.523926 -8.848400 0.000000
-289.324799 -186.523926 -8.848400 0.000000
-275.841492 -186.523926 -8.848400 0.000000
-262.358185 -186.523926 -8.848400 0.000000
-248.874893 -186.523926 -8.848400 0.000000
-235.391602 -186.523926 -8.848400 0.000000
-221.908295 -186.523926 -8.848400 0.000000
-208.424988 -186.523926 -8.848400 0.000000
-194.941696 -186.523926 -8.848400 0.000000
-181.458389 -186.523926 -8.848400 0.000000
-167.975098 -186.523926 -8.848400 0.000000
-154.491791 -186.523926 -8.848400 0.000000
-141.008499 -186.523926 -8.848400 0.000000
-127.525192 -186.523926 -8.848400 0.000000
-114.041885 -186.523926 -8.848400 0.000000
-100.558594 -186.523926 -8.848400 0.000000
-87.075287 -186.523926 -8.848400 0.000000
-73.591980 -186.523926 -8.848400 0.000000
-60.108704 -186.523926 -8.848400 0.000000
-46.625397 -186.523926 -8.848400 0.000000
-33.142090 -186.523926 -8.848400 0.000000
-19.658783 -186.523926 -8.848400 0.000000
-6.175476 -186.523926 -8.848400 0.000000
7.307800 -186.523926 -8.848400 0.000000
20.791107 -186.523926 -8.848400 0.000000
34.274414 -186.523926 -8.848400 0.000000
47.757721 -186.523926 -8.848400 0.000000
61.240997 -186.523926 -8.848400 0.000000
74.724304 -186.523926 -8.848400 0.000000
88.207611 -186.523926 -8.848400 0.000000
101.690918 -186.523926 -8.848400 0.000000
115.174225 -186.523926 -8.848400 0.000000
128.657501 -186.523926 -8.848400 0.000000
142.140808 -186.523926 -8.848400 0.000000
155.624115 -186.523926 -8.848400 0.000000
169.107422 -186.523926 -8.848400 0.000000
182.590698 -186.523926 -8.848400 0.000000
196.074036 -186.523926 -8.848400 0.000000
209.557312 -186.523926 -8.848400 0.000000
223.040588 -186.523926 -8.848400 0.000000
236.523926 -186.523926 -8.848400 0.000000
250.007202 -186.523926 -8.848400 0.000000
263.490540 -186.523926 -8.848400 0.000000
276.973816 -186.523926 -8.848400 0.000000
290.457092 -186.523926 -8.848400 0.000000
303.940430 -186.523926 -8.848400 0.000000
317.423706 -186.523926 -8.848400 0.000000
330.907043 -186.523926 -8.848400 0.000000
344.390320 -186.523926 -8.848400 0.000000
-343.257996 -200.007202 -8.848400 0.000000
-329.774689 -200.007202 -8.848400 0.000000
-316.291382 -200.007202 -8.848400 0.000000
-302.808105 -200.007202 -8.848400 0.000000
-289.324799 -200.007202 -8.848400 0.000000
-275.841492 -200.007202 -8.848400 0.000000
-262.358185 -200.007202 -8.848400 0.000000
-248.874893 -200.007202 -8.848400 0.000000
-235.391602 -200.007202 -8.848400 0.000000
-221.908295 -200.007202 -8.848400 0.000000
-208.424988 -200.007202 -8.848400 0.000000
-194.941696 -200.007202 -8.848400 0.000000
-181.458389 -200.007202 -8.848400 0.000000
-167.975098 -200.007202 -8.848400 0.000000
-154.491791 -200.007202 -8.848400 0.000000
-141.008499 -200.007202 -8.848400 0.000000
-127.525192 -200.007202 -8.848400 0.000000
-114.041885 -200.007202 -8.848400 0.000000
-100.558594 -200.007202 -8.848400 0.000000
-87.075287 -200.007202 -8.848400 0.000000
-73.591980 -200.007202 -8.848400 0.000000
-60.108704 -200.007202 -8.848400 0.000000
-46.625397 -200.007202 -8.848400 0.000000
-33.142090 -200.007202 -8.848400 0.000000
-19.658783 -200.007202 -8.848400 0.000000
-6.175476 -200.007202 -8.848400 0.000000
7.307800 -200.007202 -8.848400 0.000000
20.791107 -200.007202 -8.848400 0.000000
34.274414 -200.007202 -8.848400 0.000000
47.757721 -200.007202 -8.848400 0.000000
61.240997 -200.007202 -8.848400 0.000000
74.724304 -200.007202 -8.848400 0.000000
88.207611 -200.007202 -8.848400 0.000000
101.690918 -200.007202 -8.848400 0.000000
115.174225 -200.007202 -8.848400 0.000000
128.657501 -200.007202 -8.848400 0.000000
142.140808 -200.007202 -8.848400 0.000000
155.624115 -200.007202 -8.848400 0.000000
169.107422 -200.007202 -8.848400 0.000000
182.590698 -200.007202 -8.848400 0.000000
196.074036 -200.007202 -8.848400 0.000000
209.557312 -200.007202 -8.848400 0.000000
223.040588 -200.007202 -8.848400 0.000000
236.523926 -200.007202 -8.848400 0.000000
250.007202 -200.007202 -8.848400 0.000000
263.490540 -200.007202 -8.848400 0.000000
276.973816 -200.007202 -8.848400 0.000000
290.457092 -200.007202 -8.848400 0.000000
303.940430 -200.007202 -8.848400 0.000000
317.423706 -200.007202 -8.848400 0.000000
330.907043 -200.007202 -8.848400 0.000000
344.390320 -200.007202 -8.848400 0.000000
