TITLE = "B00001"
VARIABLES = "X", "Y", "Z", "Reynold stress XY"
ZONE T="Frame 1" I=52, J=45, K=4, F=POINT
-343.257996 393.257996 -49.298302 0.000000
-329.774689 393.257996 -49.298302 0.000000
-316.291382 393.257996 -49.298302 0.000000
-302.808105 393.257996 -49.298302 0.000000
-289.324799 393.257996 -49.298302 0.000000
-275.841492 393.257996 -49.298302 0.000000
-262.358185 393.257996 -49.298302 0.000000
-248.874893 393.257996 -49.298302 0.000000
-235.391602 393.257996 -49.298302 0.000000
-221.908295 393.257996 -49.298302 0.000000
-208.424988 393.257996 -49.298302 0.000000
-194.941696 393.257996 -49.298302 0.000000
-181.458389 393.257996 -49.298302 0.000000
-167.975098 393.257996 -49.298302 0.000000
-154.491791 393.257996 -49.298302 0.000000
-141.008499 393.257996 -49.298302 0.000000
-127.525192 393.257996 -49.298302 0.000000
-114.041885 393.257996 -49.298302 0.000000
-100.558594 393.257996 -49.298302 0.000000
-87.075287 393.257996 -49.298302 0.000000
-73.591980 393.257996 -49.298302 0.000000
-60.108704 393.257996 -49.298302 0.000000
-46.625397 393.257996 -49.298302 0.000000
-33.142090 393.257996 -49.298302 0.000000
-19.658783 393.257996 -49.298302 0.000000
-6.175476 393.257996 -49.298302 0.000000
7.307800 393.257996 -49.298302 0.000000
20.791107 393.257996 -49.298302 0.000000
34.274414 393.257996 -49.298302 0.000000
47.757721 393.257996 -49.298302 0.000000
61.240997 393.257996 -49.298302 0.000000
74.724304 393.257996 -49.298302 0.000000
88.207611 393.257996 -49.298302 0.000000
101.690918 393.257996 -49.298302 0.000000
115.174225 393.257996 -49.298302 0.000000
128.657501 393.257996 -49.298302 0.000000
142.140808 393.257996 -49.298302 0.000000
155.624115 393.257996 -49.298302 0.000000
169.107422 393.257996 -49.298302 0.000000
182.590698 393.257996 -49.298302 0.000000
196.074036 393.257996 -49.298302 0.000000
209.557312 393.257996 -49.298302 0.000000
223.040588 393.257996 -49.298302 0.000000
236.523926 393.257996 -49.298302 0.000000
250.007202 393.257996 -49.298302 0.000000
263.490540 393.257996 -49.298302 0.000000
276.973816 393.257996 -49.298302 0.000000
290.457092 393.257996 -49.298302 0.000000
303.940430 393.257996 -49.298302 0.000000
317.423706 393.257996 -49.298302 0.000000
330.907043 393.257996 -49.298302 0.000000
344.390320 393.257996 -49.298302 0.000000
-343.257996 379.774689 -49.298302 0.000000
-329.774689 379.774689 -49.298302 0.000000
-316.291382 379.774689 -49.298302 0.000000
-302.808105 379.774689 -49.298302 0.000000
-289.324799 379.774689 -49.298302 0.000000
-275.841492 379.774689 -49.298302 0.000000
-262.358185 379.774689 -49.298302 0.000000
-248.874893 379.774689 -49.298302 0.000000
-235.391602 379.774689 -49.298302 0.000000
-221.908295 379.774689 -49.298302 0.000000
-208.424988 379.774689 -49.298302 0.000000
-194.941696 379.774689 -49.298302 0.000000
-181.458389 379.774689 -49.298302 0.000000
-167.975098 379.774689 -49.298302 0.000000
-154.491791 379.774689 -49.298302 0.000000
-141.008499 379.774689 -49.298302 0.000000
-127.525192 379.774689 -49.298302 0.000000
-114.041885 379.774689 -49.298302 0.000000
-100.558594 379.774689 -49.298302 0.000000
-87.075287 379.774689 -49.298302 0.000000
-73.591980 379.774689 -49.298302 0.000000
-60.108704 379.774689 -49.298302 0.000000
-46.625397 379.774689 -49.298302 0.000000
-33.142090 379.774689 -49.298302 0.000000
-19.658783 379.774689 -49.298302 0.000000
-6.175476 379.774689 -49.298302 0.000000
7.307800 379.774689 -49.298302 0.000000
20.791107 379.774689 -49.298302 0.000000
34.274414 379.774689 -49.298302 0.000000
47.757721 379.774689 -49.298302 0.000000
61.240997 379.774689 -49.298302 0.000000
74.724304 379.774689 -49.298302 0.000000
88.207611 379.774689 -49.298302 0.000000
101.690918 379.774689 -49.298302 0.000000
115.174225 379.774689 -49.298302 0.000000
128.657501 379.774689 -49.298302 0.000000
142.140808 379.774689 -49.298302 0.000000
155.624115 379.774689 -49.298302 0.000000
169.107422 379.774689 -49.298302 0.000000
182.590698 379.774689 -49.298302 0.000000
196.074036 379.774689 -49.298302 0.000000
209.557312 379.774689 -49.298302 0.000000
223.040588 379.774689 -49.298302 0.000000
236.523926 379.774689 -49.298302 0.000000
250.007202 379.774689 -49.298302 0.000000
263.490540 379.774689 -49.298302 0.000000
276.973816 379.774689 -49.298302 0.000000
290.457092 379.774689 -49.298302 0.000000
303.940430 379.774689 -49.298302 0.000000
317.423706 379.774689 -49.298302 0.000000
330.907043 379.774689 -49.298302 0.000000
344.390320 379.774689 -49.298302 0.000000
-343.257996 366.291382 -49.298302 0.000000
-329.774689 366.291382 -49.298302 0.000000
-316.291382 366.291382 -49.298302 0.000000
-302.808105 366.291382 -49.298302 0.000000
-289.324799 366.291382 -49.298302 0.000000
-275.841492 366.291382 -49.298302 0.000000
-262.358185 366.291382 -49.298302 0.000000
-248.874893 366.291382 -49.298302 0.000000
-235.391602 366.291382 -49.298302 0.000000
-221.908295 366.291382 -49.298302 0.000000
-208.424988 366.291382 -49.298302 0.000000
-194.941696 366.291382 -49.298302 0.000000
-181.458389 366.291382 -49.298302 0.000000
-167.975098 366.291382 -49.298302 0.000000
-154.491791 366.291382 -49.298302 0.000000
-141.008499 366.291382 -49.298302 0.000000
-127.525192 366.291382 -49.298302 0.000000
-114.041885 366.291382 -49.298302 0.000000
-100.558594 366.291382 -49.298302 0.000000
-87.075287 366.291382 -49.298302 0.000000
-73.591980 366.291382 -49.298302 0.000000
-60.108704 366.291382 -49.298302 0.000000
-46.625397 366.291382 -49.298302 0.000000
-33.142090 366.291382 -49.298302 0.000000
-19.658783 366.291382 -49.298302 0.000000
-6.175476 366.291382 -49.298302 0.000000
7.307800 366.291382 -49.298302 0.000000
20.791107 366.291382 -49.298302 0.000000
34.274414 366.291382 -49.298302 0.000000
47.757721 366.291382 -49.298302 0.000000
61.240997 366.291382 -49.298302 0.000000
74.724304 366.291382 -49.298302 0.000000
88.207611 366.291382 -49.298302 0.000000
101.690918 366.291382 -49.298302 0.000000
115.174225 366.291382 -49.298302 0.000000
128.657501 366.291382 -49.298302 0.000000
142.140808 366.291382 -49.298302 0.000000
155.624115 366.291382 -49.298302 0.000000
169.107422 366.291382 -49.298302 0.000000
182.590698 366.291382 -49.298302 0.000000
196.074036 366.291382 -49.298302 0.000000
209.557312 366.291382 -49.298302 0.000000
223.040588 366.291382 -49.298302 0.000000
236.523926 366.291382 -49.298302 0.000000
250.007202 366.291382 -49.298302 0.000000
263.490540 366.291382 -49.298302 0.000000
276.973816 366.291382 -49.298302 0.000000
290.457092 366.291382 -49.298302 0.000000
303.940430 366.291382 -49.298302 0.000000
317.423706 366.291382 -49.298302 0.000000
330.907043 366.291382 -49.298302 0.000000
344.390320 366.291382 -49.298302 0.000000
-343.257996 352.808105 -49.298302 0.000000
-329.774689 352.808105 -49.298302 0.000000
-316.291382 352.808105 -49.298302 0.000000
-302.808105 352.808105 -49.298302 0.000000
-289.324799 352.808105 -49.298302 0.000000
-275.841492 352.808105 -49.298302 0.000000
-262.358185 352.808105 -49.298302 0.000000
-248.874893 352.808105 -49.298302 0.000000
-235.391602 352.808105 -49.298302 0.000000
-221.908295 352.808105 -49.298302 0.000000
-208.424988 352.808105 -49.298302 0.000000
-194.941696 352.808105 -49.298302 0.000000
-181.458389 352.808105 -49.298302 -0.904506
-167.975098 352.808105 -49.298302 -0.804488
-154.491791 352.808105 -49.298302 -0.558689
-141.008499 352.808105 -49.298302 -0.384880
-127.525192 352.808105 -49.298302 -0.404391
-114.041885 352.808105 -49.298302 0.157889
-100.558594 352.808105 -49.298302 0.681001
-87.075287 352.808105 -49.298302 0.866713
-73.591980 352.808105 -49.298302 1.251570
-60.108704 352.808105 -49.298302 1.490148
-46.625397 352.808105 -49.298302 1.663723
-33.142090 352.808105 -49.298302 1.615251
-19.658783 352.808105 -49.298302 1.010833
-6.175476 352.808105 -49.298302 0.667297
7.307800 352.808105 -49.298302 0.596822
20.791107 352.808105 -49.298302 0.287305
34.274414 352.808105 -49.298302 0.165305
47.757721 352.808105 -49.298302 0.150996
61.240997 352.808105 -49.298302 0.032311
74.724304 352.808105 -49.298302 -0.098362
88.207611 352.808105 -49.298302 -0.111387
101.690918 352.808105 -49.298302 -0.286162
115.174225 352.808105 -49.298302 -0.312358
128.657501 352.808105 -49.298302 -0.286653
142.140808 352.808105 -49.298302 0.000000
155.624115 352.808105 -49.298302 0.000000
169.107422 352.808105 -49.298302 0.000000
182.590698 352.808105 -49.298302 0.000000
196.074036 352.808105 -49.298302 0.000000
209.557312 352.808105 -49.298302 0.000000
223.040588 352.808105 -49.298302 0.000000
236.523926 352.808105 -49.298302 0.000000
250.007202 352.808105 -49.298302 0.000000
263.490540 352.808105 -49.298302 0.000000
276.973816 352.808105 -49.298302 0.000000
290.457092 352.808105 -49.298302 0.000000
303.940430 352.808105 -49.298302 0.000000
317.423706 352.808105 -49.298302 0.000000
330.907043 352.808105 -49.298302 0.000000
344.390320 352.808105 -49.298302 0.000000
-343.257996 339.324799 -49.298302 0.000000
-329.774689 339.324799 -49.298302 0.000000
-316.291382 339.324799 -49.298302 0.000000
-302.808105 339.324799 -49.298302 0.000000
-289.324799 339.324799 -49.298302 0.000000
-275.841492 339.324799 -49.298302 0.000000
-262.358185 339.324799 -49.298302 -0.548209
-248.874893 339.324799 -49.298302 -0.488841
-235.391602 339.324799 -49.298302 -0.618145
-221.908295 339.324799 -49.298302 -0.641100
-208.424988 339.324799 -49.298302 -0.697939
-194.941696 339.324799 -49.298302 -0.886266
-181.458389 339.324799 -49.298302 -0.908743
-167.975098 339.324799 -49.298302 -0.922942
-154.491791 339.324799 -49.298302 -0.659420
-141.008499 339.324799 -49.298302 -0.537587
-127.525192 339.324799 -49.298302 -0.294364
-114.041885 339.324799 -49.298302 0.149877
-100.558594 339.324799 -49.298302 0.606570
-87.075287 339.324799 -49.298302 0.768112
-73.591980 339.324799 -49.298302 1.451415
-60.108704 339.324799 -49.298302 1.527838
-46.625397 339.324799 -49.298302 1.765723
-33.142090 339.324799 -49.298302 1.544869
-19.658783 339.324799 -49.298302 1.132598
-6.175476 339.324799 -49.298302 0.868360
7.307800 339.324799 -49.298302 0.549239
20.791107 339.324799 -49.298302 0.353183
34.274414 339.324799 -49.298302 0.170956
47.757721 339.324799 -49.298302 0.050370
61.240997 339.324799 -49.298302 -0.111792
74.724304 339.324799 -49.298302 -0.070574
88.207611 339.324799 -49.298302 -0.230701
101.690918 339.324799 -49.298302 -0.573262
115.174225 339.324799 -49.298302 -0.627966
128.657501 339.324799 -49.298302 -0.448879
142.140808 339.324799 -49.298302 -0.323207
155.624115 339.324799 -49.298302 -0.337897
169.107422 339.324799 -49.298302 0.002448
182.590698 339.324799 -49.298302 0.230260
196.074036 339.324799 -49.298302 0.441399
209.557312 339.324799 -49.298302 0.725772
223.040588 339.324799 -49.298302 0.856810
236.523926 339.324799 -49.298302 1.028463
250.007202 339.324799 -49.298302 0.721141
263.490540 339.324799 -49.298302 0.379375
276.973816 339.324799 -49.298302 0.000000
290.457092 339.324799 -49.298302 0.000000
303.940430 339.324799 -49.298302 0.000000
317.423706 339.324799 -49.298302 0.000000
330.907043 339.324799 -49.298302 0.000000
344.390320 339.324799 -49.298302 0.000000
-343.257996 325.841492 -49.298302 0.000000
-329.774689 325.841492 -49.298302 0.000000
-316.291382 325.841492 -49.298302 0.000000
-302.808105 325.841492 -49.298302 0.000000
-289.324799 325.841492 -49.298302 -0.337153
-275.841492 325.841492 -49.298302 -0.431666
-262.358185 325.841492 -49.298302 -0.312752
-248.874893 325.841492 -49.298302 -0.453160
-235.391602 325.841492 -49.298302 -0.532300
-221.908295 325.841492 -49.298302 -0.416478
-208.424988 325.841492 -49.298302 -0.649580
-194.941696 325.841492 -49.298302 -0.835263
-181.458389 325.841492 -49.298302 -0.913660
-167.975098 325.841492 -49.298302 -0.602612
-154.491791 325.841492 -49.298302 -0.743800
-141.008499 325.841492 -49.298302 -0.597533
-127.525192 325.841492 -49.298302 -0.419679
-114.041885 325.841492 -49.298302 0.174806
-100.558594 325.841492 -49.298302 0.760284
-87.075287 325.841492 -49.298302 1.022044
-73.591980 325.841492 -49.298302 1.576148
-60.108704 325.841492 -49.298302 1.519175
-46.625397 325.841492 -49.298302 1.755466
-33.142090 325.841492 -49.298302 1.712367
-19.658783 325.841492 -49.298302 1.176368
-6.175476 325.841492 -49.298302 0.921624
7.307800 325.841492 -49.298302 0.678877
20.791107 325.841492 -49.298302 0.374732
34.274414 325.841492 -49.298302 0.247788
47.757721 325.841492 -49.298302 0.022417
61.240997 325.841492 -49.298302 -0.176029
74.724304 325.841492 -49.298302 -0.261387
88.207611 325.841492 -49.298302 -0.462494
101.690918 325.841492 -49.298302 -0.691030
115.174225 325.841492 -49.298302 -0.586946
128.657501 325.841492 -49.298302 -0.607969
142.140808 325.841492 -49.298302 -0.326232
155.624115 325.841492 -49.298302 -0.288731
169.107422 325.841492 -49.298302 0.055801
182.590698 325.841492 -49.298302 0.304577
196.074036 325.841492 -49.298302 0.464175
209.557312 325.841492 -49.298302 0.752313
223.040588 325.841492 -49.298302 1.000163
236.523926 325.841492 -49.298302 0.855707
250.007202 325.841492 -49.298302 0.713568
263.490540 325.841492 -49.298302 0.651371
276.973816 325.841492 -49.298302 0.632175
290.457092 325.841492 -49.298302 0.000000
303.940430 325.841492 -49.298302 0.000000
317.423706 325.841492 -49.298302 0.000000
330.907043 325.841492 -49.298302 0.000000
344.390320 325.841492 -49.298302 0.000000
-343.257996 312.358185 -49.298302 0.000000
-329.774689 312.358185 -49.298302 0.000000
-316.291382 312.358185 -49.298302 0.000000
-302.808105 312.358185 -49.298302 0.000000
-289.324799 312.358185 -49.298302 -0.194655
-275.841492 312.358185 -49.298302 -0.216251
-262.358185 312.358185 -49.298302 -0.206547
-248.874893 312.358185 -49.298302 -0.415562
-235.391602 312.358185 -49.298302 -0.425613
-221.908295 312.358185 -49.298302 -0.377017
-208.424988 312.358185 -49.298302 -0.434787
-194.941696 312.358185 -49.298302 -0.562527
-181.458389 312.358185 -49.298302 -0.686929
-167.975098 312.358185 -49.298302 -0.831076
-154.491791 312.358185 -49.298302 -0.810734
-141.008499 312.358185 -49.298302 -0.637509
-127.525192 312.358185 -49.298302 -0.329706
-114.041885 312.358185 -49.298302 -0.014398
-100.558594 312.358185 -49.298302 0.640089
-87.075287 312.358185 -49.298302 0.927927
-73.591980 312.358185 -49.298302 1.359570
-60.108704 312.358185 -49.298302 1.526668
-46.625397 312.358185 -49.298302 1.785021
-33.142090 312.358185 -49.298302 1.653459
-19.658783 312.358185 -49.298302 1.153084
-6.175476 312.358185 -49.298302 1.038382
7.307800 312.358185 -49.298302 0.702819
20.791107 312.358185 -49.298302 0.471260
34.274414 312.358185 -49.298302 0.223639
47.757721 312.358185 -49.298302 -0.072969
61.240997 312.358185 -49.298302 -0.300113
74.724304 312.358185 -49.298302 -0.404870
88.207611 312.358185 -49.298302 -0.574291
101.690918 312.358185 -49.298302 -0.704400
115.174225 312.358185 -49.298302 -0.594104
128.657501 312.358185 -49.298302 -0.756284
142.140808 312.358185 -49.298302 -0.396296
155.624115 312.358185 -49.298302 -0.114883
169.107422 312.358185 -49.298302 -0.122244
182.590698 312.358185 -49.298302 0.213856
196.074036 312.358185 -49.298302 0.455217
209.557312 312.358185 -49.298302 0.733359
223.040588 312.358185 -49.298302 0.770611
236.523926 312.358185 -49.298302 0.795009
250.007202 312.358185 -49.298302 0.664690
263.490540 312.358185 -49.298302 0.603002
276.973816 312.358185 -49.298302 0.503180
290.457092 312.358185 -49.298302 0.362730
303.940430 312.358185 -49.298302 0.000000
317.423706 312.358185 -49.298302 0.000000
330.907043 312.358185 -49.298302 0.000000
344.390320 312.358185 -49.298302 0.000000
-343.257996 298.874878 -49.298302 0.000000
-329.774689 298.874878 -49.298302 0.000000
-316.291382 298.874878 -49.298302 0.000000
-302.808105 298.874878 -49.298302 0.000000
-289.324799 298.874878 -49.298302 -0.115959
-275.841492 298.874878 -49.298302 -0.050401
-262.358185 298.874878 -49.298302 -0.167088
-248.874893 298.874878 -49.298302 -0.194319
-235.391602 298.874878 -49.298302 -0.226350
-221.908295 298.874878 -49.298302 -0.349286
-208.424988 298.874878 -49.298302 -0.337953
-194.941696 298.874878 -49.298302 -0.391899
-181.458389 298.874878 -49.298302 -0.486007
-167.975098 298.874878 -49.298302 -0.784856
-154.491791 298.874878 -49.298302 -0.734329
-141.008499 298.874878 -49.298302 -0.567226
-127.525192 298.874878 -49.298302 -0.365044
-114.041885 298.874878 -49.298302 -0.239455
-100.558594 298.874878 -49.298302 0.367768
-87.075287 298.874878 -49.298302 0.899028
-73.591980 298.874878 -49.298302 1.163926
-60.108704 298.874878 -49.298302 1.286429
-46.625397 298.874878 -49.298302 1.597148
-33.142090 298.874878 -49.298302 1.807241
-19.658783 298.874878 -49.298302 1.794348
-6.175476 298.874878 -49.298302 1.275958
7.307800 298.874878 -49.298302 0.592537
20.791107 298.874878 -49.298302 0.338615
34.274414 298.874878 -49.298302 0.178786
47.757721 298.874878 -49.298302 -0.037978
61.240997 298.874878 -49.298302 -0.398393
74.724304 298.874878 -49.298302 -0.648688
88.207611 298.874878 -49.298302 -0.663917
101.690918 298.874878 -49.298302 -0.714728
115.174225 298.874878 -49.298302 -0.543910
128.657501 298.874878 -49.298302 -0.352646
142.140808 298.874878 -49.298302 -0.157334
155.624115 298.874878 -49.298302 -0.006617
169.107422 298.874878 -49.298302 -0.035849
182.590698 298.874878 -49.298302 0.111481
196.074036 298.874878 -49.298302 0.529941
209.557312 298.874878 -49.298302 0.613368
223.040588 298.874878 -49.298302 0.698603
236.523926 298.874878 -49.298302 0.647872
250.007202 298.874878 -49.298302 0.605174
263.490540 298.874878 -49.298302 0.437969
276.973816 298.874878 -49.298302 0.347438
290.457092 298.874878 -49.298302 0.241059
303.940430 298.874878 -49.298302 0.000000
317.423706 298.874878 -49.298302 0.000000
330.907043 298.874878 -49.298302 0.000000
344.390320 298.874878 -49.298302 0.000000
-343.257996 285.391602 -49.298302 0.000000
-329.774689 285.391602 -49.298302 0.000000
-316.291382 285.391602 -49.298302 0.000000
-302.808105 285.391602 -49.298302 -0.065560
-289.324799 285.391602 -49.298302 -0.034136
-275.841492 285.391602 -49.298302 -0.052484
-262.358185 285.391602 -49.298302 -0.109964
-248.874893 285.391602 -49.298302 -0.126705
-235.391602 285.391602 -49.298302 -0.109635
-221.908295 285.391602 -49.298302 -0.202139
-208.424988 285.391602 -49.298302 -0.259458
-194.941696 285.391602 -49.298302 -0.371142
-181.458389 285.391602 -49.298302 -0.595317
-167.975098 285.391602 -49.298302 -0.705377
-154.491791 285.391602 -49.298302 -0.758250
-141.008499 285.391602 -49.298302 -0.771022
-127.525192 285.391602 -49.298302 -0.638374
-114.041885 285.391602 -49.298302 -0.481374
-100.558594 285.391602 -49.298302 0.070677
-87.075287 285.391602 -49.298302 0.550635
-73.591980 285.391602 -49.298302 1.114823
-60.108704 285.391602 -49.298302 1.516435
-46.625397 285.391602 -49.298302 1.786074
-33.142090 285.391602 -49.298302 1.959983
-19.658783 285.391602 -49.298302 1.717573
-6.175476 285.391602 -49.298302 1.292443
7.307800 285.391602 -49.298302 0.777455
20.791107 285.391602 -49.298302 0.251769
34.274414 285.391602 -49.298302 0.117532
47.757721 285.391602 -49.298302 -0.202724
61.240997 285.391602 -49.298302 -0.474273
74.724304 285.391602 -49.298302 -0.765138
88.207611 285.391602 -49.298302 -0.613196
101.690918 285.391602 -49.298302 -0.494695
115.174225 285.391602 -49.298302 -0.280164
128.657501 285.391602 -49.298302 -0.046699
142.140808 285.391602 -49.298302 0.235746
155.624115 285.391602 -49.298302 0.245275
169.107422 285.391602 -49.298302 0.422693
182.590698 285.391602 -49.298302 0.338736
196.074036 285.391602 -49.298302 0.537201
209.557312 285.391602 -49.298302 0.729396
223.040588 285.391602 -49.298302 0.771362
236.523926 285.391602 -49.298302 0.667893
250.007202 285.391602 -49.298302 0.533227
263.490540 285.391602 -49.298302 0.397144
276.973816 285.391602 -49.298302 0.184797
290.457092 285.391602 -49.298302 0.150198
303.940430 285.391602 -49.298302 0.000000
317.423706 285.391602 -49.298302 0.000000
330.907043 285.391602 -49.298302 0.000000
344.390320 285.391602 -49.298302 0.000000
-343.257996 271.908295 -49.298302 0.000000
-329.774689 271.908295 -49.298302 0.000000
-316.291382 271.908295 -49.298302 0.000000
-302.808105 271.908295 -49.298302 -0.032496
-289.324799 271.908295 -49.298302 -0.043537
-275.841492 271.908295 -49.298302 -0.078072
-262.358185 271.908295 -49.298302 -0.116802
-248.874893 271.908295 -49.298302 -0.122105
-235.391602 271.908295 -49.298302 -0.132133
-221.908295 271.908295 -49.298302 -0.117090
-208.424988 271.908295 -49.298302 -0.223753
-194.941696 271.908295 -49.298302 -0.381297
-181.458389 271.908295 -49.298302 -0.624887
-167.975098 271.908295 -49.298302 -0.574124
-154.491791 271.908295 -49.298302 -0.658675
-141.008499 271.908295 -49.298302 -0.717933
-127.525192 271.908295 -49.298302 -0.723851
-114.041885 271.908295 -49.298302 -0.495338
-100.558594 271.908295 -49.298302 -0.279672
-87.075287 271.908295 -49.298302 0.518556
-73.591980 271.908295 -49.298302 0.834781
-60.108704 271.908295 -49.298302 1.513945
-46.625397 271.908295 -49.298302 1.815769
-33.142090 271.908295 -49.298302 2.090839
-19.658783 271.908295 -49.298302 1.939630
-6.175476 271.908295 -49.298302 1.525310
7.307800 271.908295 -49.298302 0.767123
20.791107 271.908295 -49.298302 0.444361
34.274414 271.908295 -49.298302 0.007131
47.757721 271.908295 -49.298302 -0.321397
61.240997 271.908295 -49.298302 -0.624636
74.724304 271.908295 -49.298302 -0.664817
88.207611 271.908295 -49.298302 -0.709655
101.690918 271.908295 -49.298302 -0.403967
115.174225 271.908295 -49.298302 -0.181866
128.657501 271.908295 -49.298302 0.024461
142.140808 271.908295 -49.298302 0.083569
155.624115 271.908295 -49.298302 0.280435
169.107422 271.908295 -49.298302 0.426994
182.590698 271.908295 -49.298302 0.488477
196.074036 271.908295 -49.298302 0.681299
209.557312 271.908295 -49.298302 0.649619
223.040588 271.908295 -49.298302 0.542125
236.523926 271.908295 -49.298302 0.457431
250.007202 271.908295 -49.298302 0.381274
263.490540 271.908295 -49.298302 0.293517
276.973816 271.908295 -49.298302 0.182726
290.457092 271.908295 -49.298302 0.133632
303.940430 271.908295 -49.298302 0.000000
317.423706 271.908295 -49.298302 0.000000
330.907043 271.908295 -49.298302 0.000000
344.390320 271.908295 -49.298302 0.000000
-343.257996 258.424988 -49.298302 0.000000
-329.774689 258.424988 -49.298302 0.000000
-316.291382 258.424988 -49.298302 0.000000
-302.808105 258.424988 -49.298302 -0.040546
-289.324799 258.424988 -49.298302 -0.060720
-275.841492 258.424988 -49.298302 -0.085259
-262.358185 258.424988 -49.298302 -0.105987
-248.874893 258.424988 -49.298302 -0.087181
-235.391602 258.424988 -49.298302 -0.105898
-221.908295 258.424988 -49.298302 -0.089898
-208.424988 258.424988 -49.298302 -0.194938
-194.941696 258.424988 -49.298302 -0.402914
-181.458389 258.424988 -49.298302 -0.468936
-167.975098 258.424988 -49.298302 -0.364701
-154.491791 258.424988 -49.298302 -0.507845
-141.008499 258.424988 -49.298302 -0.643317
-127.525192 258.424988 -49.298302 -0.657520
-114.041885 258.424988 -49.298302 -0.422079
-100.558594 258.424988 -49.298302 -0.221731
-87.075287 258.424988 -49.298302 0.332690
-73.591980 258.424988 -49.298302 0.922907
-60.108704 258.424988 -49.298302 1.349427
-46.625397 258.424988 -49.298302 1.813776
-33.142090 258.424988 -49.298302 2.098372
-19.658783 258.424988 -49.298302 1.857661
-6.175476 258.424988 -49.298302 1.522368
7.307800 258.424988 -49.298302 0.745963
20.791107 258.424988 -49.298302 0.305271
34.274414 258.424988 -49.298302 -0.022178
47.757721 258.424988 -49.298302 -0.655775
61.240997 258.424988 -49.298302 -0.744517
74.724304 258.424988 -49.298302 -0.640228
88.207611 258.424988 -49.298302 -0.835773
101.690918 258.424988 -49.298302 -0.454375
115.174225 258.424988 -49.298302 -0.321034
128.657501 258.424988 -49.298302 -0.121982
142.140808 258.424988 -49.298302 -0.160359
155.624115 258.424988 -49.298302 0.230210
169.107422 258.424988 -49.298302 0.298468
182.590698 258.424988 -49.298302 0.435605
196.074036 258.424988 -49.298302 0.568792
209.557312 258.424988 -49.298302 0.566399
223.040588 258.424988 -49.298302 0.438100
236.523926 258.424988 -49.298302 0.380290
250.007202 258.424988 -49.298302 0.330589
263.490540 258.424988 -49.298302 0.271825
276.973816 258.424988 -49.298302 0.168257
290.457092 258.424988 -49.298302 0.112477
303.940430 258.424988 -49.298302 0.000000
317.423706 258.424988 -49.298302 0.000000
330.907043 258.424988 -49.298302 0.000000
344.390320 258.424988 -49.298302 0.000000
-343.257996 244.941696 -49.298302 0.000000
-329.774689 244.941696 -49.298302 0.000000
-316.291382 244.941696 -49.298302 0.000000
-302.808105 244.941696 -49.298302 -0.046871
-289.324799 244.941696 -49.298302 -0.003095
-275.841492 244.941696 -49.298302 -0.055755
-262.358185 244.941696 -49.298302 -0.071381
-248.874893 244.941696 -49.298302 -0.094263
-235.391602 244.941696 -49.298302 -0.134504
-221.908295 244.941696 -49.298302 -0.165361
-208.424988 244.941696 -49.298302 -0.218640
-194.941696 244.941696 -49.298302 -0.273003
-181.458389 244.941696 -49.298302 -0.372267
-167.975098 244.941696 -49.298302 -0.487435
-154.491791 244.941696 -49.298302 -0.534995
-141.008499 244.941696 -49.298302 -0.541746
-127.525192 244.941696 -49.298302 -0.496015
-114.041885 244.941696 -49.298302 -0.388372
-100.558594 244.941696 -49.298302 -0.225315
-87.075287 244.941696 -49.298302 0.322804
-73.591980 244.941696 -49.298302 0.573244
-60.108704 244.941696 -49.298302 1.001860
-46.625397 244.941696 -49.298302 1.798116
-33.142090 244.941696 -49.298302 2.049634
-19.658783 244.941696 -49.298302 1.949425
-6.175476 244.941696 -49.298302 1.510324
7.307800 244.941696 -49.298302 0.841699
20.791107 244.941696 -49.298302 0.286077
34.274414 244.941696 -49.298302 -0.062271
47.757721 244.941696 -49.298302 -0.588604
61.240997 244.941696 -49.298302 -1.139842
74.724304 244.941696 -49.298302 -0.862835
88.207611 244.941696 -49.298302 -0.863933
101.690918 244.941696 -49.298302 -0.645050
115.174225 244.941696 -49.298302 -0.676238
128.657501 244.941696 -49.298302 -0.182444
142.140808 244.941696 -49.298302 0.023285
155.624115 244.941696 -49.298302 0.114328
169.107422 244.941696 -49.298302 0.212032
182.590698 244.941696 -49.298302 0.244804
196.074036 244.941696 -49.298302 0.474121
209.557312 244.941696 -49.298302 0.443477
223.040588 244.941696 -49.298302 0.302362
236.523926 244.941696 -49.298302 0.188806
250.007202 244.941696 -49.298302 0.167865
263.490540 244.941696 -49.298302 0.162671
276.973816 244.941696 -49.298302 0.129162
290.457092 244.941696 -49.298302 0.070777
303.940430 244.941696 -49.298302 0.000000
317.423706 244.941696 -49.298302 0.000000
330.907043 244.941696 -49.298302 0.000000
344.390320 244.941696 -49.298302 0.000000
-343.257996 231.458389 -49.298302 0.000000
-329.774689 231.458389 -49.298302 0.000000
-316.291382 231.458389 -49.298302 0.000000
-302.808105 231.458389 -49.298302 -0.064287
-289.324799 231.458389 -49.298302 -0.045349
-275.841492 231.458389 -49.298302 -0.062586
-262.358185 231.458389 -49.298302 -0.091793
-248.874893 231.458389 -49.298302 -0.171765
-235.391602 231.458389 -49.298302 -0.156346
-221.908295 231.458389 -49.298302 -0.169617
-208.424988 231.458389 -49.298302 -0.290038
-194.941696 231.458389 -49.298302 -0.316989
-181.458389 231.458389 -49.298302 -0.461273
-167.975098 231.458389 -49.298302 -0.659710
-154.491791 231.458389 -49.298302 -0.721673
-141.008499 231.458389 -49.298302 -0.650273
-127.525192 231.458389 -49.298302 -0.448229
-114.041885 231.458389 -49.298302 -0.381612
-100.558594 231.458389 -49.298302 -0.078446
-87.075287 231.458389 -49.298302 0.193871
-73.591980 231.458389 -49.298302 0.224818
-60.108704 231.458389 -49.298302 0.620719
-46.625397 231.458389 -49.298302 1.621638
-33.142090 231.458389 -49.298302 1.956902
-19.658783 231.458389 -49.298302 2.122629
-6.175476 231.458389 -49.298302 1.698740
7.307800 231.458389 -49.298302 1.183957
20.791107 231.458389 -49.298302 0.280470
34.274414 231.458389 -49.298302 -0.200975
47.757721 231.458389 -49.298302 -0.819516
61.240997 231.458389 -49.298302 -1.283240
74.724304 231.458389 -49.298302 -1.493323
88.207611 231.458389 -49.298302 -1.326855
101.690918 231.458389 -49.298302 -1.090347
115.174225 231.458389 -49.298302 -0.784236
128.657501 231.458389 -49.298302 -0.468138
142.140808 231.458389 -49.298302 -0.002253
155.624115 231.458389 -49.298302 0.146308
169.107422 231.458389 -49.298302 0.268844
182.590698 231.458389 -49.298302 0.346863
196.074036 231.458389 -49.298302 0.364208
209.557312 231.458389 -49.298302 0.418361
223.040588 231.458389 -49.298302 0.229608
236.523926 231.458389 -49.298302 0.079441
250.007202 231.458389 -49.298302 0.046522
263.490540 231.458389 -49.298302 0.015792
276.973816 231.458389 -49.298302 0.010304
290.457092 231.458389 -49.298302 -0.012311
303.940430 231.458389 -49.298302 0.000000
317.423706 231.458389 -49.298302 0.000000
330.907043 231.458389 -49.298302 0.000000
344.390320 231.458389 -49.298302 0.000000
-343.257996 217.975098 -49.298302 0.000000
-329.774689 217.975098 -49.298302 0.000000
-316.291382 217.975098 -49.298302 0.000000
-302.808105 217.975098 -49.298302 -0.030438
-289.324799 217.975098 -49.298302 -0.049841
-275.841492 217.975098 -49.298302 -0.067526
-262.358185 217.975098 -49.298302 -0.095503
-248.874893 217.975098 -49.298302 -0.197137
-235.391602 217.975098 -49.298302 -0.196370
-221.908295 217.975098 -49.298302 -0.212646
-208.424988 217.975098 -49.298302 -0.256145
-194.941696 217.975098 -49.298302 -0.492487
-181.458389 217.975098 -49.298302 -0.454288
-167.975098 217.975098 -49.298302 -0.737621
-154.491791 217.975098 -49.298302 -0.678734
-141.008499 217.975098 -49.298302 -0.729353
-127.525192 217.975098 -49.298302 -0.655553
-114.041885 217.975098 -49.298302 -0.288685
-100.558594 217.975098 -49.298302 -0.277121
-87.075287 217.975098 -49.298302 0.127196
-73.591980 217.975098 -49.298302 0.385054
-60.108704 217.975098 -49.298302 0.820409
-46.625397 217.975098 -49.298302 1.598475
-33.142090 217.975098 -49.298302 1.790577
-19.658783 217.975098 -49.298302 1.895141
-6.175476 217.975098 -49.298302 1.887176
7.307800 217.975098 -49.298302 1.254886
20.791107 217.975098 -49.298302 0.219713
34.274414 217.975098 -49.298302 -0.698294
47.757721 217.975098 -49.298302 -1.340026
61.240997 217.975098 -49.298302 -1.733928
74.724304 217.975098 -49.298302 -2.076633
88.207611 217.975098 -49.298302 -1.512197
101.690918 217.975098 -49.298302 -1.158765
115.174225 217.975098 -49.298302 -0.728015
128.657501 217.975098 -49.298302 -0.396460
142.140808 217.975098 -49.298302 0.048412
155.624115 217.975098 -49.298302 0.197129
169.107422 217.975098 -49.298302 0.188884
182.590698 217.975098 -49.298302 0.285874
196.074036 217.975098 -49.298302 0.297037
209.557312 217.975098 -49.298302 0.231616
223.040588 217.975098 -49.298302 0.155460
236.523926 217.975098 -49.298302 0.039010
250.007202 217.975098 -49.298302 -0.044353
263.490540 217.975098 -49.298302 -0.050499
276.973816 217.975098 -49.298302 -0.078954
290.457092 217.975098 -49.298302 -0.057322
303.940430 217.975098 -49.298302 0.000000
317.423706 217.975098 -49.298302 0.000000
330.907043 217.975098 -49.298302 0.000000
344.390320 217.975098 -49.298302 0.000000
-343.257996 204.491791 -49.298302 0.000000
-329.774689 204.491791 -49.298302 0.000000
-316.291382 204.491791 -49.298302 0.000000
-302.808105 204.491791 -49.298302 -0.081849
-289.324799 204.491791 -49.298302 -0.088116
-275.841492 204.491791 -49.298302 -0.078493
-262.358185 204.491791 -49.298302 -0.137799
-248.874893 204.491791 -49.298302 -0.183160
-235.391602 204.491791 -49.298302 -0.219025
-221.908295 204.491791 -49.298302 -0.212423
-208.424988 204.491791 -49.298302 -0.288450
-194.941696 204.491791 -49.298302 -0.527373
-181.458389 204.491791 -49.298302 -0.451790
-167.975098 204.491791 -49.298302 -0.590258
-154.491791 204.491791 -49.298302 -0.582859
-141.008499 204.491791 -49.298302 -0.700605
-127.525192 204.491791 -49.298302 -0.573505
-114.041885 204.491791 -49.298302 -0.395737
-100.558594 204.491791 -49.298302 -0.228136
-87.075287 204.491791 -49.298302 0.055861
-73.591980 204.491791 -49.298302 0.389021
-60.108704 204.491791 -49.298302 0.650781
-46.625397 204.491791 -49.298302 1.414512
-33.142090 204.491791 -49.298302 1.901816
-19.658783 204.491791 -49.298302 1.770894
-6.175476 204.491791 -49.298302 1.005073
7.307800 204.491791 -49.298302 0.414447
20.791107 204.491791 -49.298302 -0.195623
34.274414 204.491791 -49.298302 -0.907862
47.757721 204.491791 -49.298302 -1.695141
61.240997 204.491791 -49.298302 -2.378349
74.724304 204.491791 -49.298302 -2.083543
88.207611 204.491791 -49.298302 -1.442611
101.690918 204.491791 -49.298302 -1.071216
115.174225 204.491791 -49.298302 -0.763970
128.657501 204.491791 -49.298302 -0.646923
142.140808 204.491791 -49.298302 -0.027864
155.624115 204.491791 -49.298302 0.152877
169.107422 204.491791 -49.298302 0.216425
182.590698 204.491791 -49.298302 0.233351
196.074036 204.491791 -49.298302 0.096246
209.557312 204.491791 -49.298302 0.105610
223.040588 204.491791 -49.298302 0.024745
236.523926 204.491791 -49.298302 -0.083349
250.007202 204.491791 -49.298302 -0.095627
263.490540 204.491791 -49.298302 -0.109099
276.973816 204.491791 -49.298302 -0.137053
290.457092 204.491791 -49.298302 -0.073989
303.940430 204.491791 -49.298302 0.000000
317.423706 204.491791 -49.298302 0.000000
330.907043 204.491791 -49.298302 0.000000
344.390320 204.491791 -49.298302 0.000000
-343.257996 191.008499 -49.298302 0.000000
-329.774689 191.008499 -49.298302 0.000000
-316.291382 191.008499 -49.298302 0.000000
-302.808105 191.008499 -49.298302 -0.105892
-289.324799 191.008499 -49.298302 -0.081645
-275.841492 191.008499 -49.298302 -0.070604
-262.358185 191.008499 -49.298302 -0.110270
-248.874893 191.008499 -49.298302 -0.138918
-235.391602 191.008499 -49.298302 -0.275455
-221.908295 191.008499 -49.298302 -0.293826
-208.424988 191.008499 -49.298302 -0.318476
-194.941696 191.008499 -49.298302 -0.491778
-181.458389 191.008499 -49.298302 -0.504563
-167.975098 191.008499 -49.298302 -0.509180
-154.491791 191.008499 -49.298302 -0.502518
-141.008499 191.008499 -49.298302 -0.582334
-127.525192 191.008499 -49.298302 -0.522086
-114.041885 191.008499 -49.298302 -0.395812
-100.558594 191.008499 -49.298302 -0.330959
-87.075287 191.008499 -49.298302 -0.063443
-73.591980 191.008499 -49.298302 0.284938
-60.108704 191.008499 -49.298302 0.799421
-46.625397 191.008499 -49.298302 1.437939
-33.142090 191.008499 -49.298302 1.716189
-19.658783 191.008499 -49.298302 1.466298
-6.175476 191.008499 -49.298302 0.815549
7.307800 191.008499 -49.298302 -0.223108
20.791107 191.008499 -49.298302 -0.736285
34.274414 191.008499 -49.298302 -1.383203
47.757721 191.008499 -49.298302 -2.044335
61.240997 191.008499 -49.298302 -2.150820
74.724304 191.008499 -49.298302 -1.862906
88.207611 191.008499 -49.298302 -1.251878
101.690918 191.008499 -49.298302 -0.967837
115.174225 191.008499 -49.298302 -0.533425
128.657501 191.008499 -49.298302 -0.420998
142.140808 191.008499 -49.298302 -0.108523
155.624115 191.008499 -49.298302 0.046035
169.107422 191.008499 -49.298302 0.095879
182.590698 191.008499 -49.298302 0.065343
196.074036 191.008499 -49.298302 0.047761
209.557312 191.008499 -49.298302 0.064988
223.040588 191.008499 -49.298302 0.000998
236.523926 191.008499 -49.298302 -0.105394
250.007202 191.008499 -49.298302 -0.143698
263.490540 191.008499 -49.298302 -0.149690
276.973816 191.008499 -49.298302 -0.125767
290.457092 191.008499 -49.298302 -0.093747
303.940430 191.008499 -49.298302 0.000000
317.423706 191.008499 -49.298302 0.000000
330.907043 191.008499 -49.298302 0.000000
344.390320 191.008499 -49.298302 0.000000
-343.257996 177.525192 -49.298302 0.000000
-329.774689 177.525192 -49.298302 0.000000
-316.291382 177.525192 -49.298302 0.000000
-302.808105 177.525192 -49.298302 -0.100213
-289.324799 177.525192 -49.298302 -0.083791
-275.841492 177.525192 -49.298302 -0.050386
-262.358185 177.525192 -49.298302 -0.040235
-248.874893 177.525192 -49.298302 -0.109255
-235.391602 177.525192 -49.298302 -0.321747
-221.908295 177.525192 -49.298302 -0.345488
-208.424988 177.525192 -49.298302 -0.468872
-194.941696 177.525192 -49.298302 -0.563435
-181.458389 177.525192 -49.298302 -0.557200
-167.975098 177.525192 -49.298302 -0.555970
-154.491791 177.525192 -49.298302 -0.575362
-141.008499 177.525192 -49.298302 -0.570862
-127.525192 177.525192 -49.298302 -0.432058
-114.041885 177.525192 -49.298302 -0.282437
-100.558594 177.525192 -49.298302 -0.373660
-87.075287 177.525192 -49.298302 -0.108395
-73.591980 177.525192 -49.298302 0.440476
-60.108704 177.525192 -49.298302 0.882695
-46.625397 177.525192 -49.298302 1.270674
-33.142090 177.525192 -49.298302 1.467101
-19.658783 177.525192 -49.298302 1.268010
-6.175476 177.525192 -49.298302 0.579463
7.307800 177.525192 -49.298302 -0.538072
20.791107 177.525192 -49.298302 -1.395079
34.274414 177.525192 -49.298302 -1.775603
47.757721 177.525192 -49.298302 -2.063003
61.240997 177.525192 -49.298302 -1.966408
74.724304 177.525192 -49.298302 -1.666555
88.207611 177.525192 -49.298302 -1.072481
101.690918 177.525192 -49.298302 -0.637267
115.174225 177.525192 -49.298302 -0.280488
128.657501 177.525192 -49.298302 -0.260783
142.140808 177.525192 -49.298302 -0.120549
155.624115 177.525192 -49.298302 -0.006402
169.107422 177.525192 -49.298302 -0.017026
182.590698 177.525192 -49.298302 -0.020017
196.074036 177.525192 -49.298302 0.026179
209.557312 177.525192 -49.298302 -0.017165
223.040588 177.525192 -49.298302 -0.057146
236.523926 177.525192 -49.298302 -0.100507
250.007202 177.525192 -49.298302 -0.119491
263.490540 177.525192 -49.298302 -0.123873
276.973816 177.525192 -49.298302 -0.100823
290.457092 177.525192 -49.298302 -0.086822
303.940430 177.525192 -49.298302 0.000000
317.423706 177.525192 -49.298302 0.000000
330.907043 177.525192 -49.298302 0.000000
344.390320 177.525192 -49.298302 0.000000
-343.257996 164.041885 -49.298302 0.000000
-329.774689 164.041885 -49.298302 0.000000
-316.291382 164.041885 -49.298302 0.000000
-302.808105 164.041885 -49.298302 -0.030996
-289.324799 164.041885 -49.298302 -0.034156
-275.841492 164.041885 -49.298302 -0.008439
-262.358185 164.041885 -49.298302 -0.010685
-248.874893 164.041885 -49.298302 -0.050740
-235.391602 164.041885 -49.298302 -0.156725
-221.908295 164.041885 -49.298302 -0.300650
-208.424988 164.041885 -49.298302 -0.443398
-194.941696 164.041885 -49.298302 -0.578220
-181.458389 164.041885 -49.298302 -0.606206
-167.975098 164.041885 -49.298302 -0.593930
-154.491791 164.041885 -49.298302 -0.738975
-141.008499 164.041885 -49.298302 -0.617391
-127.525192 164.041885 -49.298302 -0.452059
-114.041885 164.041885 -49.298302 -0.375431
-100.558594 164.041885 -49.298302 -0.170317
-87.075287 164.041885 -49.298302 -0.166366
-73.591980 164.041885 -49.298302 0.117176
-60.108704 164.041885 -49.298302 0.691632
-46.625397 164.041885 -49.298302 1.054267
-33.142090 164.041885 -49.298302 1.298341
-19.658783 164.041885 -49.298302 1.100983
-6.175476 164.041885 -49.298302 0.406343
7.307800 164.041885 -49.298302 -0.578494
20.791107 164.041885 -49.298302 -1.224144
34.274414 164.041885 -49.298302 -1.569983
47.757721 164.041885 -49.298302 -1.962895
61.240997 164.041885 -49.298302 -1.852054
74.724304 164.041885 -49.298302 -1.416981
88.207611 164.041885 -49.298302 -0.656068
101.690918 164.041885 -49.298302 -0.438697
115.174225 164.041885 -49.298302 -0.182454
128.657501 164.041885 -49.298302 -0.162322
142.140808 164.041885 -49.298302 -0.100342
155.624115 164.041885 -49.298302 -0.036273
169.107422 164.041885 -49.298302 0.013325
182.590698 164.041885 -49.298302 -0.058616
196.074036 164.041885 -49.298302 -0.022828
209.557312 164.041885 -49.298302 -0.056319
223.040588 164.041885 -49.298302 -0.147729
236.523926 164.041885 -49.298302 -0.125896
250.007202 164.041885 -49.298302 -0.097842
263.490540 164.041885 -49.298302 -0.086826
276.973816 164.041885 -49.298302 -0.090432
290.457092 164.041885 -49.298302 -0.074847
303.940430 164.041885 -49.298302 0.000000
317.423706 164.041885 -49.298302 0.000000
330.907043 164.041885 -49.298302 0.000000
344.390320 164.041885 -49.298302 0.000000
-343.257996 150.558594 -49.298302 0.000000
-329.774689 150.558594 -49.298302 0.000000
-316.291382 150.558594 -49.298302 0.000000
-302.808105 150.558594 -49.298302 0.010323
-289.324799 150.558594 -49.298302 0.073487
-275.841492 150.558594 -49.298302 0.055664
-262.358185 150.558594 -49.298302 0.039967
-248.874893 150.558594 -49.298302 -0.063160
-235.391602 150.558594 -49.298302 -0.144348
-221.908295 150.558594 -49.298302 -0.212248
-208.424988 150.558594 -49.298302 -0.454116
-194.941696 150.558594 -49.298302 -0.571547
-181.458389 150.558594 -49.298302 -0.739513
-167.975098 150.558594 -49.298302 -0.732762
-154.491791 150.558594 -49.298302 -0.878874
-141.008499 150.558594 -49.298302 -0.867976
-127.525192 150.558594 -49.298302 -0.541780
-114.041885 150.558594 -49.298302 -0.268948
-100.558594 150.558594 -49.298302 -0.139914
-87.075287 150.558594 -49.298302 0.296455
-73.591980 150.558594 -49.298302 0.612421
-60.108704 150.558594 -49.298302 0.773093
-46.625397 150.558594 -49.298302 1.376124
-33.142090 150.558594 -49.298302 1.366449
-19.658783 150.558594 -49.298302 0.947859
-6.175476 150.558594 -49.298302 0.402906
7.307800 150.558594 -49.298302 -0.342328
20.791107 150.558594 -49.298302 -1.152056
34.274414 150.558594 -49.298302 -1.601066
47.757721 150.558594 -49.298302 -1.843059
61.240997 150.558594 -49.298302 -1.733561
74.724304 150.558594 -49.298302 -1.192924
88.207611 150.558594 -49.298302 -0.484071
101.690918 150.558594 -49.298302 -0.208717
115.174225 150.558594 -49.298302 -0.028803
128.657501 150.558594 -49.298302 -0.009634
142.140808 150.558594 -49.298302 0.000455
155.624115 150.558594 -49.298302 0.038172
169.107422 150.558594 -49.298302 0.016002
182.590698 150.558594 -49.298302 -0.024053
196.074036 150.558594 -49.298302 -0.060878
209.557312 150.558594 -49.298302 -0.080858
223.040588 150.558594 -49.298302 -0.098094
236.523926 150.558594 -49.298302 -0.092135
250.007202 150.558594 -49.298302 -0.071916
263.490540 150.558594 -49.298302 -0.071159
276.973816 150.558594 -49.298302 -0.064613
290.457092 150.558594 -49.298302 -0.058408
303.940430 150.558594 -49.298302 0.000000
317.423706 150.558594 -49.298302 0.000000
330.907043 150.558594 -49.298302 0.000000
344.390320 150.558594 -49.298302 0.000000
-343.257996 137.075287 -49.298302 0.000000
-329.774689 137.075287 -49.298302 0.000000
-316.291382 137.075287 -49.298302 0.000000
-302.808105 137.075287 -49.298302 0.081490
-289.324799 137.075287 -49.298302 0.113294
-275.841492 137.075287 -49.298302 0.171816
-262.358185 137.075287 -49.298302 0.186927
-248.874893 137.075287 -49.298302 0.033671
-235.391602 137.075287 -49.298302 -0.081337
-221.908295 137.075287 -49.298302 -0.211164
-208.424988 137.075287 -49.298302 -0.433443
-194.941696 137.075287 -49.298302 -0.530715
-181.458389 137.075287 -49.298302 -0.815348
-167.975098 137.075287 -49.298302 -0.849707
-154.491791 137.075287 -49.298302 -0.939551
-141.008499 137.075287 -49.298302 -0.839942
-127.525192 137.075287 -49.298302 -0.838742
-114.041885 137.075287 -49.298302 -0.346249
-100.558594 137.075287 -49.298302 -0.173804
-87.075287 137.075287 -49.298302 0.381603
-73.591980 137.075287 -49.298302 0.921222
-60.108704 137.075287 -49.298302 1.347611
-46.625397 137.075287 -49.298302 1.585608
-33.142090 137.075287 -49.298302 1.255718
-19.658783 137.075287 -49.298302 0.895512
-6.175476 137.075287 -49.298302 0.234738
7.307800 137.075287 -49.298302 -0.336916
20.791107 137.075287 -49.298302 -1.077222
34.274414 137.075287 -49.298302 -1.915012
47.757721 137.075287 -49.298302 -2.242714
61.240997 137.075287 -49.298302 -1.656584
74.724304 137.075287 -49.298302 -1.115575
88.207611 137.075287 -49.298302 -0.339182
101.690918 137.075287 -49.298302 -0.044266
115.174225 137.075287 -49.298302 0.106305
128.657501 137.075287 -49.298302 0.120836
142.140808 137.075287 -49.298302 0.117333
155.624115 137.075287 -49.298302 0.034957
169.107422 137.075287 -49.298302 0.050339
182.590698 137.075287 -49.298302 -0.007703
196.074036 137.075287 -49.298302 -0.053767
209.557312 137.075287 -49.298302 -0.073151
223.040588 137.075287 -49.298302 -0.065032
236.523926 137.075287 -49.298302 -0.059448
250.007202 137.075287 -49.298302 -0.060640
263.490540 137.075287 -49.298302 -0.057825
276.973816 137.075287 -49.298302 -0.044020
290.457092 137.075287 -49.298302 -0.042308
303.940430 137.075287 -49.298302 0.000000
317.423706 137.075287 -49.298302 0.000000
330.907043 137.075287 -49.298302 0.000000
344.390320 137.075287 -49.298302 0.000000
-343.257996 123.591980 -49.298302 0.000000
-329.774689 123.591980 -49.298302 0.000000
-316.291382 123.591980 -49.298302 0.000000
-302.808105 123.591980 -49.298302 0.000000
-289.324799 123.591980 -49.298302 0.173212
-275.841492 123.591980 -49.298302 0.146148
-262.358185 123.591980 -49.298302 0.145457
-248.874893 123.591980 -49.298302 0.120446
-235.391602 123.591980 -49.298302 -0.045061
-221.908295 123.591980 -49.298302 -0.314685
-208.424988 123.591980 -49.298302 -0.336000
-194.941696 123.591980 -49.298302 -0.637093
-181.458389 123.591980 -49.298302 -0.766616
-167.975098 123.591980 -49.298302 -0.885096
-154.491791 123.591980 -49.298302 -0.829625
-141.008499 123.591980 -49.298302 -0.827619
-127.525192 123.591980 -49.298302 -0.675949
-114.041885 123.591980 -49.298302 -0.285563
-100.558594 123.591980 -49.298302 0.274311
-87.075287 123.591980 -49.298302 0.696207
-73.591980 123.591980 -49.298302 1.466081
-60.108704 123.591980 -49.298302 1.842965
-46.625397 123.591980 -49.298302 1.685367
-33.142090 123.591980 -49.298302 1.528355
-19.658783 123.591980 -49.298302 0.779229
-6.175476 123.591980 -49.298302 0.139321
7.307800 123.591980 -49.298302 -0.185680
20.791107 123.591980 -49.298302 -1.428141
34.274414 123.591980 -49.298302 -1.852060
47.757721 123.591980 -49.298302 -1.763417
61.240997 123.591980 -49.298302 -1.748983
74.724304 123.591980 -49.298302 -1.221697
88.207611 123.591980 -49.298302 -0.248703
101.690918 123.591980 -49.298302 0.171319
115.174225 123.591980 -49.298302 0.334018
128.657501 123.591980 -49.298302 0.244380
142.140808 123.591980 -49.298302 0.213791
155.624115 123.591980 -49.298302 0.074656
169.107422 123.591980 -49.298302 0.069426
182.590698 123.591980 -49.298302 0.027036
196.074036 123.591980 -49.298302 -0.014932
209.557312 123.591980 -49.298302 -0.041137
223.040588 123.591980 -49.298302 -0.027932
236.523926 123.591980 -49.298302 -0.062194
250.007202 123.591980 -49.298302 -0.045161
263.490540 123.591980 -49.298302 -0.044562
276.973816 123.591980 -49.298302 -0.030931
290.457092 123.591980 -49.298302 -0.039681
303.940430 123.591980 -49.298302 0.000000
317.423706 123.591980 -49.298302 0.000000
330.907043 123.591980 -49.298302 0.000000
344.390320 123.591980 -49.298302 0.000000
-343.257996 110.108704 -49.298302 0.000000
-329.774689 110.108704 -49.298302 0.000000
-316.291382 110.108704 -49.298302 0.000000
-302.808105 110.108704 -49.298302 0.000000
-289.324799 110.108704 -49.298302 0.265647
-275.841492 110.108704 -49.298302 0.302564
-262.358185 110.108704 -49.298302 0.136582
-248.874893 110.108704 -49.298302 0.129650
-235.391602 110.108704 -49.298302 0.059702
-221.908295 110.108704 -49.298302 -0.145193
-208.424988 110.108704 -49.298302 -0.327978
-194.941696 110.108704 -49.298302 -0.693422
-181.458389 110.108704 -49.298302 -0.971876
-167.975098 110.108704 -49.298302 -1.019979
-154.491791 110.108704 -49.298302 -1.073321
-141.008499 110.108704 -49.298302 -0.674512
-127.525192 110.108704 -49.298302 -0.444400
-114.041885 110.108704 -49.298302 0.040462
-100.558594 110.108704 -49.298302 0.637345
-87.075287 110.108704 -49.298302 1.095397
-73.591980 110.108704 -49.298302 1.883570
-60.108704 110.108704 -49.298302 1.955258
-46.625397 110.108704 -49.298302 2.128973
-33.142090 110.108704 -49.298302 1.611552
-19.658783 110.108704 -49.298302 1.219580
-6.175476 110.108704 -49.298302 0.738133
7.307800 110.108704 -49.298302 -0.074526
20.791107 110.108704 -49.298302 -1.004825
34.274414 110.108704 -49.298302 -1.765151
47.757721 110.108704 -49.298302 -1.809205
61.240997 110.108704 -49.298302 -1.382966
74.724304 110.108704 -49.298302 -0.791040
88.207611 110.108704 -49.298302 -0.078526
101.690918 110.108704 -49.298302 0.316649
115.174225 110.108704 -49.298302 0.512548
128.657501 110.108704 -49.298302 0.433326
142.140808 110.108704 -49.298302 0.371690
155.624115 110.108704 -49.298302 0.230982
169.107422 110.108704 -49.298302 0.114977
182.590698 110.108704 -49.298302 0.077184
196.074036 110.108704 -49.298302 0.031705
209.557312 110.108704 -49.298302 -0.040945
223.040588 110.108704 -49.298302 -0.062729
236.523926 110.108704 -49.298302 -0.062713
250.007202 110.108704 -49.298302 -0.035176
263.490540 110.108704 -49.298302 -0.026188
276.973816 110.108704 -49.298302 -0.017541
290.457092 110.108704 -49.298302 -0.022618
303.940430 110.108704 -49.298302 0.000000
317.423706 110.108704 -49.298302 0.000000
330.907043 110.108704 -49.298302 0.000000
344.390320 110.108704 -49.298302 0.000000
-343.257996 96.625397 -49.298302 0.000000
-329.774689 96.625397 -49.298302 0.000000
-316.291382 96.625397 -49.298302 0.000000
-302.808105 96.625397 -49.298302 0.000000
-289.324799 96.625397 -49.298302 0.208981
-275.841492 96.625397 -49.298302 0.159438
-262.358185 96.625397 -49.298302 0.132188
-248.874893 96.625397 -49.298302 0.172206
-235.391602 96.625397 -49.298302 -0.028785
-221.908295 96.625397 -49.298302 -0.113619
-208.424988 96.625397 -49.298302 -0.264422
-194.941696 96.625397 -49.298302 -0.800915
-181.458389 96.625397 -49.298302 -0.803768
-167.975098 96.625397 -49.298302 -0.824926
-154.491791 96.625397 -49.298302 -1.059882
-141.008499 96.625397 -49.298302 -0.580091
-127.525192 96.625397 -49.298302 -0.023755
-114.041885 96.625397 -49.298302 0.418469
-100.558594 96.625397 -49.298302 0.767156
-87.075287 96.625397 -49.298302 1.171932
-73.591980 96.625397 -49.298302 1.651290
-60.108704 96.625397 -49.298302 2.250879
-46.625397 96.625397 -49.298302 1.801857
-33.142090 96.625397 -49.298302 1.246912
-19.658783 96.625397 -49.298302 1.126937
-6.175476 96.625397 -49.298302 0.922054
7.307800 96.625397 -49.298302 -0.037888
20.791107 96.625397 -49.298302 -0.861794
34.274414 96.625397 -49.298302 -1.555195
47.757721 96.625397 -49.298302 -1.534480
61.240997 96.625397 -49.298302 -1.164621
74.724304 96.625397 -49.298302 -0.525399
88.207611 96.625397 -49.298302 -0.258119
101.690918 96.625397 -49.298302 0.280847
115.174225 96.625397 -49.298302 0.514468
128.657501 96.625397 -49.298302 0.533182
142.140808 96.625397 -49.298302 0.536238
155.624115 96.625397 -49.298302 0.432698
169.107422 96.625397 -49.298302 0.273702
182.590698 96.625397 -49.298302 0.107926
196.074036 96.625397 -49.298302 0.131340
209.557312 96.625397 -49.298302 0.018088
223.040588 96.625397 -49.298302 -0.067125
236.523926 96.625397 -49.298302 -0.048041
250.007202 96.625397 -49.298302 -0.030218
263.490540 96.625397 -49.298302 -0.010806
276.973816 96.625397 -49.298302 -0.011281
290.457092 96.625397 -49.298302 -0.009144
303.940430 96.625397 -49.298302 0.000000
317.423706 96.625397 -49.298302 0.000000
330.907043 96.625397 -49.298302 0.000000
344.390320 96.625397 -49.298302 0.000000
-343.257996 83.142090 -49.298302 0.000000
-329.774689 83.142090 -49.298302 0.000000
-316.291382 83.142090 -49.298302 0.000000
-302.808105 83.142090 -49.298302 0.000000
-289.324799 83.142090 -49.298302 0.130224
-275.841492 83.142090 -49.298302 0.103084
-262.358185 83.142090 -49.298302 0.180509
-248.874893 83.142090 -49.298302 0.131394
-235.391602 83.142090 -49.298302 0.022938
-221.908295 83.142090 -49.298302 -0.098542
-208.424988 83.142090 -49.298302 -0.216743
-194.941696 83.142090 -49.298302 -0.545397
-181.458389 83.142090 -49.298302 -0.772621
-167.975098 83.142090 -49.298302 -0.615985
-154.491791 83.142090 -49.298302 -0.593920
-141.008499 83.142090 -49.298302 -0.218818
-127.525192 83.142090 -49.298302 -0.015195
-114.041885 83.142090 -49.298302 0.385340
-100.558594 83.142090 -49.298302 0.820604
-87.075287 83.142090 -49.298302 1.194500
-73.591980 83.142090 -49.298302 1.559650
-60.108704 83.142090 -49.298302 2.055207
-46.625397 83.142090 -49.298302 1.382618
-33.142090 83.142090 -49.298302 1.268717
-19.658783 83.142090 -49.298302 0.840960
-6.175476 83.142090 -49.298302 0.208990
7.307800 83.142090 -49.298302 -0.367301
20.791107 83.142090 -49.298302 -1.160668
34.274414 83.142090 -49.298302 -1.171923
47.757721 83.142090 -49.298302 -1.156082
61.240997 83.142090 -49.298302 -1.027182
74.724304 83.142090 -49.298302 -0.444941
88.207611 83.142090 -49.298302 -0.138805
101.690918 83.142090 -49.298302 -0.008793
115.174225 83.142090 -49.298302 0.422882
128.657501 83.142090 -49.298302 0.323353
142.140808 83.142090 -49.298302 0.505776
155.624115 83.142090 -49.298302 0.500005
169.107422 83.142090 -49.298302 0.410528
182.590698 83.142090 -49.298302 0.326308
196.074036 83.142090 -49.298302 0.232999
209.557312 83.142090 -49.298302 0.105084
223.040588 83.142090 -49.298302 0.001987
236.523926 83.142090 -49.298302 -0.010074
250.007202 83.142090 -49.298302 -0.010791
263.490540 83.142090 -49.298302 -0.004254
276.973816 83.142090 -49.298302 -0.010402
290.457092 83.142090 -49.298302 -0.007061
303.940430 83.142090 -49.298302 0.000000
317.423706 83.142090 -49.298302 0.000000
330.907043 83.142090 -49.298302 0.000000
344.390320 83.142090 -49.298302 0.000000
-343.257996 69.658783 -49.298302 0.000000
-329.774689 69.658783 -49.298302 0.000000
-316.291382 69.658783 -49.298302 0.000000
-302.808105 69.658783 -49.298302 0.000000
-289.324799 69.658783 -49.298302 0.093679
-275.841492 69.658783 -49.298302 0.109396
-262.358185 69.658783 -49.298302 0.072243
-248.874893 69.658783 -49.298302 0.125209
-235.391602 69.658783 -49.298302 -0.032383
-221.908295 69.658783 -49.298302 -0.025613
-208.424988 69.658783 -49.298302 -0.183258
-194.941696 69.658783 -49.298302 -0.295476
-181.458389 69.658783 -49.298302 -0.546793
-167.975098 69.658783 -49.298302 -0.579147
-154.491791 69.658783 -49.298302 -0.465808
-141.008499 69.658783 -49.298302 -0.236248
-127.525192 69.658783 -49.298302 0.102509
-114.041885 69.658783 -49.298302 0.086251
-100.558594 69.658783 -49.298302 0.706379
-87.075287 69.658783 -49.298302 1.344178
-73.591980 69.658783 -49.298302 1.532133
-60.108704 69.658783 -49.298302 1.609971
-46.625397 69.658783 -49.298302 1.050943
-33.142090 69.658783 -49.298302 0.661532
-19.658783 69.658783 -49.298302 0.686128
-6.175476 69.658783 -49.298302 0.501978
7.307800 69.658783 -49.298302 -0.172116
20.791107 69.658783 -49.298302 -0.705793
34.274414 69.658783 -49.298302 -1.131973
47.757721 69.658783 -49.298302 -0.964974
61.240997 69.658783 -49.298302 -1.020640
74.724304 69.658783 -49.298302 -0.534677
88.207611 69.658783 -49.298302 -0.319843
101.690918 69.658783 -49.298302 -0.070700
115.174225 69.658783 -49.298302 0.319146
128.657501 69.658783 -49.298302 0.175392
142.140808 69.658783 -49.298302 0.495435
155.624115 69.658783 -49.298302 0.439161
169.107422 69.658783 -49.298302 0.591326
182.590698 69.658783 -49.298302 0.565101
196.074036 69.658783 -49.298302 0.379962
209.557312 69.658783 -49.298302 0.218561
223.040588 69.658783 -49.298302 0.068381
236.523926 69.658783 -49.298302 0.036990
250.007202 69.658783 -49.298302 0.019630
263.490540 69.658783 -49.298302 0.025431
276.973816 69.658783 -49.298302 0.006068
290.457092 69.658783 -49.298302 -0.001527
303.940430 69.658783 -49.298302 0.000000
317.423706 69.658783 -49.298302 0.000000
330.907043 69.658783 -49.298302 0.000000
344.390320 69.658783 -49.298302 0.000000
-343.257996 56.175476 -49.298302 0.000000
-329.774689 56.175476 -49.298302 0.000000
-316.291382 56.175476 -49.298302 0.000000
-302.808105 56.175476 -49.298302 0.000000
-289.324799 56.175476 -49.298302 0.146505
-275.841492 56.175476 -49.298302 0.137098
-262.358185 56.175476 -49.298302 0.148762
-248.874893 56.175476 -49.298302 0.096162
-235.391602 56.175476 -49.298302 -0.094499
-221.908295 56.175476 -49.298302 -0.007660
-208.424988 56.175476 -49.298302 -0.259394
-194.941696 56.175476 -49.298302 -0.122723
-181.458389 56.175476 -49.298302 -0.281807
-167.975098 56.175476 -49.298302 -0.294484
-154.491791 56.175476 -49.298302 0.037988
-141.008499 56.175476 -49.298302 0.057898
-127.525192 56.175476 -49.298302 0.309369
-114.041885 56.175476 -49.298302 0.359457
-100.558594 56.175476 -49.298302 1.094452
-87.075287 56.175476 -49.298302 1.578241
-73.591980 56.175476 -49.298302 1.358087
-60.108704 56.175476 -49.298302 1.205603
-46.625397 56.175476 -49.298302 1.222820
-33.142090 56.175476 -49.298302 0.991574
-19.658783 56.175476 -49.298302 0.613315
-6.175476 56.175476 -49.298302 0.448809
7.307800 56.175476 -49.298302 0.012646
20.791107 56.175476 -49.298302 -0.778381
34.274414 56.175476 -49.298302 -1.121529
47.757721 56.175476 -49.298302 -1.334895
61.240997 56.175476 -49.298302 -0.965750
74.724304 56.175476 -49.298302 -0.682877
88.207611 56.175476 -49.298302 -0.297123
101.690918 56.175476 -49.298302 -0.056645
115.174225 56.175476 -49.298302 0.185048
128.657501 56.175476 -49.298302 0.220843
142.140808 56.175476 -49.298302 0.429896
155.624115 56.175476 -49.298302 0.484054
169.107422 56.175476 -49.298302 0.600761
182.590698 56.175476 -49.298302 0.628932
196.074036 56.175476 -49.298302 0.480380
209.557312 56.175476 -49.298302 0.390803
223.040588 56.175476 -49.298302 0.231267
236.523926 56.175476 -49.298302 0.104925
250.007202 56.175476 -49.298302 0.092584
263.490540 56.175476 -49.298302 0.049553
276.973816 56.175476 -49.298302 0.033653
290.457092 56.175476 -49.298302 0.011309
303.940430 56.175476 -49.298302 0.000000
317.423706 56.175476 -49.298302 0.000000
330.907043 56.175476 -49.298302 0.000000
344.390320 56.175476 -49.298302 0.000000
-343.257996 42.692200 -49.298302 0.000000
-329.774689 42.692200 -49.298302 0.000000
-316.291382 42.692200 -49.298302 0.000000
-302.808105 42.692200 -49.298302 0.000000
-289.324799 42.692200 -49.298302 0.088056
-275.841492 42.692200 -49.298302 0.193947
-262.358185 42.692200 -49.298302 0.192398
-248.874893 42.692200 -49.298302 0.140686
-235.391602 42.692200 -49.298302 0.038308
-221.908295 42.692200 -49.298302 -0.066415
-208.424988 42.692200 -49.298302 -0.190554
-194.941696 42.692200 -49.298302 -0.138066
-181.458389 42.692200 -49.298302 -0.006129
-167.975098 42.692200 -49.298302 0.009156
-154.491791 42.692200 -49.298302 -0.148241
-141.008499 42.692200 -49.298302 0.274405
-127.525192 42.692200 -49.298302 0.773738
-114.041885 42.692200 -49.298302 0.942385
-100.558594 42.692200 -49.298302 1.065395
-87.075287 42.692200 -49.298302 1.418525
-73.591980 42.692200 -49.298302 1.501273
-60.108704 42.692200 -49.298302 1.543343
-46.625397 42.692200 -49.298302 1.399735
-33.142090 42.692200 -49.298302 0.976944
-19.658783 42.692200 -49.298302 0.748242
-6.175476 42.692200 -49.298302 0.664086
7.307800 42.692200 -49.298302 0.192761
20.791107 42.692200 -49.298302 -0.591095
34.274414 42.692200 -49.298302 -1.217390
47.757721 42.692200 -49.298302 -1.456101
61.240997 42.692200 -49.298302 -1.189710
74.724304 42.692200 -49.298302 -1.052843
88.207611 42.692200 -49.298302 -0.489654
101.690918 42.692200 -49.298302 -0.233475
115.174225 42.692200 -49.298302 -0.012122
128.657501 42.692200 -49.298302 0.233501
142.140808 42.692200 -49.298302 0.339290
155.624115 42.692200 -49.298302 0.371716
169.107422 42.692200 -49.298302 0.507568
182.590698 42.692200 -49.298302 0.674357
196.074036 42.692200 -49.298302 0.575810
209.557312 42.692200 -49.298302 0.434647
223.040588 42.692200 -49.298302 0.338256
236.523926 42.692200 -49.298302 0.262091
250.007202 42.692200 -49.298302 0.123501
263.490540 42.692200 -49.298302 0.085191
276.973816 42.692200 -49.298302 0.026215
290.457092 42.692200 -49.298302 0.025660
303.940430 42.692200 -49.298302 0.000000
317.423706 42.692200 -49.298302 0.000000
330.907043 42.692200 -49.298302 0.000000
344.390320 42.692200 -49.298302 0.000000
-343.257996 29.208893 -49.298302 0.000000
-329.774689 29.208893 -49.298302 0.000000
-316.291382 29.208893 -49.298302 0.000000
-302.808105 29.208893 -49.298302 0.000000
-289.324799 29.208893 -49.298302 0.174852
-275.841492 29.208893 -49.298302 0.105162
-262.358185 29.208893 -49.298302 0.175566
-248.874893 29.208893 -49.298302 0.174535
-235.391602 29.208893 -49.298302 0.115025
-221.908295 29.208893 -49.298302 0.171798
-208.424988 29.208893 -49.298302 0.149055
-194.941696 29.208893 -49.298302 -0.036841
-181.458389 29.208893 -49.298302 0.091025
-167.975098 29.208893 -49.298302 0.164356
-154.491791 29.208893 -49.298302 -0.292738
-141.008499 29.208893 -49.298302 0.239150
-127.525192 29.208893 -49.298302 0.800873
-114.041885 29.208893 -49.298302 0.993272
-100.558594 29.208893 -49.298302 0.822424
-87.075287 29.208893 -49.298302 1.120463
-73.591980 29.208893 -49.298302 1.187395
-60.108704 29.208893 -49.298302 1.265117
-46.625397 29.208893 -49.298302 1.298052
-33.142090 29.208893 -49.298302 0.909297
-19.658783 29.208893 -49.298302 0.608892
-6.175476 29.208893 -49.298302 0.624844
7.307800 29.208893 -49.298302 0.086529
20.791107 29.208893 -49.298302 -0.621524
34.274414 29.208893 -49.298302 -1.074960
47.757721 29.208893 -49.298302 -1.363287
61.240997 29.208893 -49.298302 -1.108604
74.724304 29.208893 -49.298302 -0.809056
88.207611 29.208893 -49.298302 -0.653745
101.690918 29.208893 -49.298302 -0.306904
115.174225 29.208893 -49.298302 0.094223
128.657501 29.208893 -49.298302 0.156426
142.140808 29.208893 -49.298302 0.312780
155.624115 29.208893 -49.298302 0.334408
169.107422 29.208893 -49.298302 0.603552
182.590698 29.208893 -49.298302 0.635540
196.074036 29.208893 -49.298302 0.669654
209.557312 29.208893 -49.298302 0.641715
223.040588 29.208893 -49.298302 0.487165
236.523926 29.208893 -49.298302 0.331845
250.007202 29.208893 -49.298302 0.184889
263.490540 29.208893 -49.298302 0.106863
276.973816 29.208893 -49.298302 0.035640
290.457092 29.208893 -49.298302 0.004749
303.940430 29.208893 -49.298302 0.000000
317.423706 29.208893 -49.298302 0.000000
330.907043 29.208893 -49.298302 0.000000
344.390320 29.208893 -49.298302 0.000000
-343.257996 15.725586 -49.298302 0.000000
-329.774689 15.725586 -49.298302 0.000000
-316.291382 15.725586 -49.298302 0.000000
-302.808105 15.725586 -49.298302 0.000000
-289.324799 15.725586 -49.298302 0.144677
-275.841492 15.725586 -49.298302 0.117923
-262.358185 15.725586 -49.298302 0.184240
-248.874893 15.725586 -49.298302 0.369590
-235.391602 15.725586 -49.298302 0.357722
-221.908295 15.725586 -49.298302 0.300305
-208.424988 15.725586 -49.298302 0.323994
-194.941696 15.725586 -49.298302 0.248516
-181.458389 15.725586 -49.298302 0.234137
-167.975098 15.725586 -49.298302 0.194698
-154.491791 15.725586 -49.298302 -0.327805
-141.008499 15.725586 -49.298302 -0.145178
-127.525192 15.725586 -49.298302 0.501240
-114.041885 15.725586 -49.298302 0.723921
-100.558594 15.725586 -49.298302 0.837922
-87.075287 15.725586 -49.298302 0.913282
-73.591980 15.725586 -49.298302 0.631391
-60.108704 15.725586 -49.298302 0.649278
-46.625397 15.725586 -49.298302 1.056401
-33.142090 15.725586 -49.298302 0.762592
-19.658783 15.725586 -49.298302 0.692376
-6.175476 15.725586 -49.298302 0.256085
7.307800 15.725586 -49.298302 -0.113905
20.791107 15.725586 -49.298302 -0.587837
34.274414 15.725586 -49.298302 -1.096932
47.757721 15.725586 -49.298302 -1.298880
61.240997 15.725586 -49.298302 -1.012458
74.724304 15.725586 -49.298302 -1.005752
88.207611 15.725586 -49.298302 -0.707541
101.690918 15.725586 -49.298302 -0.417352
115.174225 15.725586 -49.298302 -0.019398
128.657501 15.725586 -49.298302 0.186366
142.140808 15.725586 -49.298302 0.387831
155.624115 15.725586 -49.298302 0.470238
169.107422 15.725586 -49.298302 0.595068
182.590698 15.725586 -49.298302 0.702048
196.074036 15.725586 -49.298302 0.734641
209.557312 15.725586 -49.298302 0.613039
223.040588 15.725586 -49.298302 0.527568
236.523926 15.725586 -49.298302 0.301153
250.007202 15.725586 -49.298302 0.223755
263.490540 15.725586 -49.298302 0.129326
276.973816 15.725586 -49.298302 0.037821
290.457092 15.725586 -49.298302 -0.004510
303.940430 15.725586 -49.298302 0.000000
317.423706 15.725586 -49.298302 0.000000
330.907043 15.725586 -49.298302 0.000000
344.390320 15.725586 -49.298302 0.000000
-343.257996 2.242279 -49.298302 0.000000
-329.774689 2.242279 -49.298302 0.000000
-316.291382 2.242279 -49.298302 0.000000
-302.808105 2.242279 -49.298302 0.000000
-289.324799 2.242279 -49.298302 0.220916
-275.841492 2.242279 -49.298302 0.149866
-262.358185 2.242279 -49.298302 0.196902
-248.874893 2.242279 -49.298302 0.292398
-235.391602 2.242279 -49.298302 0.400542
-221.908295 2.242279 -49.298302 0.499895
-208.424988 2.242279 -49.298302 0.388155
-194.941696 2.242279 -49.298302 0.374058
-181.458389 2.242279 -49.298302 0.434481
-167.975098 2.242279 -49.298302 0.387411
-154.491791 2.242279 -49.298302 -0.073246
-141.008499 2.242279 -49.298302 -0.182140
-127.525192 2.242279 -49.298302 0.019310
-114.041885 2.242279 -49.298302 0.521739
-100.558594 2.242279 -49.298302 0.590133
-87.075287 2.242279 -49.298302 0.722233
-73.591980 2.242279 -49.298302 0.055461
-60.108704 2.242279 -49.298302 0.465481
-46.625397 2.242279 -49.298302 0.605728
-33.142090 2.242279 -49.298302 0.215205
-19.658783 2.242279 -49.298302 0.310985
-6.175476 2.242279 -49.298302 -0.057571
7.307800 2.242279 -49.298302 -0.304007
20.791107 2.242279 -49.298302 -0.973709
34.274414 2.242279 -49.298302 -1.269668
47.757721 2.242279 -49.298302 -1.119791
61.240997 2.242279 -49.298302 -0.886499
74.724304 2.242279 -49.298302 -0.792905
88.207611 2.242279 -49.298302 -0.500798
101.690918 2.242279 -49.298302 -0.338105
115.174225 2.242279 -49.298302 -0.143514
128.657501 2.242279 -49.298302 0.233830
142.140808 2.242279 -49.298302 0.283577
155.624115 2.242279 -49.298302 0.560873
169.107422 2.242279 -49.298302 0.513632
182.590698 2.242279 -49.298302 0.631461
196.074036 2.242279 -49.298302 0.703237
209.557312 2.242279 -49.298302 0.628543
223.040588 2.242279 -49.298302 0.576803
236.523926 2.242279 -49.298302 0.371094
250.007202 2.242279 -49.298302 0.298909
263.490540 2.242279 -49.298302 0.156407
276.973816 2.242279 -49.298302 0.036006
290.457092 2.242279 -49.298302 -0.009857
303.940430 2.242279 -49.298302 0.000000
317.423706 2.242279 -49.298302 0.000000
330.907043 2.242279 -49.298302 0.000000
344.390320 2.242279 -49.298302 0.000000
-343.257996 -11.240997 -49.298302 0.000000
-329.774689 -11.240997 -49.298302 0.000000
-316.291382 -11.240997 -49.298302 0.000000
-302.808105 -11.240997 -49.298302 0.000000
-289.324799 -11.240997 -49.298302 0.168540
-275.841492 -11.240997 -49.298302 0.139741
-262.358185 -11.240997 -49.298302 0.230924
-248.874893 -11.240997 -49.298302 0.387714
-235.391602 -11.240997 -49.298302 0.410831
-221.908295 -11.240997 -49.298302 0.436717
-208.424988 -11.240997 -49.298302 0.615267
-194.941696 -11.240997 -49.298302 0.514396
-181.458389 -11.240997 -49.298302 0.745956
-167.975098 -11.240997 -49.298302 0.658870
-154.491791 -11.240997 -49.298302 0.088395
-141.008499 -11.240997 -49.298302 0.087481
-127.525192 -11.240997 -49.298302 0.099632
-114.041885 -11.240997 -49.298302 0.158739
-100.558594 -11.240997 -49.298302 0.327931
-87.075287 -11.240997 -49.298302 0.561683
-73.591980 -11.240997 -49.298302 0.400731
-60.108704 -11.240997 -49.298302 0.130069
-46.625397 -11.240997 -49.298302 0.250951
-33.142090 -11.240997 -49.298302 -0.021883
-19.658783 -11.240997 -49.298302 -0.288948
-6.175476 -11.240997 -49.298302 -0.711566
7.307800 -11.240997 -49.298302 -1.146459
20.791107 -11.240997 -49.298302 -1.331433
34.274414 -11.240997 -49.298302 -1.332031
47.757721 -11.240997 -49.298302 -1.158533
61.240997 -11.240997 -49.298302 -1.292126
74.724304 -11.240997 -49.298302 -0.905172
88.207611 -11.240997 -49.298302 -0.567590
101.690918 -11.240997 -49.298302 -0.274786
115.174225 -11.240997 -49.298302 0.003408
128.657501 -11.240997 -49.298302 0.037231
142.140808 -11.240997 -49.298302 0.162875
155.624115 -11.240997 -49.298302 0.303705
169.107422 -11.240997 -49.298302 0.422581
182.590698 -11.240997 -49.298302 0.532983
196.074036 -11.240997 -49.298302 0.623810
209.557312 -11.240997 -49.298302 0.617600
223.040588 -11.240997 -49.298302 0.562438
236.523926 -11.240997 -49.298302 0.339304
250.007202 -11.240997 -49.298302 0.187525
263.490540 -11.240997 -49.298302 0.075371
276.973816 -11.240997 -49.298302 0.005770
290.457092 -11.240997 -49.298302 -0.041328
303.940430 -11.240997 -49.298302 0.000000
317.423706 -11.240997 -49.298302 0.000000
330.907043 -11.240997 -49.298302 0.000000
344.390320 -11.240997 -49.298302 0.000000
-343.257996 -24.724304 -49.298302 0.000000
-329.774689 -24.724304 -49.298302 0.000000
-316.291382 -24.724304 -49.298302 0.000000
-302.808105 -24.724304 -49.298302 0.000000
-289.324799 -24.724304 -49.298302 0.176043
-275.841492 -24.724304 -49.298302 0.181457
-262.358185 -24.724304 -49.298302 0.208311
-248.874893 -24.724304 -49.298302 0.338593
-235.391602 -24.724304 -49.298302 0.549322
-221.908295 -24.724304 -49.298302 0.527970
-208.424988 -24.724304 -49.298302 0.461591
-194.941696 -24.724304 -49.298302 0.641139
-181.458389 -24.724304 -49.298302 0.632002
-167.975098 -24.724304 -49.298302 0.259988
-154.491791 -24.724304 -49.298302 0.187598
-141.008499 -24.724304 -49.298302 0.213816
-127.525192 -24.724304 -49.298302 0.205752
-114.041885 -24.724304 -49.298302 0.223851
-100.558594 -24.724304 -49.298302 0.408087
-87.075287 -24.724304 -49.298302 0.296275
-73.591980 -24.724304 -49.298302 0.258487
-60.108704 -24.724304 -49.298302 -0.010775
-46.625397 -24.724304 -49.298302 0.089193
-33.142090 -24.724304 -49.298302 -0.613568
-19.658783 -24.724304 -49.298302 -0.841744
-6.175476 -24.724304 -49.298302 -0.926515
7.307800 -24.724304 -49.298302 -1.193504
20.791107 -24.724304 -49.298302 -1.300175
34.274414 -24.724304 -49.298302 -1.452909
47.757721 -24.724304 -49.298302 -1.214033
61.240997 -24.724304 -49.298302 -1.012212
74.724304 -24.724304 -49.298302 -0.727121
88.207611 -24.724304 -49.298302 -0.459909
101.690918 -24.724304 -49.298302 -0.331373
115.174225 -24.724304 -49.298302 -0.135080
128.657501 -24.724304 -49.298302 0.022884
142.140808 -24.724304 -49.298302 0.090227
155.624115 -24.724304 -49.298302 0.173602
169.107422 -24.724304 -49.298302 0.301800
182.590698 -24.724304 -49.298302 0.404342
196.074036 -24.724304 -49.298302 0.483512
209.557312 -24.724304 -49.298302 0.504964
223.040588 -24.724304 -49.298302 0.381761
236.523926 -24.724304 -49.298302 0.220647
250.007202 -24.724304 -49.298302 0.116458
263.490540 -24.724304 -49.298302 0.060308
276.973816 -24.724304 -49.298302 0.022161
290.457092 -24.724304 -49.298302 -0.086345
303.940430 -24.724304 -49.298302 0.000000
317.423706 -24.724304 -49.298302 0.000000
330.907043 -24.724304 -49.298302 0.000000
344.390320 -24.724304 -49.298302 0.000000
-343.257996 -38.207611 -49.298302 0.000000
-329.774689 -38.207611 -49.298302 0.000000
-316.291382 -38.207611 -49.298302 0.000000
-302.808105 -38.207611 -49.298302 0.000000
-289.324799 -38.207611 -49.298302 0.109301
-275.841492 -38.207611 -49.298302 0.210960
-262.358185 -38.207611 -49.298302 0.315450
-248.874893 -38.207611 -49.298302 0.412700
-235.391602 -38.207611 -49.298302 0.616344
-221.908295 -38.207611 -49.298302 0.476831
-208.424988 -38.207611 -49.298302 0.681468
-194.941696 -38.207611 -49.298302 0.802709
-181.458389 -38.207611 -49.298302 1.033951
-167.975098 -38.207611 -49.298302 0.714165
-154.491791 -38.207611 -49.298302 0.116758
-141.008499 -38.207611 -49.298302 -0.147213
-127.525192 -38.207611 -49.298302 -0.186769
-114.041885 -38.207611 -49.298302 0.051684
-100.558594 -38.207611 -49.298302 0.240724
-87.075287 -38.207611 -49.298302 -0.070779
-73.591980 -38.207611 -49.298302 0.213441
-60.108704 -38.207611 -49.298302 -0.313381
-46.625397 -38.207611 -49.298302 -0.573851
-33.142090 -38.207611 -49.298302 -0.980489
-19.658783 -38.207611 -49.298302 -0.708083
-6.175476 -38.207611 -49.298302 -0.981179
7.307800 -38.207611 -49.298302 -1.071712
20.791107 -38.207611 -49.298302 -1.040279
34.274414 -38.207611 -49.298302 -1.505375
47.757721 -38.207611 -49.298302 -1.224081
61.240997 -38.207611 -49.298302 -0.691659
74.724304 -38.207611 -49.298302 -0.469573
88.207611 -38.207611 -49.298302 -0.501184
101.690918 -38.207611 -49.298302 -0.350586
115.174225 -38.207611 -49.298302 -0.257875
128.657501 -38.207611 -49.298302 0.051095
142.140808 -38.207611 -49.298302 0.148261
155.624115 -38.207611 -49.298302 0.172803
169.107422 -38.207611 -49.298302 0.181996
182.590698 -38.207611 -49.298302 0.225118
196.074036 -38.207611 -49.298302 0.310472
209.557312 -38.207611 -49.298302 0.373355
223.040588 -38.207611 -49.298302 0.312418
236.523926 -38.207611 -49.298302 0.180603
250.007202 -38.207611 -49.298302 0.077928
263.490540 -38.207611 -49.298302 0.019062
276.973816 -38.207611 -49.298302 -0.017196
290.457092 -38.207611 -49.298302 -0.065517
303.940430 -38.207611 -49.298302 0.000000
317.423706 -38.207611 -49.298302 0.000000
330.907043 -38.207611 -49.298302 0.000000
344.390320 -38.207611 -49.298302 0.000000
-343.257996 -51.690918 -49.298302 0.000000
-329.774689 -51.690918 -49.298302 0.000000
-316.291382 -51.690918 -49.298302 0.000000
-302.808105 -51.690918 -49.298302 0.000000
-289.324799 -51.690918 -49.298302 0.049841
-275.841492 -51.690918 -49.298302 0.183696
-262.358185 -51.690918 -49.298302 0.303721
-248.874893 -51.690918 -49.298302 0.294677
-235.391602 -51.690918 -49.298302 0.458460
-221.908295 -51.690918 -49.298302 0.407290
-208.424988 -51.690918 -49.298302 0.713836
-194.941696 -51.690918 -49.298302 0.887842
-181.458389 -51.690918 -49.298302 0.989896
-167.975098 -51.690918 -49.298302 0.261934
-154.491791 -51.690918 -49.298302 -0.005852
-141.008499 -51.690918 -49.298302 -0.319457
-127.525192 -51.690918 -49.298302 -0.451318
-114.041885 -51.690918 -49.298302 -0.319941
-100.558594 -51.690918 -49.298302 -0.135247
-87.075287 -51.690918 -49.298302 0.112280
-73.591980 -51.690918 -49.298302 -0.147030
-60.108704 -51.690918 -49.298302 -0.237190
-46.625397 -51.690918 -49.298302 -0.833509
-33.142090 -51.690918 -49.298302 -1.025797
-19.658783 -51.690918 -49.298302 -0.927355
-6.175476 -51.690918 -49.298302 -1.266595
7.307800 -51.690918 -49.298302 -1.153833
20.791107 -51.690918 -49.298302 -1.149253
34.274414 -51.690918 -49.298302 -1.262900
47.757721 -51.690918 -49.298302 -1.098056
61.240997 -51.690918 -49.298302 -0.777618
74.724304 -51.690918 -49.298302 -0.567177
88.207611 -51.690918 -49.298302 -0.443130
101.690918 -51.690918 -49.298302 -0.372977
115.174225 -51.690918 -49.298302 -0.263164
128.657501 -51.690918 -49.298302 -0.047191
142.140808 -51.690918 -49.298302 0.049965
155.624115 -51.690918 -49.298302 0.073776
169.107422 -51.690918 -49.298302 0.074516
182.590698 -51.690918 -49.298302 0.143357
196.074036 -51.690918 -49.298302 0.183814
209.557312 -51.690918 -49.298302 0.203123
223.040588 -51.690918 -49.298302 0.256832
236.523926 -51.690918 -49.298302 0.058052
250.007202 -51.690918 -49.298302 -0.063469
263.490540 -51.690918 -49.298302 0.000468
276.973816 -51.690918 -49.298302 -0.054685
290.457092 -51.690918 -49.298302 -0.176022
303.940430 -51.690918 -49.298302 0.000000
317.423706 -51.690918 -49.298302 0.000000
330.907043 -51.690918 -49.298302 0.000000
344.390320 -51.690918 -49.298302 0.000000
-343.257996 -65.174225 -49.298302 0.000000
-329.774689 -65.174225 -49.298302 0.000000
-316.291382 -65.174225 -49.298302 0.000000
-302.808105 -65.174225 -49.298302 0.000000
-289.324799 -65.174225 -49.298302 -0.007604
-275.841492 -65.174225 -49.298302 0.239196
-262.358185 -65.174225 -49.298302 0.248005
-248.874893 -65.174225 -49.298302 0.327811
-235.391602 -65.174225 -49.298302 0.308006
-221.908295 -65.174225 -49.298302 0.197929
-208.424988 -65.174225 -49.298302 0.500293
-194.941696 -65.174225 -49.298302 0.714165
-181.458389 -65.174225 -49.298302 0.000000
-167.975098 -65.174225 -49.298302 0.000000
-154.491791 -65.174225 -49.298302 0.000000
-141.008499 -65.174225 -49.298302 -0.352767
-127.525192 -65.174225 -49.298302 -1.005168
-114.041885 -65.174225 -49.298302 -0.567709
-100.558594 -65.174225 -49.298302 0.028036
-87.075287 -65.174225 -49.298302 -0.026791
-73.591980 -65.174225 -49.298302 0.084424
-60.108704 -65.174225 -49.298302 -0.423786
-46.625397 -65.174225 -49.298302 -0.534435
-33.142090 -65.174225 -49.298302 -0.597397
-19.658783 -65.174225 -49.298302 -0.543603
-6.175476 -65.174225 -49.298302 -1.024728
7.307800 -65.174225 -49.298302 -1.078625
20.791107 -65.174225 -49.298302 -1.135253
34.274414 -65.174225 -49.298302 -0.872476
47.757721 -65.174225 -49.298302 -0.586527
61.240997 -65.174225 -49.298302 -0.567048
74.724304 -65.174225 -49.298302 -0.450673
88.207611 -65.174225 -49.298302 -0.340857
101.690918 -65.174225 -49.298302 -0.296657
115.174225 -65.174225 -49.298302 -0.299979
128.657501 -65.174225 -49.298302 -0.178770
142.140808 -65.174225 -49.298302 -0.100699
155.624115 -65.174225 -49.298302 -0.056374
169.107422 -65.174225 -49.298302 -0.009311
182.590698 -65.174225 -49.298302 0.018974
196.074036 -65.174225 -49.298302 0.041386
209.557312 -65.174225 -49.298302 0.016869
223.040588 -65.174225 -49.298302 0.043698
236.523926 -65.174225 -49.298302 -0.039390
250.007202 -65.174225 -49.298302 -0.077953
263.490540 -65.174225 -49.298302 -0.028463
276.973816 -65.174225 -49.298302 -0.138103
290.457092 -65.174225 -49.298302 -0.033146
303.940430 -65.174225 -49.298302 0.000000
317.423706 -65.174225 -49.298302 0.000000
330.907043 -65.174225 -49.298302 0.000000
344.390320 -65.174225 -49.298302 0.000000
-343.257996 -78.657501 -49.298302 0.000000
-329.774689 -78.657501 -49.298302 0.000000
-316.291382 -78.657501 -49.298302 0.000000
-302.808105 -78.657501 -49.298302 0.000000
-289.324799 -78.657501 -49.298302 0.207981
-275.841492 -78.657501 -49.298302 -0.104370
-262.358185 -78.657501 -49.298302 0.133171
-248.874893 -78.657501 -49.298302 0.379415
-235.391602 -78.657501 -49.298302 0.000000
-221.908295 -78.657501 -49.298302 0.000000
-208.424988 -78.657501 -49.298302 0.000000
-194.941696 -78.657501 -49.298302 0.000000
-181.458389 -78.657501 -49.298302 0.000000
-167.975098 -78.657501 -49.298302 0.000000
-154.491791 -78.657501 -49.298302 0.000000
-141.008499 -78.657501 -49.298302 -0.072862
-127.525192 -78.657501 -49.298302 -0.408771
-114.041885 -78.657501 -49.298302 -0.301704
-100.558594 -78.657501 -49.298302 -0.038169
-87.075287 -78.657501 -49.298302 -0.234773
-73.591980 -78.657501 -49.298302 -0.100635
-60.108704 -78.657501 -49.298302 -0.326577
-46.625397 -78.657501 -49.298302 -0.494704
-33.142090 -78.657501 -49.298302 -0.252908
-19.658783 -78.657501 -49.298302 -0.390116
-6.175476 -78.657501 -49.298302 -0.807180
7.307800 -78.657501 -49.298302 -0.870018
20.791107 -78.657501 -49.298302 -0.864599
34.274414 -78.657501 -49.298302 -0.528876
47.757721 -78.657501 -49.298302 -0.286890
61.240997 -78.657501 -49.298302 -0.218037
74.724304 -78.657501 -49.298302 -0.224631
88.207611 -78.657501 -49.298302 -0.276070
101.690918 -78.657501 -49.298302 -0.304979
115.174225 -78.657501 -49.298302 -0.281438
128.657501 -78.657501 -49.298302 -0.191500
142.140808 -78.657501 -49.298302 -0.195400
155.624115 -78.657501 -49.298302 -0.278015
169.107422 -78.657501 -49.298302 -0.232317
182.590698 -78.657501 -49.298302 -0.143325
196.074036 -78.657501 -49.298302 -0.078972
209.557312 -78.657501 -49.298302 -0.129336
223.040588 -78.657501 -49.298302 -0.121618
236.523926 -78.657501 -49.298302 -0.114200
250.007202 -78.657501 -49.298302 -0.098670
263.490540 -78.657501 -49.298302 -0.150024
276.973816 -78.657501 -49.298302 -0.054039
290.457092 -78.657501 -49.298302 -0.072105
303.940430 -78.657501 -49.298302 0.000000
317.423706 -78.657501 -49.298302 0.000000
330.907043 -78.657501 -49.298302 0.000000
344.390320 -78.657501 -49.298302 0.000000
-343.257996 -92.140808 -49.298302 0.000000
-329.774689 -92.140808 -49.298302 0.000000
-316.291382 -92.140808 -49.298302 0.000000
-302.808105 -92.140808 -49.298302 0.000000
-289.324799 -92.140808 -49.298302 0.096091
-275.841492 -92.140808 -49.298302 -0.024102
-262.358185 -92.140808 -49.298302 -0.271144
-248.874893 -92.140808 -49.298302 0.000000
-235.391602 -92.140808 -49.298302 0.000000
-221.908295 -92.140808 -49.298302 0.000000
-208.424988 -92.140808 -49.298302 0.000000
-194.941696 -92.140808 -49.298302 0.000000
-181.458389 -92.140808 -49.298302 0.000000
-167.975098 -92.140808 -49.298302 0.000000
-154.491791 -92.140808 -49.298302 0.000000
-141.008499 -92.140808 -49.298302 0.000000
-127.525192 -92.140808 -49.298302 -0.336348
-114.041885 -92.140808 -49.298302 -0.536933
-100.558594 -92.140808 -49.298302 -0.462785
-87.075287 -92.140808 -49.298302 -0.485980
-73.591980 -92.140808 -49.298302 -0.078988
-60.108704 -92.140808 -49.298302 -0.359295
-46.625397 -92.140808 -49.298302 -0.283785
-33.142090 -92.140808 -49.298302 -0.227815
-19.658783 -92.140808 -49.298302 -0.236054
-6.175476 -92.140808 -49.298302 -0.540487
7.307800 -92.140808 -49.298302 -0.514597
20.791107 -92.140808 -49.298302 -0.460691
34.274414 -92.140808 -49.298302 -0.363640
47.757721 -92.140808 -49.298302 -0.132319
61.240997 -92.140808 -49.298302 -0.211574
74.724304 -92.140808 -49.298302 -0.325388
88.207611 -92.140808 -49.298302 -0.329596
101.690918 -92.140808 -49.298302 -0.275117
115.174225 -92.140808 -49.298302 -0.207829
128.657501 -92.140808 -49.298302 -0.205320
142.140808 -92.140808 -49.298302 -0.217150
155.624115 -92.140808 -49.298302 -0.380669
169.107422 -92.140808 -49.298302 -0.380415
182.590698 -92.140808 -49.298302 -0.366391
196.074036 -92.140808 -49.298302 -0.318689
209.557312 -92.140808 -49.298302 -0.319654
223.040588 -92.140808 -49.298302 -0.295091
236.523926 -92.140808 -49.298302 -0.242760
250.007202 -92.140808 -49.298302 -0.222261
263.490540 -92.140808 -49.298302 -0.118596
276.973816 -92.140808 -49.298302 -0.245424
290.457092 -92.140808 -49.298302 -0.040837
303.940430 -92.140808 -49.298302 0.000000
317.423706 -92.140808 -49.298302 0.000000
330.907043 -92.140808 -49.298302 0.000000
344.390320 -92.140808 -49.298302 0.000000
-343.257996 -105.624115 -49.298302 0.000000
-329.774689 -105.624115 -49.298302 0.000000
-316.291382 -105.624115 -49.298302 0.000000
-302.808105 -105.624115 -49.298302 0.000000
-289.324799 -105.624115 -49.298302 0.067968
-275.841492 -105.624115 -49.298302 -0.075711
-262.358185 -105.624115 -49.298302 0.000000
-248.874893 -105.624115 -49.298302 0.000000
-235.391602 -105.624115 -49.298302 0.000000
-221.908295 -105.624115 -49.298302 0.000000
-208.424988 -105.624115 -49.298302 0.000000
-194.941696 -105.624115 -49.298302 0.000000
-181.458389 -105.624115 -49.298302 0.000000
-167.975098 -105.624115 -49.298302 0.000000
-154.491791 -105.624115 -49.298302 0.000000
-141.008499 -105.624115 -49.298302 0.000000
-127.525192 -105.624115 -49.298302 0.051710
-114.041885 -105.624115 -49.298302 0.074763
-100.558594 -105.624115 -49.298302 -0.328802
-87.075287 -105.624115 -49.298302 0.034820
-73.591980 -105.624115 -49.298302 -0.191898
-60.108704 -105.624115 -49.298302 -0.190040
-46.625397 -105.624115 -49.298302 -0.149992
-33.142090 -105.624115 -49.298302 0.004826
-19.658783 -105.624115 -49.298302 -0.111299
-6.175476 -105.624115 -49.298302 -0.117136
7.307800 -105.624115 -49.298302 -0.177856
20.791107 -105.624115 -49.298302 -0.169452
34.274414 -105.624115 -49.298302 -0.296323
47.757721 -105.624115 -49.298302 -0.260096
61.240997 -105.624115 -49.298302 -0.263453
74.724304 -105.624115 -49.298302 -0.303858
88.207611 -105.624115 -49.298302 -0.284976
101.690918 -105.624115 -49.298302 -0.322127
115.174225 -105.624115 -49.298302 -0.243825
128.657501 -105.624115 -49.298302 -0.248447
142.140808 -105.624115 -49.298302 -0.344898
155.624115 -105.624115 -49.298302 -0.519351
169.107422 -105.624115 -49.298302 -0.560560
182.590698 -105.624115 -49.298302 -0.454669
196.074036 -105.624115 -49.298302 -0.445041
209.557312 -105.624115 -49.298302 -0.493004
223.040588 -105.624115 -49.298302 -0.509863
236.523926 -105.624115 -49.298302 -0.380738
250.007202 -105.624115 -49.298302 -0.327841
263.490540 -105.624115 -49.298302 -0.185661
276.973816 -105.624115 -49.298302 -0.042875
290.457092 -105.624115 -49.298302 0.047023
303.940430 -105.624115 -49.298302 0.000000
317.423706 -105.624115 -49.298302 0.000000
330.907043 -105.624115 -49.298302 0.000000
344.390320 -105.624115 -49.298302 0.000000
-343.257996 -119.107422 -49.298302 0.000000
-329.774689 -119.107422 -49.298302 0.000000
-316.291382 -119.107422 -49.298302 0.000000
-302.808105 -119.107422 -49.298302 0.000000
-289.324799 -119.107422 -49.298302 0.000000
-275.841492 -119.107422 -49.298302 0.000000
-262.358185 -119.107422 -49.298302 0.000000
-248.874893 -119.107422 -49.298302 0.000000
-235.391602 -119.107422 -49.298302 0.000000
-221.908295 -119.107422 -49.298302 0.000000
-208.424988 -119.107422 -49.298302 0.000000
-194.941696 -119.107422 -49.298302 0.000000
-181.458389 -119.107422 -49.298302 0.000000
-167.975098 -119.107422 -49.298302 0.000000
-154.491791 -119.107422 -49.298302 0.000000
-141.008499 -119.107422 -49.298302 0.000000
-127.525192 -119.107422 -49.298302 0.000000
-114.041885 -119.107422 -49.298302 0.000000
-100.558594 -119.107422 -49.298302 -0.089281
-87.075287 -119.107422 -49.298302 0.109269
-73.591980 -119.107422 -49.298302 -0.007688
-60.108704 -119.107422 -49.298302 -0.009622
-46.625397 -119.107422 -49.298302 0.048420
-33.142090 -119.107422 -49.298302 0.225346
-19.658783 -119.107422 -49.298302 -0.061402
-6.175476 -119.107422 -49.298302 0.122423
7.307800 -119.107422 -49.298302 0.147831
20.791107 -119.107422 -49.298302 -0.179061
34.274414 -119.107422 -49.298302 -0.169766
47.757721 -119.107422 -49.298302 -0.208549
61.240997 -119.107422 -49.298302 -0.203383
74.724304 -119.107422 -49.298302 -0.406179
88.207611 -119.107422 -49.298302 -0.315516
101.690918 -119.107422 -49.298302 -0.315757
115.174225 -119.107422 -49.298302 -0.331205
128.657501 -119.107422 -49.298302 -0.228996
142.140808 -119.107422 -49.298302 -0.356311
155.624115 -119.107422 -49.298302 -0.647673
169.107422 -119.107422 -49.298302 -0.604301
182.590698 -119.107422 -49.298302 -0.666362
196.074036 -119.107422 -49.298302 -0.618369
209.557312 -119.107422 -49.298302 -0.729891
223.040588 -119.107422 -49.298302 -0.877716
236.523926 -119.107422 -49.298302 -0.643628
250.007202 -119.107422 -49.298302 -0.476382
263.490540 -119.107422 -49.298302 -0.593551
276.973816 -119.107422 -49.298302 -0.063159
290.457092 -119.107422 -49.298302 0.338467
303.940430 -119.107422 -49.298302 0.000000
317.423706 -119.107422 -49.298302 0.000000
330.907043 -119.107422 -49.298302 0.000000
344.390320 -119.107422 -49.298302 0.000000
-343.257996 -132.590698 -49.298302 0.000000
-329.774689 -132.590698 -49.298302 0.000000
-316.291382 -132.590698 -49.298302 0.000000
-302.808105 -132.590698 -49.298302 0.000000
-289.324799 -132.590698 -49.298302 0.000000
-275.841492 -132.590698 -49.298302 0.000000
-262.358185 -132.590698 -49.298302 0.000000
-248.874893 -132.590698 -49.298302 0.000000
-235.391602 -132.590698 -49.298302 0.000000
-221.908295 -132.590698 -49.298302 0.000000
-208.424988 -132.590698 -49.298302 0.000000
-194.941696 -132.590698 -49.298302 0.000000
-181.458389 -132.590698 -49.298302 0.000000
-167.975098 -132.590698 -49.298302 0.000000
-154.491791 -132.590698 -49.298302 0.000000
-141.008499 -132.590698 -49.298302 0.000000
-127.525192 -132.590698 -49.298302 0.000000
-114.041885 -132.590698 -49.298302 0.000000
-100.558594 -132.590698 -49.298302 0.000000
-87.075287 -132.590698 -49.298302 0.000000
-73.591980 -132.590698 -49.298302 0.000000
-60.108704 -132.590698 -49.298302 0.351711
-46.625397 -132.590698 -49.298302 0.161299
-33.142090 -132.590698 -49.298302 0.387989
-19.658783 -132.590698 -49.298302 0.219675
-6.175476 -132.590698 -49.298302 0.101692
7.307800 -132.590698 -49.298302 -0.112420
20.791107 -132.590698 -49.298302 -0.202104
34.274414 -132.590698 -49.298302 -0.141601
47.757721 -132.590698 -49.298302 0.026504
61.240997 -132.590698 -49.298302 -0.111413
74.724304 -132.590698 -49.298302 -0.233243
88.207611 -132.590698 -49.298302 -0.291227
101.690918 -132.590698 -49.298302 -0.261759
115.174225 -132.590698 -49.298302 -0.432706
128.657501 -132.590698 -49.298302 -0.208388
142.140808 -132.590698 -49.298302 -0.508320
155.624115 -132.590698 -49.298302 -0.650573
169.107422 -132.590698 -49.298302 -0.763454
182.590698 -132.590698 -49.298302 -0.573662
196.074036 -132.590698 -49.298302 -0.781615
209.557312 -132.590698 -49.298302 0.000000
223.040588 -132.590698 -49.298302 -0.944355
236.523926 -132.590698 -49.298302 -0.880018
250.007202 -132.590698 -49.298302 -0.680461
263.490540 -132.590698 -49.298302 -0.381331
276.973816 -132.590698 -49.298302 0.000000
290.457092 -132.590698 -49.298302 0.000000
303.940430 -132.590698 -49.298302 0.000000
317.423706 -132.590698 -49.298302 0.000000
330.907043 -132.590698 -49.298302 0.000000
344.390320 -132.590698 -49.298302 0.000000
-343.257996 -146.074036 -49.298302 0.000000
-329.774689 -146.074036 -49.298302 0.000000
-316.291382 -146.074036 -49.298302 0.000000
-302.808105 -146.074036 -49.298302 0.000000
-289.324799 -146.074036 -49.298302 0.000000
-275.841492 -146.074036 -49.298302 0.000000
-262.358185 -146.074036 -49.298302 0.000000
-248.874893 -146.074036 -49.298302 0.000000
-235.391602 -146.074036 -49.298302 0.000000
-221.908295 -146.074036 -49.298302 0.000000
-208.424988 -146.074036 -49.298302 0.000000
-194.941696 -146.074036 -49.298302 0.000000
-181.458389 -146.074036 -49.298302 0.000000
-167.975098 -146.074036 -49.298302 0.000000
-154.491791 -146.074036 -49.298302 0.000000
-141.008499 -146.074036 -49.298302 0.000000
-127.525192 -146.074036 -49.298302 0.000000
-114.041885 -146.074036 -49.298302 0.000000
-100.558594 -146.074036 -49.298302 0.000000
-87.075287 -146.074036 -49.298302 0.000000
-73.591980 -146.074036 -49.298302 0.000000
-60.108704 -146.074036 -49.298302 0.000000
-46.625397 -146.074036 -49.298302 0.000000
-33.142090 -146.074036 -49.298302 -0.182600
-19.658783 -146.074036 -49.298302 0.121140
-6.175476 -146.074036 -49.298302 0.024976
7.307800 -146.074036 -49.298302 0.031853
20.791107 -146.074036 -49.298302 0.000000
34.274414 -146.074036 -49.298302 0.000000
47.757721 -146.074036 -49.298302 0.000000
61.240997 -146.074036 -49.298302 0.000000
74.724304 -146.074036 -49.298302 0.000000
88.207611 -146.074036 -49.298302 0.000000
101.690918 -146.074036 -49.298302 0.000000
115.174225 -146.074036 -49.298302 0.000000
128.657501 -146.074036 -49.298302 0.000000
142.140808 -146.074036 -49.298302 0.000000
155.624115 -146.074036 -49.298302 0.000000
169.107422 -146.074036 -49.298302 0.000000
182.590698 -146.074036 -49.298302 0.000000
196.074036 -146.074036 -49.298302 0.000000
209.557312 -146.074036 -49.298302 0.000000
223.040588 -146.074036 -49.298302 0.000000
236.523926 -146.074036 -49.298302 0.000000
250.007202 -146.074036 -49.298302 0.000000
263.490540 -146.074036 -49.298302 0.000000
276.973816 -146.074036 -49.298302 0.000000
290.457092 -146.074036 -49.298302 0.000000
303.940430 -146.074036 -49.298302 0.000000
317.423706 -146.074036 -49.298302 0.000000
330.907043 -146.074036 -49.298302 0.000000
344.390320 -146.074036 -49.298302 0.000000
-343.257996 -159.557312 -49.298302 0.000000
-329.774689 -159.557312 -49.298302 0.000000
-316.291382 -159.557312 -49.298302 0.000000
-302.808105 -159.557312 -49.298302 0.000000
-289.324799 -159.557312 -49.298302 0.000000
-275.841492 -159.557312 -49.298302 0.000000
-262.358185 -159.557312 -49.298302 0.000000
-248.874893 -159.557312 -49.298302 0.000000
-235.391602 -159.557312 -49.298302 0.000000
-221.908295 -159.557312 -49.298302 0.000000
-208.424988 -159.557312 -49.298302 0.000000
-194.941696 -159.557312 -49.298302 0.000000
-181.458389 -159.557312 -49.298302 0.000000
-167.975098 -159.557312 -49.298302 0.000000
-154.491791 -159.557312 -49.298302 0.000000
-141.008499 -159.557312 -49.298302 0.000000
-127.525192 -159.557312 -49.298302 0.000000
-114.041885 -159.557312 -49.298302 0.000000
-100.558594 -159.557312 -49.298302 0.000000
-87.075287 -159.557312 -49.298302 0.000000
-73.591980 -159.557312 -49.298302 0.000000
-60.108704 -159.557312 -49.298302 0.000000
-46.625397 -159.557312 -49.298302 0.000000
-33.142090 -159.557312 -49.298302 0.000000
-19.658783 -159.557312 -49.298302 0.000000
-6.175476 -159.557312 -49.298302 0.000000
7.307800 -159.557312 -49.298302 0.000000
20.791107 -159.557312 -49.298302 0.000000
34.274414 -159.557312 -49.298302 0.000000
47.757721 -159.557312 -49.298302 0.000000
61.240997 -159.557312 -49.298302 0.000000
74.724304 -159.557312 -49.298302 0.000000
88.207611 -159.557312 -49.298302 0.000000
101.690918 -159.557312 -49.298302 0.000000
115.174225 -159.557312 -49.298302 0.000000
128.657501 -159.557312 -49.298302 0.000000
142.140808 -159.557312 -49.298302 0.000000
155.624115 -159.557312 -49.298302 0.000000
169.107422 -159.557312 -49.298302 0.000000
182.590698 -159.557312 -49.298302 0.000000
196.074036 -159.557312 -49.298302 0.000000
209.557312 -159.557312 -49.298302 0.000000
223.040588 -159.557312 -49.298302 0.000000
236.523926 -159.557312 -49.298302 0.000000
250.007202 -159.557312 -49.298302 0.000000
263.490540 -159.557312 -49.298302 0.000000
276.973816 -159.557312 -49.298302 0.000000
290.457092 -159.557312 -49.298302 0.000000
303.940430 -159.557312 -49.298302 0.000000
317.423706 -159.557312 -49.298302 0.000000
330.907043 -159.557312 -49.298302 0.000000
344.390320 -159.557312 -49.298302 0.000000
-343.257996 -173.040588 -49.298302 0.000000
-329.774689 -173.040588 -49.298302 0.000000
-316.291382 -173.040588 -49.298302 0.000000
-302.808105 -173.040588 -49.298302 0.000000
-289.324799 -173.040588 -49.298302 0.000000
-275.841492 -173.040588 -49.298302 0.000000
-262.358185 -173.040588 -49.298302 0.000000
-248.874893 -173.040588 -49.298302 0.000000
-235.391602 -173.040588 -49.298302 0.000000
-221.908295 -173.040588 -49.298302 0.000000
-208.424988 -173.040588 -49.298302 0.000000
-194.941696 -173.040588 -49.298302 0.000000
-181.458389 -173.040588 -49.298302 0.000000
-167.975098 -173.040588 -49.298302 0.000000
-154.491791 -173.040588 -49.298302 0.000000
-141.008499 -173.040588 -49.298302 0.000000
-127.525192 -173.040588 -49.298302 0.000000
-114.041885 -173.040588 -49.298302 0.000000
-100.558594 -173.040588 -49.298302 0.000000
-87.075287 -173.040588 -49.298302 0.000000
-73.591980 -173.040588 -49.298302 0.000000
-60.108704 -173.040588 -49.298302 0.000000
-46.625397 -173.040588 -49.298302 0.000000
-33.142090 -173.040588 -49.298302 0.000000
-19.658783 -173.040588 -49.298302 0.000000
-6.175476 -173.040588 -49.298302 0.000000
7.307800 -173.040588 -49.298302 0.000000
20.791107 -173.040588 -49.298302 0.000000
34.274414 -173.040588 -49.298302 0.000000
47.757721 -173.040588 -49.298302 0.000000
61.240997 -173.040588 -49.298302 0.000000
74.724304 -173.040588 -49.298302 0.000000
88.207611 -173.040588 -49.298302 0.000000
101.690918 -173.040588 -49.298302 0.000000
115.174225 -173.040588 -49.298302 0.000000
128.657501 -173.040588 -49.298302 0.000000
142.140808 -173.040588 -49.298302 0.000000
155.624115 -173.040588 -49.298302 0.000000
169.107422 -173.040588 -49.298302 0.000000
182.590698 -173.040588 -49.298302 0.000000
196.074036 -173.040588 -49.298302 0.000000
209.557312 -173.040588 -49.298302 0.000000
223.040588 -173.040588 -49.298302 0.000000
236.523926 -173.040588 -49.298302 0.000000
250.007202 -173.040588 -49.298302 0.000000
263.490540 -173.040588 -49.298302 0.000000
276.973816 -173.040588 -49.298302 0.000000
290.457092 -173.040588 -49.298302 0.000000
303.940430 -173.040588 -49.298302 0.000000
317.423706 -173.040588 -49.298302 0.000000
330.907043 -173.040588 -49.298302 0.000000
344.390320 -173.040588 -49.298302 0.000000
-343.257996 -186.523926 -49.298302 0.000000
-329.774689 -186.523926 -49.298302 0.000000
-316.291382 -186.523926 -49.298302 0.000000
-302.808105 -186.523926 -49.298302 0.000000
-289.324799 -186.523926 -49.298302 0.000000
-275.841492 -186.523926 -49.298302 0.000000
-262.358185 -186.523926 -49.298302 0.000000
-248.874893 -186.523926 -49.298302 0.000000
-235.391602 -186.523926 -49.298302 0.000000
-221.908295 -186.523926 -49.298302 0.000000
-208.424988 -186.523926 -49.298302 0.000000
-194.941696 -186.523926 -49.298302 0.000000
-181.458389 -186.523926 -49.298302 0.000000
-167.975098 -186.523926 -49.298302 0.000000
-154.491791 -186.523926 -49.298302 0.000000
-141.008499 -186.523926 -49.298302 0.000000
-127.525192 -186.523926 -49.298302 0.000000
-114.041885 -186.523926 -49.298302 0.000000
-100.558594 -186.523926 -49.298302 0.000000
-87.075287 -186.523926 -49.298302 0.000000
-73.591980 -186.523926 -49.298302 0.000000
-60.108704 -186.523926 -49.298302 0.000000
-46.625397 -186.523926 -49.298302 0.000000
-33.142090 -186.523926 -49.298302 0.000000
-19.658783 -186.523926 -49.298302 0.000000
-6.175476 -186.523926 -49.298302 0.000000
7.307800 -186.523926 -49.298302 0.000000
20.791107 -186.523926 -49.298302 0.000000
34.274414 -186.523926 -49.298302 0.000000
47.757721 -186.523926 -49.298302 0.000000
61.240997 -186.523926 -49.298302 0.000000
74.724304 -186.523926 -49.298302 0.000000
88.207611 -186.523926 -49.298302 0.000000
101.690918 -186.523926 -49.298302 0.000000
115.174225 -186.523926 -49.298302 0.000000
128.657501 -186.523926 -49.298302 0.000000
142.140808 -186.523926 -49.298302 0.000000
155.624115 -186.523926 -49.298302 0.000000
169.107422 -186.523926 -49.298302 0.000000
182.590698 -186.523926 -49.298302 0.000000
196.074036 -186.523926 -49.298302 0.000000
209.557312 -186.523926 -49.298302 0.000000
223.040588 -186.523926 -49.298302 0.000000
236.523926 -186.523926 -49.298302 0.000000
250.007202 -186.523926 -49.298302 0.000000
263.490540 -186.523926 -49.298302 0.000000
276.973816 -186.523926 -49.298302 0.000000
290.457092 -186.523926 -49.298302 0.000000
303.940430 -186.523926 -49.298302 0.000000
317.423706 -186.523926 -49.298302 0.000000
330.907043 -186.523926 -49.298302 0.000000
344.390320 -186.523926 -49.298302 0.000000
-343.257996 -200.007202 -49.298302 0.000000
-329.774689 -200.007202 -49.298302 0.000000
-316.291382 -200.007202 -49.298302 0.000000
-302.808105 -200.007202 -49.298302 0.000000
-289.324799 -200.007202 -49.298302 0.000000
-275.841492 -200.007202 -49.298302 0.000000
-262.358185 -200.007202 -49.298302 0.000000
-248.874893 -200.007202 -49.298302 0.000000
-235.391602 -200.007202 -49.298302 0.000000
-221.908295 -200.007202 -49.298302 0.000000
-208.424988 -200.007202 -49.298302 0.000000
-194.941696 -200.007202 -49.298302 0.000000
-181.458389 -200.007202 -49.298302 0.000000
-167.975098 -200.007202 -49.298302 0.000000
-154.491791 -200.007202 -49.298302 0.000000
-141.008499 -200.007202 -49.298302 0.000000
-127.525192 -200.007202 -49.298302 0.000000
-114.041885 -200.007202 -49.298302 0.000000
-100.558594 -200.007202 -49.298302 0.000000
-87.075287 -200.007202 -49.298302 0.000000
-73.591980 -200.007202 -49.298302 0.000000
-60.108704 -200.007202 -49.298302 0.000000
-46.625397 -200.007202 -49.298302 0.000000
-33.142090 -200.007202 -49.298302 0.000000
-19.658783 -200.007202 -49.298302 0.000000
-6.175476 -200.007202 -49.298302 0.000000
7.307800 -200.007202 -49.298302 0.000000
20.791107 -200.007202 -49.298302 0.000000
34.274414 -200.007202 -49.298302 0.000000
47.757721 -200.007202 -49.298302 0.000000
61.240997 -200.007202 -49.298302 0.000000
74.724304 -200.007202 -49.298302 0.000000
88.207611 -200.007202 -49.298302 0.000000
101.690918 -200.007202 -49.298302 0.000000
115.174225 -200.007202 -49.298302 0.000000
128.657501 -200.007202 -49.298302 0.000000
142.140808 -200.007202 -49.298302 0.000000
155.624115 -200.007202 -49.298302 0.000000
169.107422 -200.007202 -49.298302 0.000000
182.590698 -200.007202 -49.298302 0.000000
196.074036 -200.007202 -49.298302 0.000000
209.557312 -200.007202 -49.298302 0.000000
223.040588 -200.007202 -49.298302 0.000000
236.523926 -200.007202 -49.298302 0.000000
250.007202 -200.007202 -49.298302 0.000000
263.490540 -200.007202 -49.298302 0.000000
276.973816 -200.007202 -49.298302 0.000000
290.457092 -200.007202 -49.298302 0.000000
303.940430 -200.007202 -49.298302 0.000000
317.423706 -200.007202 -49.298302 0.000000
330.907043 -200.007202 -49.298302 0.000000
344.390320 -200.007202 -49.298302 0.000000
-343.257996 393.257996 -35.815002 0.000000
-329.774689 393.257996 -35.815002 0.000000
-316.291382 393.257996 -35.815002 0.000000
-302.808105 393.257996 -35.815002 0.000000
-289.324799 393.257996 -35.815002 0.000000
-275.841492 393.257996 -35.815002 0.000000
-262.358185 393.257996 -35.815002 0.000000
-248.874893 393.257996 -35.815002 0.000000
-235.391602 393.257996 -35.815002 0.000000
-221.908295 393.257996 -35.815002 0.000000
-208.424988 393.257996 -35.815002 0.000000
-194.941696 393.257996 -35.815002 0.000000
-181.458389 393.257996 -35.815002 0.000000
-167.975098 393.257996 -35.815002 0.000000
-154.491791 393.257996 -35.815002 0.000000
-141.008499 393.257996 -35.815002 0.000000
-127.525192 393.257996 -35.815002 0.000000
-114.041885 393.257996 -35.815002 0.000000
-100.558594 393.257996 -35.815002 0.000000
-87.075287 393.257996 -35.815002 0.000000
-73.591980 393.257996 -35.815002 0.000000
-60.108704 393.257996 -35.815002 0.000000
-46.625397 393.257996 -35.815002 0.000000
-33.142090 393.257996 -35.815002 0.000000
-19.658783 393.257996 -35.815002 0.000000
-6.175476 393.257996 -35.815002 0.000000
7.307800 393.257996 -35.815002 0.000000
20.791107 393.257996 -35.815002 0.000000
34.274414 393.257996 -35.815002 0.000000
47.757721 393.257996 -35.815002 0.000000
61.240997 393.257996 -35.815002 0.000000
74.724304 393.257996 -35.815002 0.000000
88.207611 393.257996 -35.815002 0.000000
101.690918 393.257996 -35.815002 0.000000
115.174225 393.257996 -35.815002 0.000000
128.657501 393.257996 -35.815002 0.000000
142.140808 393.257996 -35.815002 0.000000
155.624115 393.257996 -35.815002 0.000000
169.107422 393.257996 -35.815002 0.000000
182.590698 393.257996 -35.815002 0.000000
196.074036 393.257996 -35.815002 0.000000
209.557312 393.257996 -35.815002 0.000000
223.040588 393.257996 -35.815002 0.000000
236.523926 393.257996 -35.815002 0.000000
250.007202 393.257996 -35.815002 0.000000
263.490540 393.257996 -35.815002 0.000000
276.973816 393.257996 -35.815002 0.000000
290.457092 393.257996 -35.815002 0.000000
303.940430 393.257996 -35.815002 0.000000
317.423706 393.257996 -35.815002 0.000000
330.907043 393.257996 -35.815002 0.000000
344.390320 393.257996 -35.815002 0.000000
-343.257996 379.774689 -35.815002 0.000000
-329.774689 379.774689 -35.815002 0.000000
-316.291382 379.774689 -35.815002 0.000000
-302.808105 379.774689 -35.815002 0.000000
-289.324799 379.774689 -35.815002 0.000000
-275.841492 379.774689 -35.815002 0.000000
-262.358185 379.774689 -35.815002 0.000000
-248.874893 379.774689 -35.815002 0.000000
-235.391602 379.774689 -35.815002 0.000000
-221.908295 379.774689 -35.815002 0.000000
-208.424988 379.774689 -35.815002 0.000000
-194.941696 379.774689 -35.815002 0.000000
-181.458389 379.774689 -35.815002 0.000000
-167.975098 379.774689 -35.815002 0.000000
-154.491791 379.774689 -35.815002 0.000000
-141.008499 379.774689 -35.815002 0.000000
-127.525192 379.774689 -35.815002 0.000000
-114.041885 379.774689 -35.815002 0.000000
-100.558594 379.774689 -35.815002 0.000000
-87.075287 379.774689 -35.815002 0.000000
-73.591980 379.774689 -35.815002 0.000000
-60.108704 379.774689 -35.815002 0.000000
-46.625397 379.774689 -35.815002 0.000000
-33.142090 379.774689 -35.815002 0.000000
-19.658783 379.774689 -35.815002 0.000000
-6.175476 379.774689 -35.815002 0.000000
7.307800 379.774689 -35.815002 0.000000
20.791107 379.774689 -35.815002 0.000000
34.274414 379.774689 -35.815002 0.000000
47.757721 379.774689 -35.815002 0.000000
61.240997 379.774689 -35.815002 0.000000
74.724304 379.774689 -35.815002 0.000000
88.207611 379.774689 -35.815002 0.000000
101.690918 379.774689 -35.815002 0.000000
115.174225 379.774689 -35.815002 0.000000
128.657501 379.774689 -35.815002 0.000000
142.140808 379.774689 -35.815002 0.000000
155.624115 379.774689 -35.815002 0.000000
169.107422 379.774689 -35.815002 0.000000
182.590698 379.774689 -35.815002 0.000000
196.074036 379.774689 -35.815002 0.000000
209.557312 379.774689 -35.815002 0.000000
223.040588 379.774689 -35.815002 0.000000
236.523926 379.774689 -35.815002 0.000000
250.007202 379.774689 -35.815002 0.000000
263.490540 379.774689 -35.815002 0.000000
276.973816 379.774689 -35.815002 0.000000
290.457092 379.774689 -35.815002 0.000000
303.940430 379.774689 -35.815002 0.000000
317.423706 379.774689 -35.815002 0.000000
330.907043 379.774689 -35.815002 0.000000
344.390320 379.774689 -35.815002 0.000000
-343.257996 366.291382 -35.815002 0.000000
-329.774689 366.291382 -35.815002 0.000000
-316.291382 366.291382 -35.815002 0.000000
-302.808105 366.291382 -35.815002 0.000000
-289.324799 366.291382 -35.815002 0.000000
-275.841492 366.291382 -35.815002 0.000000
-262.358185 366.291382 -35.815002 0.000000
-248.874893 366.291382 -35.815002 0.000000
-235.391602 366.291382 -35.815002 0.000000
-221.908295 366.291382 -35.815002 0.000000
-208.424988 366.291382 -35.815002 0.000000
-194.941696 366.291382 -35.815002 0.000000
-181.458389 366.291382 -35.815002 0.000000
-167.975098 366.291382 -35.815002 0.000000
-154.491791 366.291382 -35.815002 0.000000
-141.008499 366.291382 -35.815002 0.000000
-127.525192 366.291382 -35.815002 0.000000
-114.041885 366.291382 -35.815002 0.000000
-100.558594 366.291382 -35.815002 0.000000
-87.075287 366.291382 -35.815002 0.000000
-73.591980 366.291382 -35.815002 0.000000
-60.108704 366.291382 -35.815002 0.000000
-46.625397 366.291382 -35.815002 0.000000
-33.142090 366.291382 -35.815002 0.000000
-19.658783 366.291382 -35.815002 0.000000
-6.175476 366.291382 -35.815002 0.446838
7.307800 366.291382 -35.815002 0.462806
20.791107 366.291382 -35.815002 0.350278
34.274414 366.291382 -35.815002 0.175376
47.757721 366.291382 -35.815002 0.155733
61.240997 366.291382 -35.815002 0.092170
74.724304 366.291382 -35.815002 0.019035
88.207611 366.291382 -35.815002 -0.015356
101.690918 366.291382 -35.815002 -0.089911
115.174225 366.291382 -35.815002 -0.230503
128.657501 366.291382 -35.815002 0.000000
142.140808 366.291382 -35.815002 0.000000
155.624115 366.291382 -35.815002 0.000000
169.107422 366.291382 -35.815002 0.000000
182.590698 366.291382 -35.815002 0.000000
196.074036 366.291382 -35.815002 0.000000
209.557312 366.291382 -35.815002 0.000000
223.040588 366.291382 -35.815002 0.000000
236.523926 366.291382 -35.815002 0.000000
250.007202 366.291382 -35.815002 0.000000
263.490540 366.291382 -35.815002 0.000000
276.973816 366.291382 -35.815002 0.000000
290.457092 366.291382 -35.815002 0.000000
303.940430 366.291382 -35.815002 0.000000
317.423706 366.291382 -35.815002 0.000000
330.907043 366.291382 -35.815002 0.000000
344.390320 366.291382 -35.815002 0.000000
-343.257996 352.808105 -35.815002 0.000000
-329.774689 352.808105 -35.815002 0.000000
-316.291382 352.808105 -35.815002 0.000000
-302.808105 352.808105 -35.815002 0.000000
-289.324799 352.808105 -35.815002 0.000000
-275.841492 352.808105 -35.815002 0.000000
-262.358185 352.808105 -35.815002 0.000000
-248.874893 352.808105 -35.815002 0.000000
-235.391602 352.808105 -35.815002 0.000000
-221.908295 352.808105 -35.815002 -0.815750
-208.424988 352.808105 -35.815002 -0.923810
-194.941696 352.808105 -35.815002 -1.026775
-181.458389 352.808105 -35.815002 -0.932799
-167.975098 352.808105 -35.815002 -0.756377
-154.491791 352.808105 -35.815002 -0.659006
-141.008499 352.808105 -35.815002 -0.389785
-127.525192 352.808105 -35.815002 -0.355296
-114.041885 352.808105 -35.815002 0.062419
-100.558594 352.808105 -35.815002 0.638728
-87.075287 352.808105 -35.815002 1.006651
-73.591980 352.808105 -35.815002 1.340771
-60.108704 352.808105 -35.815002 1.495267
-46.625397 352.808105 -35.815002 1.638963
-33.142090 352.808105 -35.815002 1.530395
-19.658783 352.808105 -35.815002 1.023887
-6.175476 352.808105 -35.815002 0.641366
7.307800 352.808105 -35.815002 0.525345
20.791107 352.808105 -35.815002 0.322781
34.274414 352.808105 -35.815002 0.087978
47.757721 352.808105 -35.815002 0.109185
61.240997 352.808105 -35.815002 -0.010866
74.724304 352.808105 -35.815002 -0.026217
88.207611 352.808105 -35.815002 -0.111206
101.690918 352.808105 -35.815002 -0.270474
115.174225 352.808105 -35.815002 -0.381188
128.657501 352.808105 -35.815002 -0.380846
142.140808 352.808105 -35.815002 -0.424236
155.624115 352.808105 -35.815002 -0.414454
169.107422 352.808105 -35.815002 -0.177825
182.590698 352.808105 -35.815002 0.031035
196.074036 352.808105 -35.815002 0.277346
209.557312 352.808105 -35.815002 0.000000
223.040588 352.808105 -35.815002 0.000000
236.523926 352.808105 -35.815002 0.000000
250.007202 352.808105 -35.815002 0.000000
263.490540 352.808105 -35.815002 0.000000
276.973816 352.808105 -35.815002 0.000000
290.457092 352.808105 -35.815002 0.000000
303.940430 352.808105 -35.815002 0.000000
317.423706 352.808105 -35.815002 0.000000
330.907043 352.808105 -35.815002 0.000000
344.390320 352.808105 -35.815002 0.000000
-343.257996 339.324799 -35.815002 0.000000
-329.774689 339.324799 -35.815002 0.000000
-316.291382 339.324799 -35.815002 0.000000
-302.808105 339.324799 -35.815002 0.000000
-289.324799 339.324799 -35.815002 0.000000
-275.841492 339.324799 -35.815002 -0.448929
-262.358185 339.324799 -35.815002 -0.393716
-248.874893 339.324799 -35.815002 -0.517199
-235.391602 339.324799 -35.815002 -0.710278
-221.908295 339.324799 -35.815002 -0.643790
-208.424988 339.324799 -35.815002 -0.730766
-194.941696 339.324799 -35.815002 -0.990167
-181.458389 339.324799 -35.815002 -1.005868
-167.975098 339.324799 -35.815002 -0.817453
-154.491791 339.324799 -35.815002 -0.523417
-141.008499 339.324799 -35.815002 -0.542868
-127.525192 339.324799 -35.815002 -0.232026
-114.041885 339.324799 -35.815002 0.206332
-100.558594 339.324799 -35.815002 0.564567
-87.075287 339.324799 -35.815002 0.971229
-73.591980 339.324799 -35.815002 1.357452
-60.108704 339.324799 -35.815002 1.423199
-46.625397 339.324799 -35.815002 1.733509
-33.142090 339.324799 -35.815002 1.503889
-19.658783 339.324799 -35.815002 1.156262
-6.175476 339.324799 -35.815002 0.903981
7.307800 339.324799 -35.815002 0.549573
20.791107 339.324799 -35.815002 0.297531
34.274414 339.324799 -35.815002 0.171412
47.757721 339.324799 -35.815002 0.026706
61.240997 339.324799 -35.815002 -0.090415
74.724304 339.324799 -35.815002 -0.043061
88.207611 339.324799 -35.815002 -0.306238
101.690918 339.324799 -35.815002 -0.577458
115.174225 339.324799 -35.815002 -0.545205
128.657501 339.324799 -35.815002 -0.420899
142.140808 339.324799 -35.815002 -0.401263
155.624115 339.324799 -35.815002 -0.309776
169.107422 339.324799 -35.815002 -0.210428
182.590698 339.324799 -35.815002 0.193081
196.074036 339.324799 -35.815002 0.367629
209.557312 339.324799 -35.815002 0.693049
223.040588 339.324799 -35.815002 0.851059
236.523926 339.324799 -35.815002 1.007932
250.007202 339.324799 -35.815002 0.736185
263.490540 339.324799 -35.815002 0.485084
276.973816 339.324799 -35.815002 0.000000
290.457092 339.324799 -35.815002 0.000000
303.940430 339.324799 -35.815002 0.000000
317.423706 339.324799 -35.815002 0.000000
330.907043 339.324799 -35.815002 0.000000
344.390320 339.324799 -35.815002 0.000000
-343.257996 325.841492 -35.815002 0.000000
-329.774689 325.841492 -35.815002 0.000000
-316.291382 325.841492 -35.815002 0.000000
-302.808105 325.841492 -35.815002 0.000000
-289.324799 325.841492 -35.815002 -0.450574
-275.841492 325.841492 -35.815002 -0.402010
-262.358185 325.841492 -35.815002 -0.255006
-248.874893 325.841492 -35.815002 -0.488940
-235.391602 325.841492 -35.815002 -0.570218
-221.908295 325.841492 -35.815002 -0.450310
-208.424988 325.841492 -35.815002 -0.679481
-194.941696 325.841492 -35.815002 -0.798069
-181.458389 325.841492 -35.815002 -0.937537
-167.975098 325.841492 -35.815002 -0.640104
-154.491791 325.841492 -35.815002 -0.728103
-141.008499 325.841492 -35.815002 -0.553031
-127.525192 325.841492 -35.815002 -0.454228
-114.041885 325.841492 -35.815002 0.098042
-100.558594 325.841492 -35.815002 0.732612
-87.075287 325.841492 -35.815002 1.023251
-73.591980 325.841492 -35.815002 1.619337
-60.108704 325.841492 -35.815002 1.514185
-46.625397 325.841492 -35.815002 1.695666
-33.142090 325.841492 -35.815002 1.527350
-19.658783 325.841492 -35.815002 1.115761
-6.175476 325.841492 -35.815002 0.917294
7.307800 325.841492 -35.815002 0.611016
20.791107 325.841492 -35.815002 0.366988
34.274414 325.841492 -35.815002 0.233301
47.757721 325.841492 -35.815002 0.002784
61.240997 325.841492 -35.815002 -0.161094
74.724304 325.841492 -35.815002 -0.248259
88.207611 325.841492 -35.815002 -0.429091
101.690918 325.841492 -35.815002 -0.617129
115.174225 325.841492 -35.815002 -0.547899
128.657501 325.841492 -35.815002 -0.495982
142.140808 325.841492 -35.815002 -0.422850
155.624115 325.841492 -35.815002 -0.243935
169.107422 325.841492 -35.815002 -0.031736
182.590698 325.841492 -35.815002 0.267333
196.074036 325.841492 -35.815002 0.524369
209.557312 325.841492 -35.815002 0.745661
223.040588 325.841492 -35.815002 0.941508
236.523926 325.841492 -35.815002 0.895024
250.007202 325.841492 -35.815002 0.693975
263.490540 325.841492 -35.815002 0.575823
276.973816 325.841492 -35.815002 0.423074
290.457092 325.841492 -35.815002 0.335603
303.940430 325.841492 -35.815002 0.000000
317.423706 325.841492 -35.815002 0.000000
330.907043 325.841492 -35.815002 0.000000
344.390320 325.841492 -35.815002 0.000000
-343.257996 312.358185 -35.815002 0.000000
-329.774689 312.358185 -35.815002 0.000000
-316.291382 312.358185 -35.815002 0.000000
-302.808105 312.358185 -35.815002 -0.190606
-289.324799 312.358185 -35.815002 -0.199063
-275.841492 312.358185 -35.815002 -0.137780
-262.358185 312.358185 -35.815002 -0.244579
-248.874893 312.358185 -35.815002 -0.328895
-235.391602 312.358185 -35.815002 -0.403521
-221.908295 312.358185 -35.815002 -0.455004
-208.424988 312.358185 -35.815002 -0.461580
-194.941696 312.358185 -35.815002 -0.590776
-181.458389 312.358185 -35.815002 -0.732965
-167.975098 312.358185 -35.815002 -0.898257
-154.491791 312.358185 -35.815002 -0.803240
-141.008499 312.358185 -35.815002 -0.729515
-127.525192 312.358185 -35.815002 -0.326545
-114.041885 312.358185 -35.815002 -0.152536
-100.558594 312.358185 -35.815002 0.647771
-87.075287 312.358185 -35.815002 0.886045
-73.591980 312.358185 -35.815002 1.351759
-60.108704 312.358185 -35.815002 1.411447
-46.625397 312.358185 -35.815002 1.611653
-33.142090 312.358185 -35.815002 1.521948
-19.658783 312.358185 -35.815002 1.317834
-6.175476 312.358185 -35.815002 1.087375
7.307800 312.358185 -35.815002 0.703600
20.791107 312.358185 -35.815002 0.349819
34.274414 312.358185 -35.815002 0.180588
47.757721 312.358185 -35.815002 -0.053197
61.240997 312.358185 -35.815002 -0.294156
74.724304 312.358185 -35.815002 -0.375246
88.207611 312.358185 -35.815002 -0.562769
101.690918 312.358185 -35.815002 -0.736869
115.174225 312.358185 -35.815002 -0.505656
128.657501 312.358185 -35.815002 -0.611955
142.140808 312.358185 -35.815002 -0.304307
155.624115 312.358185 -35.815002 -0.143499
169.107422 312.358185 -35.815002 -0.075641
182.590698 312.358185 -35.815002 0.223082
196.074036 312.358185 -35.815002 0.461449
209.557312 312.358185 -35.815002 0.656295
223.040588 312.358185 -35.815002 0.761214
236.523926 312.358185 -35.815002 0.775548
250.007202 312.358185 -35.815002 0.722569
263.490540 312.358185 -35.815002 0.481618
276.973816 312.358185 -35.815002 0.451504
290.457092 312.358185 -35.815002 0.378925
303.940430 312.358185 -35.815002 0.000000
317.423706 312.358185 -35.815002 0.000000
330.907043 312.358185 -35.815002 0.000000
344.390320 312.358185 -35.815002 0.000000
-343.257996 298.874878 -35.815002 0.000000
-329.774689 298.874878 -35.815002 0.000000
-316.291382 298.874878 -35.815002 -0.143875
-302.808105 298.874878 -35.815002 -0.063707
-289.324799 298.874878 -35.815002 -0.081619
-275.841492 298.874878 -35.815002 -0.087321
-262.358185 298.874878 -35.815002 -0.149391
-248.874893 298.874878 -35.815002 -0.215366
-235.391602 298.874878 -35.815002 -0.218194
-221.908295 298.874878 -35.815002 -0.363000
-208.424988 298.874878 -35.815002 -0.320954
-194.941696 298.874878 -35.815002 -0.339322
-181.458389 298.874878 -35.815002 -0.425913
-167.975098 298.874878 -35.815002 -0.715488
-154.491791 298.874878 -35.815002 -0.682255
-141.008499 298.874878 -35.815002 -0.594837
-127.525192 298.874878 -35.815002 -0.509800
-114.041885 298.874878 -35.815002 -0.268749
-100.558594 298.874878 -35.815002 0.311986
-87.075287 298.874878 -35.815002 0.857476
-73.591980 298.874878 -35.815002 1.110538
-60.108704 298.874878 -35.815002 1.287064
-46.625397 298.874878 -35.815002 1.682911
-33.142090 298.874878 -35.815002 1.797820
-19.658783 298.874878 -35.815002 1.676415
-6.175476 298.874878 -35.815002 1.210031
7.307800 298.874878 -35.815002 0.605554
20.791107 298.874878 -35.815002 0.365241
34.274414 298.874878 -35.815002 0.144963
47.757721 298.874878 -35.815002 -0.031749
61.240997 298.874878 -35.815002 -0.448305
74.724304 298.874878 -35.815002 -0.595998
88.207611 298.874878 -35.815002 -0.668613
101.690918 298.874878 -35.815002 -0.649928
115.174225 298.874878 -35.815002 -0.474304
128.657501 298.874878 -35.815002 -0.310576
142.140808 298.874878 -35.815002 -0.044453
155.624115 298.874878 -35.815002 -0.008829
169.107422 298.874878 -35.815002 0.023366
182.590698 298.874878 -35.815002 0.076423
196.074036 298.874878 -35.815002 0.545929
209.557312 298.874878 -35.815002 0.615250
223.040588 298.874878 -35.815002 0.711863
236.523926 298.874878 -35.815002 0.733997
250.007202 298.874878 -35.815002 0.621707
263.490540 298.874878 -35.815002 0.449273
276.973816 298.874878 -35.815002 0.377493
290.457092 298.874878 -35.815002 0.321093
303.940430 298.874878 -35.815002 0.197017
317.423706 298.874878 -35.815002 0.000000
330.907043 298.874878 -35.815002 0.000000
344.390320 298.874878 -35.815002 0.000000
-343.257996 285.391602 -35.815002 0.000000
-329.774689 285.391602 -35.815002 0.000000
-316.291382 285.391602 -35.815002 -0.083395
-302.808105 285.391602 -35.815002 -0.020953
-289.324799 285.391602 -35.815002 -0.008746
-275.841492 285.391602 -35.815002 -0.051191
-262.358185 285.391602 -35.815002 -0.101510
-248.874893 285.391602 -35.815002 -0.134624
-235.391602 285.391602 -35.815002 -0.139815
-221.908295 285.391602 -35.815002 -0.192187
-208.424988 285.391602 -35.815002 -0.273896
-194.941696 285.391602 -35.815002 -0.455481
-181.458389 285.391602 -35.815002 -0.545172
-167.975098 285.391602 -35.815002 -0.757715
-154.491791 285.391602 -35.815002 -0.833516
-141.008499 285.391602 -35.815002 -0.731126
-127.525192 285.391602 -35.815002 -0.546700
-114.041885 285.391602 -35.815002 -0.490523
-100.558594 285.391602 -35.815002 0.164349
-87.075287 285.391602 -35.815002 0.630657
-73.591980 285.391602 -35.815002 0.967337
-60.108704 285.391602 -35.815002 1.398802
-46.625397 285.391602 -35.815002 1.818970
-33.142090 285.391602 -35.815002 1.924945
-19.658783 285.391602 -35.815002 1.794917
-6.175476 285.391602 -35.815002 1.314672
7.307800 285.391602 -35.815002 0.853511
20.791107 285.391602 -35.815002 0.319343
34.274414 285.391602 -35.815002 0.144283
47.757721 285.391602 -35.815002 -0.216470
61.240997 285.391602 -35.815002 -0.472285
74.724304 285.391602 -35.815002 -0.866622
88.207611 285.391602 -35.815002 -0.524323
101.690918 285.391602 -35.815002 -0.479057
115.174225 285.391602 -35.815002 -0.280153
128.657501 285.391602 -35.815002 -0.092366
142.140808 285.391602 -35.815002 0.238430
155.624115 285.391602 -35.815002 0.380814
169.107422 285.391602 -35.815002 0.372046
182.590698 285.391602 -35.815002 0.408070
196.074036 285.391602 -35.815002 0.615085
209.557312 285.391602 -35.815002 0.645576
223.040588 285.391602 -35.815002 0.773700
236.523926 285.391602 -35.815002 0.685126
250.007202 285.391602 -35.815002 0.509054
263.490540 285.391602 -35.815002 0.383334
276.973816 285.391602 -35.815002 0.254177
290.457092 285.391602 -35.815002 0.114670
303.940430 285.391602 -35.815002 0.011864
317.423706 285.391602 -35.815002 0.000000
330.907043 285.391602 -35.815002 0.000000
344.390320 285.391602 -35.815002 0.000000
-343.257996 271.908295 -35.815002 0.000000
-329.774689 271.908295 -35.815002 0.000000
-316.291382 271.908295 -35.815002 -0.084233
-302.808105 271.908295 -35.815002 -0.026259
-289.324799 271.908295 -35.815002 -0.035890
-275.841492 271.908295 -35.815002 -0.081056
-262.358185 271.908295 -35.815002 -0.110012
-248.874893 271.908295 -35.815002 -0.149399
-235.391602 271.908295 -35.815002 -0.133101
-221.908295 271.908295 -35.815002 -0.117547
-208.424988 271.908295 -35.815002 -0.235674
-194.941696 271.908295 -35.815002 -0.412454
-181.458389 271.908295 -35.815002 -0.685261
-167.975098 271.908295 -35.815002 -0.585091
-154.491791 271.908295 -35.815002 -0.666601
-141.008499 271.908295 -35.815002 -0.828617
-127.525192 271.908295 -35.815002 -0.529656
-114.041885 271.908295 -35.815002 -0.497742
-100.558594 271.908295 -35.815002 -0.221473
-87.075287 271.908295 -35.815002 0.679024
-73.591980 271.908295 -35.815002 0.953221
-60.108704 271.908295 -35.815002 1.402130
-46.625397 271.908295 -35.815002 1.878325
-33.142090 271.908295 -35.815002 2.020402
-19.658783 271.908295 -35.815002 1.931480
-6.175476 271.908295 -35.815002 1.467726
7.307800 271.908295 -35.815002 0.856486
20.791107 271.908295 -35.815002 0.563750
34.274414 271.908295 -35.815002 0.102043
47.757721 271.908295 -35.815002 -0.340442
61.240997 271.908295 -35.815002 -0.649061
74.724304 271.908295 -35.815002 -0.732990
88.207611 271.908295 -35.815002 -0.762696
101.690918 271.908295 -35.815002 -0.416435
115.174225 271.908295 -35.815002 -0.194226
128.657501 271.908295 -35.815002 -0.023646
142.140808 271.908295 -35.815002 0.194768
155.624115 271.908295 -35.815002 0.285362
169.107422 271.908295 -35.815002 0.329802
182.590698 271.908295 -35.815002 0.474290
196.074036 271.908295 -35.815002 0.687015
209.557312 271.908295 -35.815002 0.662716
223.040588 271.908295 -35.815002 0.584215
236.523926 271.908295 -35.815002 0.448325
250.007202 271.908295 -35.815002 0.367935
263.490540 271.908295 -35.815002 0.259976
276.973816 271.908295 -35.815002 0.224950
290.457092 271.908295 -35.815002 0.136930
303.940430 271.908295 -35.815002 0.053404
317.423706 271.908295 -35.815002 0.060328
330.907043 271.908295 -35.815002 0.000000
344.390320 271.908295 -35.815002 0.000000
-343.257996 258.424988 -35.815002 0.000000
-329.774689 258.424988 -35.815002 0.000000
-316.291382 258.424988 -35.815002 -0.062355
-302.808105 258.424988 -35.815002 -0.049036
-289.324799 258.424988 -35.815002 -0.042935
-275.841492 258.424988 -35.815002 -0.082001
-262.358185 258.424988 -35.815002 -0.116327
-248.874893 258.424988 -35.815002 -0.098657
-235.391602 258.424988 -35.815002 -0.089837
-221.908295 258.424988 -35.815002 -0.103977
-208.424988 258.424988 -35.815002 -0.198616
-194.941696 258.424988 -35.815002 -0.390918
-181.458389 258.424988 -35.815002 -0.444513
-167.975098 258.424988 -35.815002 -0.426118
-154.491791 258.424988 -35.815002 -0.538881
-141.008499 258.424988 -35.815002 -0.612852
-127.525192 258.424988 -35.815002 -0.556279
-114.041885 258.424988 -35.815002 -0.374227
-100.558594 258.424988 -35.815002 -0.251146
-87.075287 258.424988 -35.815002 0.389535
-73.591980 258.424988 -35.815002 0.903766
-60.108704 258.424988 -35.815002 1.473315
-46.625397 258.424988 -35.815002 2.148061
-33.142090 258.424988 -35.815002 2.326680
-19.658783 258.424988 -35.815002 1.913753
-6.175476 258.424988 -35.815002 1.443223
7.307800 258.424988 -35.815002 0.785282
20.791107 258.424988 -35.815002 0.270275
34.274414 258.424988 -35.815002 -0.031408
47.757721 258.424988 -35.815002 -0.621518
61.240997 258.424988 -35.815002 -0.762680
74.724304 258.424988 -35.815002 -0.822565
88.207611 258.424988 -35.815002 -0.846963
101.690918 258.424988 -35.815002 -0.503839
115.174225 258.424988 -35.815002 -0.319610
128.657501 258.424988 -35.815002 -0.074968
142.140808 258.424988 -35.815002 -0.214672
155.624115 258.424988 -35.815002 0.156589
169.107422 258.424988 -35.815002 0.324030
182.590698 258.424988 -35.815002 0.373625
196.074036 258.424988 -35.815002 0.519147
209.557312 258.424988 -35.815002 0.532515
223.040588 258.424988 -35.815002 0.422254
236.523926 258.424988 -35.815002 0.355807
250.007202 258.424988 -35.815002 0.322585
263.490540 258.424988 -35.815002 0.271980
276.973816 258.424988 -35.815002 0.178677
290.457092 258.424988 -35.815002 0.112006
303.940430 258.424988 -35.815002 0.119835
317.423706 258.424988 -35.815002 0.029623
330.907043 258.424988 -35.815002 0.000000
344.390320 258.424988 -35.815002 0.000000
-343.257996 244.941696 -35.815002 0.000000
-329.774689 244.941696 -35.815002 0.000000
-316.291382 244.941696 -35.815002 -0.056960
-302.808105 244.941696 -35.815002 -0.056585
-289.324799 244.941696 -35.815002 -0.024378
-275.841492 244.941696 -35.815002 -0.072229
-262.358185 244.941696 -35.815002 -0.087680
-248.874893 244.941696 -35.815002 -0.108443
-235.391602 244.941696 -35.815002 -0.155359
-221.908295 244.941696 -35.815002 -0.141515
-208.424988 244.941696 -35.815002 -0.174893
-194.941696 244.941696 -35.815002 -0.268264
-181.458389 244.941696 -35.815002 -0.401562
-167.975098 244.941696 -35.815002 -0.534007
-154.491791 244.941696 -35.815002 -0.526718
-141.008499 244.941696 -35.815002 -0.617365
-127.525192 244.941696 -35.815002 -0.529594
-114.041885 244.941696 -35.815002 -0.381366
-100.558594 244.941696 -35.815002 -0.079054
-87.075287 244.941696 -35.815002 0.367823
-73.591980 244.941696 -35.815002 0.832195
-60.108704 244.941696 -35.815002 1.160846
-46.625397 244.941696 -35.815002 1.759825
-33.142090 244.941696 -35.815002 2.069453
-19.658783 244.941696 -35.815002 1.958559
-6.175476 244.941696 -35.815002 1.399716
7.307800 244.941696 -35.815002 0.942149
20.791107 244.941696 -35.815002 0.425893
34.274414 244.941696 -35.815002 -0.141536
47.757721 244.941696 -35.815002 -0.502430
61.240997 244.941696 -35.815002 -0.975910
74.724304 244.941696 -35.815002 -1.078702
88.207611 244.941696 -35.815002 -0.937052
101.690918 244.941696 -35.815002 -0.541336
115.174225 244.941696 -35.815002 -0.601310
128.657501 244.941696 -35.815002 -0.156718
142.140808 244.941696 -35.815002 -0.049481
155.624115 244.941696 -35.815002 0.195836
169.107422 244.941696 -35.815002 0.247897
182.590698 244.941696 -35.815002 0.354510
196.074036 244.941696 -35.815002 0.463209
209.557312 244.941696 -35.815002 0.423043
223.040588 244.941696 -35.815002 0.305630
236.523926 244.941696 -35.815002 0.218455
250.007202 244.941696 -35.815002 0.195962
263.490540 244.941696 -35.815002 0.151948
276.973816 244.941696 -35.815002 0.114008
290.457092 244.941696 -35.815002 0.068825
303.940430 244.941696 -35.815002 0.047201
317.423706 244.941696 -35.815002 0.030499
330.907043 244.941696 -35.815002 0.000000
344.390320 244.941696 -35.815002 0.000000
-343.257996 231.458389 -35.815002 0.000000
-329.774689 231.458389 -35.815002 0.000000
-316.291382 231.458389 -35.815002 -0.018943
-302.808105 231.458389 -35.815002 -0.058210
-289.324799 231.458389 -35.815002 -0.039534
-275.841492 231.458389 -35.815002 -0.081428
-262.358185 231.458389 -35.815002 -0.078769
-248.874893 231.458389 -35.815002 -0.160529
-235.391602 231.458389 -35.815002 -0.158665
-221.908295 231.458389 -35.815002 -0.187294
-208.424988 231.458389 -35.815002 -0.271696
-194.941696 231.458389 -35.815002 -0.324999
-181.458389 231.458389 -35.815002 -0.504185
-167.975098 231.458389 -35.815002 -0.664928
-154.491791 231.458389 -35.815002 -0.682780
-141.008499 231.458389 -35.815002 -0.621556
-127.525192 231.458389 -35.815002 -0.455588
-114.041885 231.458389 -35.815002 -0.348980
-100.558594 231.458389 -35.815002 -0.041377
-87.075287 231.458389 -35.815002 0.165985
-73.591980 231.458389 -35.815002 0.325395
-60.108704 231.458389 -35.815002 0.801965
-46.625397 231.458389 -35.815002 1.644735
-33.142090 231.458389 -35.815002 1.984396
-19.658783 231.458389 -35.815002 2.335116
-6.175476 231.458389 -35.815002 1.724728
7.307800 231.458389 -35.815002 1.176998
20.791107 231.458389 -35.815002 0.427827
34.274414 231.458389 -35.815002 -0.077698
47.757721 231.458389 -35.815002 -0.851682
61.240997 231.458389 -35.815002 -1.305616
74.724304 231.458389 -35.815002 -1.460991
88.207611 231.458389 -35.815002 -1.357883
101.690918 231.458389 -35.815002 -0.991295
115.174225 231.458389 -35.815002 -0.609663
128.657501 231.458389 -35.815002 -0.394474
142.140808 231.458389 -35.815002 0.066663
155.624115 231.458389 -35.815002 0.257894
169.107422 231.458389 -35.815002 0.282148
182.590698 231.458389 -35.815002 0.292795
196.074036 231.458389 -35.815002 0.393706
209.557312 231.458389 -35.815002 0.390518
223.040588 231.458389 -35.815002 0.213254
236.523926 231.458389 -35.815002 0.104937
250.007202 231.458389 -35.815002 0.007945
263.490540 231.458389 -35.815002 0.008307
276.973816 231.458389 -35.815002 0.025298
290.457092 231.458389 -35.815002 -0.016633
303.940430 231.458389 -35.815002 -0.029723
317.423706 231.458389 -35.815002 -0.023911
330.907043 231.458389 -35.815002 0.000000
344.390320 231.458389 -35.815002 0.000000
-343.257996 217.975098 -35.815002 0.000000
-329.774689 217.975098 -35.815002 0.000000
-316.291382 217.975098 -35.815002 -0.006135
-302.808105 217.975098 -35.815002 -0.017552
-289.324799 217.975098 -35.815002 -0.054571
-275.841492 217.975098 -35.815002 -0.089542
-262.358185 217.975098 -35.815002 -0.123647
-248.874893 217.975098 -35.815002 -0.191780
-235.391602 217.975098 -35.815002 -0.182103
-221.908295 217.975098 -35.815002 -0.195071
-208.424988 217.975098 -35.815002 -0.245391
-194.941696 217.975098 -35.815002 -0.448274
-181.458389 217.975098 -35.815002 -0.515615
-167.975098 217.975098 -35.815002 -0.681473
-154.491791 217.975098 -35.815002 -0.688984
-141.008499 217.975098 -35.815002 -0.745694
-127.525192 217.975098 -35.815002 -0.613645
-114.041885 217.975098 -35.815002 -0.273719
-100.558594 217.975098 -35.815002 -0.240858
-87.075287 217.975098 -35.815002 0.109608
-73.591980 217.975098 -35.815002 0.341259
-60.108704 217.975098 -35.815002 0.799469
-46.625397 217.975098 -35.815002 1.526242
-33.142090 217.975098 -35.815002 1.673652
-19.658783 217.975098 -35.815002 1.770902
-6.175476 217.975098 -35.815002 1.923140
7.307800 217.975098 -35.815002 1.413035
20.791107 217.975098 -35.815002 0.329709
34.274414 217.975098 -35.815002 -0.518838
47.757721 217.975098 -35.815002 -1.181677
61.240997 217.975098 -35.815002 -1.800066
74.724304 217.975098 -35.815002 -2.085204
88.207611 217.975098 -35.815002 -1.498983
101.690918 217.975098 -35.815002 -1.149745
115.174225 217.975098 -35.815002 -0.761912
128.657501 217.975098 -35.815002 -0.380168
142.140808 217.975098 -35.815002 -0.015637
155.624115 217.975098 -35.815002 0.228148
169.107422 217.975098 -35.815002 0.263565
182.590698 217.975098 -35.815002 0.333394
196.074036 217.975098 -35.815002 0.273122
209.557312 217.975098 -35.815002 0.240433
223.040588 217.975098 -35.815002 0.151396
236.523926 217.975098 -35.815002 0.049984
250.007202 217.975098 -35.815002 -0.059801
263.490540 217.975098 -35.815002 -0.044555
276.973816 217.975098 -35.815002 -0.072829
290.457092 217.975098 -35.815002 -0.058488
303.940430 217.975098 -35.815002 -0.035745
317.423706 217.975098 -35.815002 -0.027370
330.907043 217.975098 -35.815002 0.000000
344.390320 217.975098 -35.815002 0.000000
-343.257996 204.491791 -35.815002 0.000000
-329.774689 204.491791 -35.815002 0.000000
-316.291382 204.491791 -35.815002 -0.049163
-302.808105 204.491791 -35.815002 -0.062346
-289.324799 204.491791 -35.815002 -0.086991
-275.841492 204.491791 -35.815002 -0.087309
-262.358185 204.491791 -35.815002 -0.137781
-248.874893 204.491791 -35.815002 -0.184393
-235.391602 204.491791 -35.815002 -0.206798
-221.908295 204.491791 -35.815002 -0.217484
-208.424988 204.491791 -35.815002 -0.264807
-194.941696 204.491791 -35.815002 -0.492691
-181.458389 204.491791 -35.815002 -0.530523
-167.975098 204.491791 -35.815002 -0.666745
-154.491791 204.491791 -35.815002 -0.675606
-141.008499 204.491791 -35.815002 -0.732372
-127.525192 204.491791 -35.815002 -0.526677
-114.041885 204.491791 -35.815002 -0.329257
-100.558594 204.491791 -35.815002 -0.175285
-87.075287 204.491791 -35.815002 0.053026
-73.591980 204.491791 -35.815002 0.345868
-60.108704 204.491791 -35.815002 0.678486
-46.625397 204.491791 -35.815002 1.607112
-33.142090 204.491791 -35.815002 1.907415
-19.658783 204.491791 -35.815002 1.676466
-6.175476 204.491791 -35.815002 1.167215
7.307800 204.491791 -35.815002 0.544609
20.791107 204.491791 -35.815002 -0.218656
34.274414 204.491791 -35.815002 -1.012116
47.757721 204.491791 -35.815002 -1.600438
61.240997 204.491791 -35.815002 -2.338884
74.724304 204.491791 -35.815002 -1.903474
88.207611 204.491791 -35.815002 -1.442875
101.690918 204.491791 -35.815002 -1.024115
115.174225 204.491791 -35.815002 -0.746754
128.657501 204.491791 -35.815002 -0.486343
142.140808 204.491791 -35.815002 0.112894
155.624115 204.491791 -35.815002 0.108721
169.107422 204.491791 -35.815002 0.186678
182.590698 204.491791 -35.815002 0.181332
196.074036 204.491791 -35.815002 0.079404
209.557312 204.491791 -35.815002 0.061321
223.040588 204.491791 -35.815002 -0.043099
236.523926 204.491791 -35.815002 -0.086181
250.007202 204.491791 -35.815002 -0.142431
263.490540 204.491791 -35.815002 -0.124902
276.973816 204.491791 -35.815002 -0.133675
290.457092 204.491791 -35.815002 -0.086114
303.940430 204.491791 -35.815002 -0.057263
317.423706 204.491791 -35.815002 -0.056626
330.907043 204.491791 -35.815002 0.000000
344.390320 204.491791 -35.815002 0.000000
-343.257996 191.008499 -35.815002 0.000000
-329.774689 191.008499 -35.815002 0.000000
-316.291382 191.008499 -35.815002 -0.035888
-302.808105 191.008499 -35.815002 -0.087509
-289.324799 191.008499 -35.815002 -0.097722
-275.841492 191.008499 -35.815002 -0.052264
-262.358185 191.008499 -35.815002 -0.128033
-248.874893 191.008499 -35.815002 -0.149604
-235.391602 191.008499 -35.815002 -0.289630
-221.908295 191.008499 -35.815002 -0.326606
-208.424988 191.008499 -35.815002 -0.366639
-194.941696 191.008499 -35.815002 -0.535684
-181.458389 191.008499 -35.815002 -0.517042
-167.975098 191.008499 -35.815002 -0.548290
-154.491791 191.008499 -35.815002 -0.448701
-141.008499 191.008499 -35.815002 -0.576766
-127.525192 191.008499 -35.815002 -0.483663
-114.041885 191.008499 -35.815002 -0.424983
-100.558594 191.008499 -35.815002 -0.349680
-87.075287 191.008499 -35.815002 -0.064017
-73.591980 191.008499 -35.815002 0.280322
-60.108704 191.008499 -35.815002 0.776663
-46.625397 191.008499 -35.815002 1.400728
-33.142090 191.008499 -35.815002 1.654408
-19.658783 191.008499 -35.815002 1.397987
-6.175476 191.008499 -35.815002 0.950539
7.307800 191.008499 -35.815002 -0.174484
20.791107 191.008499 -35.815002 -0.680719
34.274414 191.008499 -35.815002 -1.316827
47.757721 191.008499 -35.815002 -2.060989
61.240997 191.008499 -35.815002 -2.165582
74.724304 191.008499 -35.815002 -1.885011
88.207611 191.008499 -35.815002 -1.278337
101.690918 191.008499 -35.815002 -0.987733
115.174225 191.008499 -35.815002 -0.532651
128.657501 191.008499 -35.815002 -0.357270
142.140808 191.008499 -35.815002 -0.062002
155.624115 191.008499 -35.815002 0.032165
169.107422 191.008499 -35.815002 0.105320
182.590698 191.008499 -35.815002 0.041777
196.074036 191.008499 -35.815002 0.049035
209.557312 191.008499 -35.815002 0.065335
223.040588 191.008499 -35.815002 -0.012514
236.523926 191.008499 -35.815002 -0.094675
250.007202 191.008499 -35.815002 -0.128420
263.490540 191.008499 -35.815002 -0.124987
276.973816 191.008499 -35.815002 -0.122391
290.457092 191.008499 -35.815002 -0.089749
303.940430 191.008499 -35.815002 -0.054520
317.423706 191.008499 -35.815002 -0.050234
330.907043 191.008499 -35.815002 0.000000
344.390320 191.008499 -35.815002 0.000000
-343.257996 177.525192 -35.815002 0.000000
-329.774689 177.525192 -35.815002 0.000000
-316.291382 177.525192 -35.815002 -0.028908
-302.808105 177.525192 -35.815002 -0.053952
-289.324799 177.525192 -35.815002 -0.081199
-275.841492 177.525192 -35.815002 -0.047697
-262.358185 177.525192 -35.815002 -0.028448
-248.874893 177.525192 -35.815002 -0.096907
-235.391602 177.525192 -35.815002 -0.323009
-221.908295 177.525192 -35.815002 -0.322869
-208.424988 177.525192 -35.815002 -0.430583
-194.941696 177.525192 -35.815002 -0.581088
-181.458389 177.525192 -35.815002 -0.552965
-167.975098 177.525192 -35.815002 -0.462166
-154.491791 177.525192 -35.815002 -0.554534
-141.008499 177.525192 -35.815002 -0.545554
-127.525192 177.525192 -35.815002 -0.488992
-114.041885 177.525192 -35.815002 -0.383602
-100.558594 177.525192 -35.815002 -0.337672
-87.075287 177.525192 -35.815002 -0.019562
-73.591980 177.525192 -35.815002 0.496659
-60.108704 177.525192 -35.815002 0.928450
-46.625397 177.525192 -35.815002 1.374154
-33.142090 177.525192 -35.815002 1.557552
-19.658783 177.525192 -35.815002 1.352571
-6.175476 177.525192 -35.815002 0.650287
7.307800 177.525192 -35.815002 -0.419956
20.791107 177.525192 -35.815002 -1.265867
34.274414 177.525192 -35.815002 -1.661485
47.757721 177.525192 -35.815002 -2.143180
61.240997 177.525192 -35.815002 -1.951232
74.724304 177.525192 -35.815002 -1.612308
88.207611 177.525192 -35.815002 -1.087915
101.690918 177.525192 -35.815002 -0.587434
115.174225 177.525192 -35.815002 -0.275922
128.657501 177.525192 -35.815002 -0.294842
142.140808 177.525192 -35.815002 -0.139838
155.624115 177.525192 -35.815002 -0.024136
169.107422 177.525192 -35.815002 -0.023086
182.590698 177.525192 -35.815002 -0.046161
196.074036 177.525192 -35.815002 0.012698
209.557312 177.525192 -35.815002 -0.017804
223.040588 177.525192 -35.815002 -0.070019
236.523926 177.525192 -35.815002 -0.099331
250.007202 177.525192 -35.815002 -0.118755
263.490540 177.525192 -35.815002 -0.119650
276.973816 177.525192 -35.815002 -0.095107
290.457092 177.525192 -35.815002 -0.071789
303.940430 177.525192 -35.815002 -0.050767
317.423706 177.525192 -35.815002 -0.052967
330.907043 177.525192 -35.815002 0.000000
344.390320 177.525192 -35.815002 0.000000
-343.257996 164.041885 -35.815002 0.000000
-329.774689 164.041885 -35.815002 0.000000
-316.291382 164.041885 -35.815002 -0.039883
-302.808105 164.041885 -35.815002 -0.008223
-289.324799 164.041885 -35.815002 -0.010912
-275.841492 164.041885 -35.815002 0.004693
-262.358185 164.041885 -35.815002 0.014538
-248.874893 164.041885 -35.815002 -0.042180
-235.391602 164.041885 -35.815002 -0.157431
-221.908295 164.041885 -35.815002 -0.324481
-208.424988 164.041885 -35.815002 -0.421607
-194.941696 164.041885 -35.815002 -0.584821
-181.458389 164.041885 -35.815002 -0.628812
-167.975098 164.041885 -35.815002 -0.609094
-154.491791 164.041885 -35.815002 -0.701969
-141.008499 164.041885 -35.815002 -0.630586
-127.525192 164.041885 -35.815002 -0.471378
-114.041885 164.041885 -35.815002 -0.366486
-100.558594 164.041885 -35.815002 -0.148445
-87.075287 164.041885 -35.815002 -0.153517
-73.591980 164.041885 -35.815002 0.296976
-60.108704 164.041885 -35.815002 0.721809
-46.625397 164.041885 -35.815002 1.188112
-33.142090 164.041885 -35.815002 1.211548
-19.658783 164.041885 -35.815002 1.066561
-6.175476 164.041885 -35.815002 0.402077
7.307800 164.041885 -35.815002 -0.528824
20.791107 164.041885 -35.815002 -1.145450
34.274414 164.041885 -35.815002 -1.622332
47.757721 164.041885 -35.815002 -2.115302
61.240997 164.041885 -35.815002 -1.812961
74.724304 164.041885 -35.815002 -1.360177
88.207611 164.041885 -35.815002 -0.804022
101.690918 164.041885 -35.815002 -0.403930
115.174225 164.041885 -35.815002 -0.123866
128.657501 164.041885 -35.815002 -0.178090
142.140808 164.041885 -35.815002 -0.084212
155.624115 164.041885 -35.815002 -0.024044
169.107422 164.041885 -35.815002 -0.011748
182.590698 164.041885 -35.815002 -0.052517
196.074036 164.041885 -35.815002 -0.042748
209.557312 164.041885 -35.815002 -0.060993
223.040588 164.041885 -35.815002 -0.130602
236.523926 164.041885 -35.815002 -0.113057
250.007202 164.041885 -35.815002 -0.121588
263.490540 164.041885 -35.815002 -0.090393
276.973816 164.041885 -35.815002 -0.087793
290.457092 164.041885 -35.815002 -0.068297
303.940430 164.041885 -35.815002 -0.046166
317.423706 164.041885 -35.815002 -0.033929
330.907043 164.041885 -35.815002 0.000000
344.390320 164.041885 -35.815002 0.000000
-343.257996 150.558594 -35.815002 0.000000
-329.774689 150.558594 -35.815002 0.000000
-316.291382 150.558594 -35.815002 0.006012
-302.808105 150.558594 -35.815002 0.067583
-289.324799 150.558594 -35.815002 0.093649
-275.841492 150.558594 -35.815002 0.074204
-262.358185 150.558594 -35.815002 0.083507
-248.874893 150.558594 -35.815002 -0.061554
-235.391602 150.558594 -35.815002 -0.087108
-221.908295 150.558594 -35.815002 -0.222632
-208.424988 150.558594 -35.815002 -0.406213
-194.941696 150.558594 -35.815002 -0.639417
-181.458389 150.558594 -35.815002 -0.768284
-167.975098 150.558594 -35.815002 -0.713080
-154.491791 150.558594 -35.815002 -0.829639
-141.008499 150.558594 -35.815002 -0.819601
-127.525192 150.558594 -35.815002 -0.566266
-114.041885 150.558594 -35.815002 -0.393345
-100.558594 150.558594 -35.815002 -0.203819
-87.075287 150.558594 -35.815002 0.151647
-73.591980 150.558594 -35.815002 0.566945
-60.108704 150.558594 -35.815002 0.834550
-46.625397 150.558594 -35.815002 1.439089
-33.142090 150.558594 -35.815002 1.279108
-19.658783 150.558594 -35.815002 0.908848
-6.175476 150.558594 -35.815002 0.347313
7.307800 150.558594 -35.815002 -0.289379
20.791107 150.558594 -35.815002 -1.145628
34.274414 150.558594 -35.815002 -1.497909
47.757721 150.558594 -35.815002 -1.848517
61.240997 150.558594 -35.815002 -1.732210
74.724304 150.558594 -35.815002 -1.432516
88.207611 150.558594 -35.815002 -0.581099
101.690918 150.558594 -35.815002 -0.273030
115.174225 150.558594 -35.815002 -0.080476
128.657501 150.558594 -35.815002 0.006940
142.140808 150.558594 -35.815002 0.060082
155.624115 150.558594 -35.815002 0.046971
169.107422 150.558594 -35.815002 0.013537
182.590698 150.558594 -35.815002 -0.024644
196.074036 150.558594 -35.815002 -0.064717
209.557312 150.558594 -35.815002 -0.080281
223.040588 150.558594 -35.815002 -0.092367
236.523926 150.558594 -35.815002 -0.098865
250.007202 150.558594 -35.815002 -0.078044
263.490540 150.558594 -35.815002 -0.072449
276.973816 150.558594 -35.815002 -0.062160
290.457092 150.558594 -35.815002 -0.059570
303.940430 150.558594 -35.815002 -0.046187
317.423706 150.558594 -35.815002 -0.041402
330.907043 150.558594 -35.815002 0.000000
344.390320 150.558594 -35.815002 0.000000
-343.257996 137.075287 -35.815002 0.000000
-329.774689 137.075287 -35.815002 0.000000
-316.291382 137.075287 -35.815002 0.000000
-302.808105 137.075287 -35.815002 0.129589
-289.324799 137.075287 -35.815002 0.067383
-275.841492 137.075287 -35.815002 0.128622
-262.358185 137.075287 -35.815002 0.204762
-248.874893 137.075287 -35.815002 0.054050
-235.391602 137.075287 -35.815002 -0.063914
-221.908295 137.075287 -35.815002 -0.220883
-208.424988 137.075287 -35.815002 -0.382410
-194.941696 137.075287 -35.815002 -0.461337
-181.458389 137.075287 -35.815002 -0.778130
-167.975098 137.075287 -35.815002 -0.777422
-154.491791 137.075287 -35.815002 -0.816815
-141.008499 137.075287 -35.815002 -0.819637
-127.525192 137.075287 -35.815002 -0.785082
-114.041885 137.075287 -35.815002 -0.365676
-100.558594 137.075287 -35.815002 -0.159394
-87.075287 137.075287 -35.815002 0.305946
-73.591980 137.075287 -35.815002 1.023486
-60.108704 137.075287 -35.815002 1.403896
-46.625397 137.075287 -35.815002 1.475671
-33.142090 137.075287 -35.815002 1.248043
-19.658783 137.075287 -35.815002 0.928494
-6.175476 137.075287 -35.815002 0.104255
7.307800 137.075287 -35.815002 -0.276292
20.791107 137.075287 -35.815002 -1.078450
34.274414 137.075287 -35.815002 -1.831417
47.757721 137.075287 -35.815002 -2.112532
61.240997 137.075287 -35.815002 -1.698124
74.724304 137.075287 -35.815002 -1.139992
88.207611 137.075287 -35.815002 -0.359489
101.690918 137.075287 -35.815002 -0.092422
115.174225 137.075287 -35.815002 0.125222
128.657501 137.075287 -35.815002 0.147573
142.140808 137.075287 -35.815002 0.124482
155.624115 137.075287 -35.815002 0.041910
169.107422 137.075287 -35.815002 0.031795
182.590698 137.075287 -35.815002 -0.011327
196.074036 137.075287 -35.815002 -0.060857
209.557312 137.075287 -35.815002 -0.062767
223.040588 137.075287 -35.815002 -0.053381
236.523926 137.075287 -35.815002 -0.066628
250.007202 137.075287 -35.815002 -0.053838
263.490540 137.075287 -35.815002 -0.052470
276.973816 137.075287 -35.815002 -0.043890
290.457092 137.075287 -35.815002 -0.042224
303.940430 137.075287 -35.815002 -0.041482
317.423706 137.075287 -35.815002 -0.030661
330.907043 137.075287 -35.815002 0.000000
344.390320 137.075287 -35.815002 0.000000
-343.257996 123.591980 -35.815002 0.000000
-329.774689 123.591980 -35.815002 0.000000
-316.291382 123.591980 -35.815002 0.000000
-302.808105 123.591980 -35.815002 0.125551
-289.324799 123.591980 -35.815002 0.171770
-275.841492 123.591980 -35.815002 0.126185
-262.358185 123.591980 -35.815002 0.149199
-248.874893 123.591980 -35.815002 0.165732
-235.391602 123.591980 -35.815002 -0.038625
-221.908295 123.591980 -35.815002 -0.269159
-208.424988 123.591980 -35.815002 -0.275984
-194.941696 123.591980 -35.815002 -0.548033
-181.458389 123.591980 -35.815002 -0.789041
-167.975098 123.591980 -35.815002 -0.838266
-154.491791 123.591980 -35.815002 -0.813013
-141.008499 123.591980 -35.815002 -0.794083
-127.525192 123.591980 -35.815002 -0.647581
-114.041885 123.591980 -35.815002 -0.264208
-100.558594 123.591980 -35.815002 0.298667
-87.075287 123.591980 -35.815002 0.789905
-73.591980 123.591980 -35.815002 1.437020
-60.108704 123.591980 -35.815002 1.862202
-46.625397 123.591980 -35.815002 1.646678
-33.142090 123.591980 -35.815002 1.240598
-19.658783 123.591980 -35.815002 0.835192
-6.175476 123.591980 -35.815002 0.167788
7.307800 123.591980 -35.815002 -0.283041
20.791107 123.591980 -35.815002 -1.166889
34.274414 123.591980 -35.815002 -1.776743
47.757721 123.591980 -35.815002 -1.673313
61.240997 123.591980 -35.815002 -1.803440
74.724304 123.591980 -35.815002 -1.123680
88.207611 123.591980 -35.815002 -0.248795
101.690918 123.591980 -35.815002 0.198802
115.174225 123.591980 -35.815002 0.299448
128.657501 123.591980 -35.815002 0.223821
142.140808 123.591980 -35.815002 0.199689
155.624115 123.591980 -35.815002 0.074085
169.107422 123.591980 -35.815002 0.054719
182.590698 123.591980 -35.815002 -0.008034
196.074036 123.591980 -35.815002 -0.018577
209.557312 123.591980 -35.815002 -0.033945
223.040588 123.591980 -35.815002 -0.031915
236.523926 123.591980 -35.815002 -0.050183
250.007202 123.591980 -35.815002 -0.049249
263.490540 123.591980 -35.815002 -0.040588
276.973816 123.591980 -35.815002 -0.032933
290.457092 123.591980 -35.815002 -0.037389
303.940430 123.591980 -35.815002 -0.020807
317.423706 123.591980 -35.815002 -0.029949
330.907043 123.591980 -35.815002 0.000000
344.390320 123.591980 -35.815002 0.000000
-343.257996 110.108704 -35.815002 0.000000
-329.774689 110.108704 -35.815002 0.000000
-316.291382 110.108704 -35.815002 0.000000
-302.808105 110.108704 -35.815002 0.284961
-289.324799 110.108704 -35.815002 0.284676
-275.841492 110.108704 -35.815002 0.273892
-262.358185 110.108704 -35.815002 0.114657
-248.874893 110.108704 -35.815002 0.110781
-235.391602 110.108704 -35.815002 0.092481
-221.908295 110.108704 -35.815002 -0.070450
-208.424988 110.108704 -35.815002 -0.243963
-194.941696 110.108704 -35.815002 -0.673948
-181.458389 110.108704 -35.815002 -0.953424
-167.975098 110.108704 -35.815002 -0.952143
-154.491791 110.108704 -35.815002 -1.059991
-141.008499 110.108704 -35.815002 -0.780997
-127.525192 110.108704 -35.815002 -0.509905
-114.041885 110.108704 -35.815002 0.023061
-100.558594 110.108704 -35.815002 0.558851
-87.075287 110.108704 -35.815002 1.099552
-73.591980 110.108704 -35.815002 1.782991
-60.108704 110.108704 -35.815002 1.974958
-46.625397 110.108704 -35.815002 1.982382
-33.142090 110.108704 -35.815002 1.659642
-19.658783 110.108704 -35.815002 1.226450
-6.175476 110.108704 -35.815002 0.668658
7.307800 110.108704 -35.815002 -0.123338
20.791107 110.108704 -35.815002 -0.918511
34.274414 110.108704 -35.815002 -1.824818
47.757721 110.108704 -35.815002 -1.791481
61.240997 110.108704 -35.815002 -1.229193
74.724304 110.108704 -35.815002 -0.785647
88.207611 110.108704 -35.815002 -0.154679
101.690918 110.108704 -35.815002 0.280852
115.174225 110.108704 -35.815002 0.518312
128.657501 110.108704 -35.815002 0.376162
142.140808 110.108704 -35.815002 0.353892
155.624115 110.108704 -35.815002 0.223707
169.107422 110.108704 -35.815002 0.111378
182.590698 110.108704 -35.815002 0.047469
196.074036 110.108704 -35.815002 0.029764
209.557312 110.108704 -35.815002 -0.042748
223.040588 110.108704 -35.815002 -0.055137
236.523926 110.108704 -35.815002 -0.062473
250.007202 110.108704 -35.815002 -0.037543
263.490540 110.108704 -35.815002 -0.024614
276.973816 110.108704 -35.815002 -0.023828
290.457092 110.108704 -35.815002 -0.021446
303.940430 110.108704 -35.815002 -0.025725
317.423706 110.108704 -35.815002 -0.025356
330.907043 110.108704 -35.815002 0.000000
344.390320 110.108704 -35.815002 0.000000
-343.257996 96.625397 -35.815002 0.000000
-329.774689 96.625397 -35.815002 0.000000
-316.291382 96.625397 -35.815002 0.000000
-302.808105 96.625397 -35.815002 0.215503
-289.324799 96.625397 -35.815002 0.180523
-275.841492 96.625397 -35.815002 0.218965
-262.358185 96.625397 -35.815002 0.140229
-248.874893 96.625397 -35.815002 0.178448
-235.391602 96.625397 -35.815002 -0.048082
-221.908295 96.625397 -35.815002 -0.088108
-208.424988 96.625397 -35.815002 -0.208526
-194.941696 96.625397 -35.815002 -0.719421
-181.458389 96.625397 -35.815002 -0.709291
-167.975098 96.625397 -35.815002 -0.810361
-154.491791 96.625397 -35.815002 -0.873173
-141.008499 96.625397 -35.815002 -0.633838
-127.525192 96.625397 -35.815002 -0.090359
-114.041885 96.625397 -35.815002 0.297621
-100.558594 96.625397 -35.815002 0.633828
-87.075287 96.625397 -35.815002 1.039194
-73.591980 96.625397 -35.815002 1.592521
-60.108704 96.625397 -35.815002 2.196065
-46.625397 96.625397 -35.815002 1.820118
-33.142090 96.625397 -35.815002 1.389588
-19.658783 96.625397 -35.815002 1.162622
-6.175476 96.625397 -35.815002 0.787902
7.307800 96.625397 -35.815002 0.024797
20.791107 96.625397 -35.815002 -0.856293
34.274414 96.625397 -35.815002 -1.478566
47.757721 96.625397 -35.815002 -1.360800
61.240997 96.625397 -35.815002 -1.287785
74.724304 96.625397 -35.815002 -0.588405
88.207611 96.625397 -35.815002 -0.255729
101.690918 96.625397 -35.815002 0.077656
115.174225 96.625397 -35.815002 0.453514
128.657501 96.625397 -35.815002 0.582702
142.140808 96.625397 -35.815002 0.528594
155.624115 96.625397 -35.815002 0.388322
169.107422 96.625397 -35.815002 0.237042
182.590698 96.625397 -35.815002 0.117130
196.074036 96.625397 -35.815002 0.114501
209.557312 96.625397 -35.815002 0.027293
223.040588 96.625397 -35.815002 -0.073238
236.523926 96.625397 -35.815002 -0.043155
250.007202 96.625397 -35.815002 -0.026834
263.490540 96.625397 -35.815002 -0.012723
276.973816 96.625397 -35.815002 -0.010082
290.457092 96.625397 -35.815002 -0.010633
303.940430 96.625397 -35.815002 -0.017894
317.423706 96.625397 -35.815002 -0.023456
330.907043 96.625397 -35.815002 0.000000
344.390320 96.625397 -35.815002 0.000000
-343.257996 83.142090 -35.815002 0.000000
-329.774689 83.142090 -35.815002 0.000000
-316.291382 83.142090 -35.815002 0.000000
-302.808105 83.142090 -35.815002 0.000000
-289.324799 83.142090 -35.815002 0.128608
-275.841492 83.142090 -35.815002 0.096404
-262.358185 83.142090 -35.815002 0.154768
-248.874893 83.142090 -35.815002 0.116632
-235.391602 83.142090 -35.815002 0.020584
-221.908295 83.142090 -35.815002 -0.110819
-208.424988 83.142090 -35.815002 -0.230949
-194.941696 83.142090 -35.815002 -0.515438
-181.458389 83.142090 -35.815002 -0.692706
-167.975098 83.142090 -35.815002 -0.582983
-154.491791 83.142090 -35.815002 -0.545318
-141.008499 83.142090 -35.815002 -0.321081
-127.525192 83.142090 -35.815002 0.046474
-114.041885 83.142090 -35.815002 0.422861
-100.558594 83.142090 -35.815002 0.889216
-87.075287 83.142090 -35.815002 1.280406
-73.591980 83.142090 -35.815002 1.552432
-60.108704 83.142090 -35.815002 1.977491
-46.625397 83.142090 -35.815002 1.470890
-33.142090 83.142090 -35.815002 1.293425
-19.658783 83.142090 -35.815002 0.873726
-6.175476 83.142090 -35.815002 0.286444
7.307800 83.142090 -35.815002 -0.128636
20.791107 83.142090 -35.815002 -0.852931
34.274414 83.142090 -35.815002 -1.295689
47.757721 83.142090 -35.815002 -1.079370
61.240997 83.142090 -35.815002 -1.094791
74.724304 83.142090 -35.815002 -0.523850
88.207611 83.142090 -35.815002 -0.070151
101.690918 83.142090 -35.815002 0.003370
115.174225 83.142090 -35.815002 0.368962
128.657501 83.142090 -35.815002 0.397916
142.140808 83.142090 -35.815002 0.529890
155.624115 83.142090 -35.815002 0.518781
169.107422 83.142090 -35.815002 0.404704
182.590698 83.142090 -35.815002 0.331071
196.074036 83.142090 -35.815002 0.229595
209.557312 83.142090 -35.815002 0.081186
223.040588 83.142090 -35.815002 0.015419
236.523926 83.142090 -35.815002 -0.013189
250.007202 83.142090 -35.815002 -0.006229
263.490540 83.142090 -35.815002 -0.006117
276.973816 83.142090 -35.815002 -0.009740
290.457092 83.142090 -35.815002 -0.009594
303.940430 83.142090 -35.815002 -0.010274
317.423706 83.142090 -35.815002 -0.009068
330.907043 83.142090 -35.815002 0.000000
344.390320 83.142090 -35.815002 0.000000
-343.257996 69.658783 -35.815002 0.000000
-329.774689 69.658783 -35.815002 0.000000
-316.291382 69.658783 -35.815002 0.000000
-302.808105 69.658783 -35.815002 0.000000
-289.324799 69.658783 -35.815002 0.117095
-275.841492 69.658783 -35.815002 0.167457
-262.358185 69.658783 -35.815002 0.134653
-248.874893 69.658783 -35.815002 0.133274
-235.391602 69.658783 -35.815002 -0.049053
-221.908295 69.658783 -35.815002 -0.003427
-208.424988 69.658783 -35.815002 -0.155218
-194.941696 69.658783 -35.815002 -0.162721
-181.458389 69.658783 -35.815002 -0.492877
-167.975098 69.658783 -35.815002 -0.454709
-154.491791 69.658783 -35.815002 -0.496805
-141.008499 69.658783 -35.815002 -0.218700
-127.525192 69.658783 -35.815002 -0.007253
-114.041885 69.658783 -35.815002 0.116597
-100.558594 69.658783 -35.815002 0.801351
-87.075287 69.658783 -35.815002 1.266045
-73.591980 69.658783 -35.815002 1.629227
-60.108704 69.658783 -35.815002 1.800857
-46.625397 69.658783 -35.815002 1.088817
-33.142090 69.658783 -35.815002 0.762692
-19.658783 69.658783 -35.815002 0.649420
-6.175476 69.658783 -35.815002 0.571080
7.307800 69.658783 -35.815002 -0.065536
20.791107 69.658783 -35.815002 -0.615490
34.274414 69.658783 -35.815002 -0.997519
47.757721 69.658783 -35.815002 -1.095076
61.240997 69.658783 -35.815002 -1.030386
74.724304 69.658783 -35.815002 -0.557402
88.207611 69.658783 -35.815002 -0.212409
101.690918 69.658783 -35.815002 -0.082377
115.174225 69.658783 -35.815002 0.272943
128.657501 69.658783 -35.815002 0.238496
142.140808 69.658783 -35.815002 0.477505
155.624115 69.658783 -35.815002 0.472967
169.107422 69.658783 -35.815002 0.604243
182.590698 69.658783 -35.815002 0.550999
196.074036 69.658783 -35.815002 0.404054
209.557312 69.658783 -35.815002 0.223838
223.040588 69.658783 -35.815002 0.071676
236.523926 69.658783 -35.815002 0.035308
250.007202 69.658783 -35.815002 0.028806
263.490540 69.658783 -35.815002 0.025866
276.973816 69.658783 -35.815002 0.004989
290.457092 69.658783 -35.815002 0.000579
303.940430 69.658783 -35.815002 -0.012613
317.423706 69.658783 -35.815002 -0.011708
330.907043 69.658783 -35.815002 0.000000
344.390320 69.658783 -35.815002 0.000000
-343.257996 56.175476 -35.815002 0.000000
-329.774689 56.175476 -35.815002 0.000000
-316.291382 56.175476 -35.815002 0.000000
-302.808105 56.175476 -35.815002 0.162448
-289.324799 56.175476 -35.815002 0.119289
-275.841492 56.175476 -35.815002 0.164045
-262.358185 56.175476 -35.815002 0.186820
-248.874893 56.175476 -35.815002 0.095388
-235.391602 56.175476 -35.815002 -0.020483
-221.908295 56.175476 -35.815002 -0.051523
-208.424988 56.175476 -35.815002 -0.245377
-194.941696 56.175476 -35.815002 -0.163281
-181.458389 56.175476 -35.815002 -0.240273
-167.975098 56.175476 -35.815002 -0.305183
-154.491791 56.175476 -35.815002 0.027735
-141.008499 56.175476 -35.815002 0.010362
-127.525192 56.175476 -35.815002 0.227231
-114.041885 56.175476 -35.815002 0.206024
-100.558594 56.175476 -35.815002 0.875315
-87.075287 56.175476 -35.815002 1.619256
-73.591980 56.175476 -35.815002 1.404512
-60.108704 56.175476 -35.815002 1.335080
-46.625397 56.175476 -35.815002 1.199267
-33.142090 56.175476 -35.815002 0.966088
-19.658783 56.175476 -35.815002 0.609007
-6.175476 56.175476 -35.815002 0.511862
7.307800 56.175476 -35.815002 0.016720
20.791107 56.175476 -35.815002 -0.664580
34.274414 56.175476 -35.815002 -1.175196
47.757721 56.175476 -35.815002 -1.387690
61.240997 56.175476 -35.815002 -0.940817
74.724304 56.175476 -35.815002 -0.635360
88.207611 56.175476 -35.815002 -0.206976
101.690918 56.175476 -35.815002 -0.077168
115.174225 56.175476 -35.815002 0.175108
128.657501 56.175476 -35.815002 0.246184
142.140808 56.175476 -35.815002 0.504894
155.624115 56.175476 -35.815002 0.444873
169.107422 56.175476 -35.815002 0.589005
182.590698 56.175476 -35.815002 0.640742
196.074036 56.175476 -35.815002 0.484706
209.557312 56.175476 -35.815002 0.356865
223.040588 56.175476 -35.815002 0.258740
236.523926 56.175476 -35.815002 0.096250
250.007202 56.175476 -35.815002 0.088933
263.490540 56.175476 -35.815002 0.055324
276.973816 56.175476 -35.815002 0.032441
290.457092 56.175476 -35.815002 0.015868
303.940430 56.175476 -35.815002 -0.000722
317.423706 56.175476 -35.815002 -0.015666
330.907043 56.175476 -35.815002 0.000000
344.390320 56.175476 -35.815002 0.000000
-343.257996 42.692200 -35.815002 0.000000
-329.774689 42.692200 -35.815002 0.000000
-316.291382 42.692200 -35.815002 0.000000
-302.808105 42.692200 -35.815002 0.100609
-289.324799 42.692200 -35.815002 0.098299
-275.841492 42.692200 -35.815002 0.168977
-262.358185 42.692200 -35.815002 0.165071
-248.874893 42.692200 -35.815002 0.117654
-235.391602 42.692200 -35.815002 0.035568
-221.908295 42.692200 -35.815002 -0.063881
-208.424988 42.692200 -35.815002 -0.151359
-194.941696 42.692200 -35.815002 -0.094451
-181.458389 42.692200 -35.815002 -0.006749
-167.975098 42.692200 -35.815002 0.128513
-154.491791 42.692200 -35.815002 -0.128016
-141.008499 42.692200 -35.815002 0.216370
-127.525192 42.692200 -35.815002 0.872459
-114.041885 42.692200 -35.815002 0.713362
-100.558594 42.692200 -35.815002 1.304745
-87.075287 42.692200 -35.815002 1.711999
-73.591980 42.692200 -35.815002 1.450026
-60.108704 42.692200 -35.815002 1.601481
-46.625397 42.692200 -35.815002 1.535966
-33.142090 42.692200 -35.815002 0.983326
-19.658783 42.692200 -35.815002 0.589782
-6.175476 42.692200 -35.815002 0.577483
7.307800 42.692200 -35.815002 0.269291
20.791107 42.692200 -35.815002 -0.428178
34.274414 42.692200 -35.815002 -1.134639
47.757721 42.692200 -35.815002 -1.425357
61.240997 42.692200 -35.815002 -1.120239
74.724304 42.692200 -35.815002 -1.033415
88.207611 42.692200 -35.815002 -0.618693
101.690918 42.692200 -35.815002 -0.254313
115.174225 42.692200 -35.815002 -0.075089
128.657501 42.692200 -35.815002 0.322160
142.140808 42.692200 -35.815002 0.406653
155.624115 42.692200 -35.815002 0.423338
169.107422 42.692200 -35.815002 0.561331
182.590698 42.692200 -35.815002 0.617653
196.074036 42.692200 -35.815002 0.524507
209.557312 42.692200 -35.815002 0.445278
223.040588 42.692200 -35.815002 0.374649
236.523926 42.692200 -35.815002 0.231132
250.007202 42.692200 -35.815002 0.154733
263.490540 42.692200 -35.815002 0.072080
276.973816 42.692200 -35.815002 0.045533
290.457092 42.692200 -35.815002 0.028462
303.940430 42.692200 -35.815002 0.004298
317.423706 42.692200 -35.815002 -0.017197
330.907043 42.692200 -35.815002 0.000000
344.390320 42.692200 -35.815002 0.000000
-343.257996 29.208893 -35.815002 0.000000
-329.774689 29.208893 -35.815002 0.000000
-316.291382 29.208893 -35.815002 0.000000
-302.808105 29.208893 -35.815002 0.129824
-289.324799 29.208893 -35.815002 0.104388
-275.841492 29.208893 -35.815002 0.133409
-262.358185 29.208893 -35.815002 0.177403
-248.874893 29.208893 -35.815002 0.181983
-235.391602 29.208893 -35.815002 0.079445
-221.908295 29.208893 -35.815002 0.116723
-208.424988 29.208893 -35.815002 0.218652
-194.941696 29.208893 -35.815002 0.039107
-181.458389 29.208893 -35.815002 0.197016
-167.975098 29.208893 -35.815002 0.087083
-154.491791 29.208893 -35.815002 -0.211925
-141.008499 29.208893 -35.815002 0.284911
-127.525192 29.208893 -35.815002 0.869426
-114.041885 29.208893 -35.815002 0.741374
-100.558594 29.208893 -35.815002 0.992796
-87.075287 29.208893 -35.815002 1.192700
-73.591980 29.208893 -35.815002 1.275137
-60.108704 29.208893 -35.815002 1.215469
-46.625397 29.208893 -35.815002 1.321522
-33.142090 29.208893 -35.815002 0.931269
-19.658783 29.208893 -35.815002 0.508904
-6.175476 29.208893 -35.815002 0.706765
7.307800 29.208893 -35.815002 0.021927
20.791107 29.208893 -35.815002 -0.510110
34.274414 29.208893 -35.815002 -1.039771
47.757721 29.208893 -35.815002 -1.309017
61.240997 29.208893 -35.815002 -1.159803
74.724304 29.208893 -35.815002 -0.856721
88.207611 29.208893 -35.815002 -0.615096
101.690918 29.208893 -35.815002 -0.288548
115.174225 29.208893 -35.815002 0.065069
128.657501 29.208893 -35.815002 0.196483
142.140808 29.208893 -35.815002 0.316212
155.624115 29.208893 -35.815002 0.352709
169.107422 29.208893 -35.815002 0.608094
182.590698 29.208893 -35.815002 0.671620
196.074036 29.208893 -35.815002 0.661001
209.557312 29.208893 -35.815002 0.655869
223.040588 29.208893 -35.815002 0.477015
236.523926 29.208893 -35.815002 0.314172
250.007202 29.208893 -35.815002 0.187321
263.490540 29.208893 -35.815002 0.113234
276.973816 29.208893 -35.815002 0.042245
290.457092 29.208893 -35.815002 0.006389
303.940430 29.208893 -35.815002 0.003663
317.423706 29.208893 -35.815002 0.008528
330.907043 29.208893 -35.815002 0.000000
344.390320 29.208893 -35.815002 0.000000
-343.257996 15.725586 -35.815002 0.000000
-329.774689 15.725586 -35.815002 0.000000
-316.291382 15.725586 -35.815002 0.174702
-302.808105 15.725586 -35.815002 0.167519
-289.324799 15.725586 -35.815002 0.191925
-275.841492 15.725586 -35.815002 0.138728
-262.358185 15.725586 -35.815002 0.226593
-248.874893 15.725586 -35.815002 0.344782
-235.391602 15.725586 -35.815002 0.280702
-221.908295 15.725586 -35.815002 0.328440
-208.424988 15.725586 -35.815002 0.439314
-194.941696 15.725586 -35.815002 0.350612
-181.458389 15.725586 -35.815002 0.284108
-167.975098 15.725586 -35.815002 0.278972
-154.491791 15.725586 -35.815002 -0.229462
-141.008499 15.725586 -35.815002 -0.201235
-127.525192 15.725586 -35.815002 0.488964
-114.041885 15.725586 -35.815002 0.794656
-100.558594 15.725586 -35.815002 1.006429
-87.075287 15.725586 -35.815002 1.038908
-73.591980 15.725586 -35.815002 0.736194
-60.108704 15.725586 -35.815002 0.695294
-46.625397 15.725586 -35.815002 1.022059
-33.142090 15.725586 -35.815002 0.779582
-19.658783 15.725586 -35.815002 0.573768
-6.175476 15.725586 -35.815002 0.399605
7.307800 15.725586 -35.815002 -0.102688
20.791107 15.725586 -35.815002 -0.573384
34.274414 15.725586 -35.815002 -1.052248
47.757721 15.725586 -35.815002 -1.154102
61.240997 15.725586 -35.815002 -1.172507
74.724304 15.725586 -35.815002 -0.929106
88.207611 15.725586 -35.815002 -0.651318
101.690918 15.725586 -35.815002 -0.427071
115.174225 15.725586 -35.815002 -0.000108
128.657501 15.725586 -35.815002 0.137730
142.140808 15.725586 -35.815002 0.318210
155.624115 15.725586 -35.815002 0.448454
169.107422 15.725586 -35.815002 0.598881
182.590698 15.725586 -35.815002 0.733823
196.074036 15.725586 -35.815002 0.734854
209.557312 15.725586 -35.815002 0.568061
223.040588 15.725586 -35.815002 0.560282
236.523926 15.725586 -35.815002 0.346068
250.007202 15.725586 -35.815002 0.252222
263.490540 15.725586 -35.815002 0.147799
276.973816 15.725586 -35.815002 0.063510
290.457092 15.725586 -35.815002 0.008600
303.940430 15.725586 -35.815002 -0.010581
317.423706 15.725586 -35.815002 -0.052480
330.907043 15.725586 -35.815002 0.000000
344.390320 15.725586 -35.815002 0.000000
-343.257996 2.242279 -35.815002 0.000000
-329.774689 2.242279 -35.815002 0.000000
-316.291382 2.242279 -35.815002 0.108767
-302.808105 2.242279 -35.815002 0.187658
-289.324799 2.242279 -35.815002 0.250315
-275.841492 2.242279 -35.815002 0.262042
-262.358185 2.242279 -35.815002 0.180235
-248.874893 2.242279 -35.815002 0.326965
-235.391602 2.242279 -35.815002 0.428416
-221.908295 2.242279 -35.815002 0.483252
-208.424988 2.242279 -35.815002 0.453476
-194.941696 2.242279 -35.815002 0.359658
-181.458389 2.242279 -35.815002 0.434287
-167.975098 2.242279 -35.815002 0.410743
-154.491791 2.242279 -35.815002 -0.070040
-141.008499 2.242279 -35.815002 0.007041
-127.525192 2.242279 -35.815002 0.277645
-114.041885 2.242279 -35.815002 0.615312
-100.558594 2.242279 -35.815002 0.643305
-87.075287 2.242279 -35.815002 0.577883
-73.591980 2.242279 -35.815002 0.147329
-60.108704 2.242279 -35.815002 0.328788
-46.625397 2.242279 -35.815002 0.514650
-33.142090 2.242279 -35.815002 0.179391
-19.658783 2.242279 -35.815002 0.123871
-6.175476 2.242279 -35.815002 -0.135523
7.307800 2.242279 -35.815002 -0.306268
20.791107 2.242279 -35.815002 -0.882443
34.274414 2.242279 -35.815002 -1.185191
47.757721 2.242279 -35.815002 -1.038773
61.240997 2.242279 -35.815002 -0.935353
74.724304 2.242279 -35.815002 -0.905876
88.207611 2.242279 -35.815002 -0.324957
101.690918 2.242279 -35.815002 -0.326677
115.174225 2.242279 -35.815002 -0.148775
128.657501 2.242279 -35.815002 0.186548
142.140808 2.242279 -35.815002 0.240610
155.624115 2.242279 -35.815002 0.526109
169.107422 2.242279 -35.815002 0.516087
182.590698 2.242279 -35.815002 0.625643
196.074036 2.242279 -35.815002 0.684465
209.557312 2.242279 -35.815002 0.594294
223.040588 2.242279 -35.815002 0.590167
236.523926 2.242279 -35.815002 0.366923
250.007202 2.242279 -35.815002 0.278071
263.490540 2.242279 -35.815002 0.171941
276.973816 2.242279 -35.815002 0.047841
290.457092 2.242279 -35.815002 0.012900
303.940430 2.242279 -35.815002 -0.023281
317.423706 2.242279 -35.815002 -0.018491
330.907043 2.242279 -35.815002 0.000000
344.390320 2.242279 -35.815002 0.000000
-343.257996 -11.240997 -35.815002 0.000000
-329.774689 -11.240997 -35.815002 0.000000
-316.291382 -11.240997 -35.815002 0.162153
-302.808105 -11.240997 -35.815002 0.263228
-289.324799 -11.240997 -35.815002 0.213535
-275.841492 -11.240997 -35.815002 0.096593
-262.358185 -11.240997 -35.815002 0.197259
-248.874893 -11.240997 -35.815002 0.458457
-235.391602 -11.240997 -35.815002 0.409867
-221.908295 -11.240997 -35.815002 0.452917
-208.424988 -11.240997 -35.815002 0.616862
-194.941696 -11.240997 -35.815002 0.492433
-181.458389 -11.240997 -35.815002 0.586438
-167.975098 -11.240997 -35.815002 0.753664
-154.491791 -11.240997 -35.815002 0.123575
-141.008499 -11.240997 -35.815002 0.330187
-127.525192 -11.240997 -35.815002 -0.108505
-114.041885 -11.240997 -35.815002 0.080482
-100.558594 -11.240997 -35.815002 0.392206
-87.075287 -11.240997 -35.815002 0.572088
-73.591980 -11.240997 -35.815002 0.465272
-60.108704 -11.240997 -35.815002 0.233030
-46.625397 -11.240997 -35.815002 0.308236
-33.142090 -11.240997 -35.815002 0.063840
-19.658783 -11.240997 -35.815002 -0.248279
-6.175476 -11.240997 -35.815002 -0.511471
7.307800 -11.240997 -35.815002 -1.121069
20.791107 -11.240997 -35.815002 -1.323797
34.274414 -11.240997 -35.815002 -1.312718
47.757721 -11.240997 -35.815002 -1.081737
61.240997 -11.240997 -35.815002 -1.038858
74.724304 -11.240997 -35.815002 -0.961892
88.207611 -11.240997 -35.815002 -0.581061
101.690918 -11.240997 -35.815002 -0.353990
115.174225 -11.240997 -35.815002 -0.128528
128.657501 -11.240997 -35.815002 -0.073654
142.140808 -11.240997 -35.815002 0.113083
155.624115 -11.240997 -35.815002 0.312033
169.107422 -11.240997 -35.815002 0.395421
182.590698 -11.240997 -35.815002 0.535494
196.074036 -11.240997 -35.815002 0.625138
209.557312 -11.240997 -35.815002 0.632934
223.040588 -11.240997 -35.815002 0.553771
236.523926 -11.240997 -35.815002 0.377460
250.007202 -11.240997 -35.815002 0.208004
263.490540 -11.240997 -35.815002 0.097128
276.973816 -11.240997 -35.815002 0.007730
290.457092 -11.240997 -35.815002 -0.049016
303.940430 -11.240997 -35.815002 -0.028659
317.423706 -11.240997 -35.815002 -0.043627
330.907043 -11.240997 -35.815002 0.000000
344.390320 -11.240997 -35.815002 0.000000
-343.257996 -24.724304 -35.815002 0.000000
-329.774689 -24.724304 -35.815002 0.000000
-316.291382 -24.724304 -35.815002 0.098334
-302.808105 -24.724304 -35.815002 0.109558
-289.324799 -24.724304 -35.815002 0.227254
-275.841492 -24.724304 -35.815002 0.189618
-262.358185 -24.724304 -35.815002 0.216300
-248.874893 -24.724304 -35.815002 0.456308
-235.391602 -24.724304 -35.815002 0.517653
-221.908295 -24.724304 -35.815002 0.581664
-208.424988 -24.724304 -35.815002 0.627410
-194.941696 -24.724304 -35.815002 0.558744
-181.458389 -24.724304 -35.815002 0.704000
-167.975098 -24.724304 -35.815002 0.414057
-154.491791 -24.724304 -35.815002 0.429043
-141.008499 -24.724304 -35.815002 0.413291
-127.525192 -24.724304 -35.815002 0.039827
-114.041885 -24.724304 -35.815002 0.264356
-100.558594 -24.724304 -35.815002 0.433810
-87.075287 -24.724304 -35.815002 0.345875
-73.591980 -24.724304 -35.815002 0.258738
-60.108704 -24.724304 -35.815002 -0.047402
-46.625397 -24.724304 -35.815002 0.095584
-33.142090 -24.724304 -35.815002 -0.540313
-19.658783 -24.724304 -35.815002 -0.711602
-6.175476 -24.724304 -35.815002 -0.891138
7.307800 -24.724304 -35.815002 -1.116931
20.791107 -24.724304 -35.815002 -1.145954
34.274414 -24.724304 -35.815002 -1.421255
47.757721 -24.724304 -35.815002 -1.273994
61.240997 -24.724304 -35.815002 -1.112852
74.724304 -24.724304 -35.815002 -0.886360
88.207611 -24.724304 -35.815002 -0.503532
101.690918 -24.724304 -35.815002 -0.246730
115.174225 -24.724304 -35.815002 -0.196003
128.657501 -24.724304 -35.815002 -0.000339
142.140808 -24.724304 -35.815002 0.048147
155.624115 -24.724304 -35.815002 0.240944
169.107422 -24.724304 -35.815002 0.254653
182.590698 -24.724304 -35.815002 0.372133
196.074036 -24.724304 -35.815002 0.473200
209.557312 -24.724304 -35.815002 0.541154
223.040588 -24.724304 -35.815002 0.381313
236.523926 -24.724304 -35.815002 0.256722
250.007202 -24.724304 -35.815002 0.163710
263.490540 -24.724304 -35.815002 0.067738
276.973816 -24.724304 -35.815002 0.076443
290.457092 -24.724304 -35.815002 -0.040473
303.940430 -24.724304 -35.815002 -0.047769
317.423706 -24.724304 -35.815002 -0.087926
330.907043 -24.724304 -35.815002 0.000000
344.390320 -24.724304 -35.815002 0.000000
-343.257996 -38.207611 -35.815002 0.000000
-329.774689 -38.207611 -35.815002 0.000000
-316.291382 -38.207611 -35.815002 0.087033
-302.808105 -38.207611 -35.815002 -0.027536
-289.324799 -38.207611 -35.815002 0.142891
-275.841492 -38.207611 -35.815002 0.266298
-262.358185 -38.207611 -35.815002 0.311364
-248.874893 -38.207611 -35.815002 0.424052
-235.391602 -38.207611 -35.815002 0.444672
-221.908295 -38.207611 -35.815002 0.495773
-208.424988 -38.207611 -35.815002 0.683179
-194.941696 -38.207611 -35.815002 0.763777
-181.458389 -38.207611 -35.815002 0.812250
-167.975098 -38.207611 -35.815002 0.494051
-154.491791 -38.207611 -35.815002 0.212683
-141.008499 -38.207611 -35.815002 -0.039858
-127.525192 -38.207611 -35.815002 -0.412344
-114.041885 -38.207611 -35.815002 -0.129469
-100.558594 -38.207611 -35.815002 0.224500
-87.075287 -38.207611 -35.815002 -0.214006
-73.591980 -38.207611 -35.815002 -0.045004
-60.108704 -38.207611 -35.815002 -0.333505
-46.625397 -38.207611 -35.815002 -0.353381
-33.142090 -38.207611 -35.815002 -0.808421
-19.658783 -38.207611 -35.815002 -0.623515
-6.175476 -38.207611 -35.815002 -0.873134
7.307800 -38.207611 -35.815002 -1.150806
20.791107 -38.207611 -35.815002 -1.124571
34.274414 -38.207611 -35.815002 -1.328115
47.757721 -38.207611 -35.815002 -1.181616
61.240997 -38.207611 -35.815002 -0.783135
74.724304 -38.207611 -35.815002 -0.642568
88.207611 -38.207611 -35.815002 -0.490559
101.690918 -38.207611 -35.815002 -0.313448
115.174225 -38.207611 -35.815002 -0.259614
128.657501 -38.207611 -35.815002 -0.019026
142.140808 -38.207611 -35.815002 0.096425
155.624115 -38.207611 -35.815002 0.115034
169.107422 -38.207611 -35.815002 0.178131
182.590698 -38.207611 -35.815002 0.225393
196.074036 -38.207611 -35.815002 0.300951
209.557312 -38.207611 -35.815002 0.391305
223.040588 -38.207611 -35.815002 0.340207
236.523926 -38.207611 -35.815002 0.186983
250.007202 -38.207611 -35.815002 0.087738
263.490540 -38.207611 -35.815002 -0.008677
276.973816 -38.207611 -35.815002 -0.026177
290.457092 -38.207611 -35.815002 -0.020276
303.940430 -38.207611 -35.815002 -0.055180
317.423706 -38.207611 -35.815002 -0.062715
330.907043 -38.207611 -35.815002 0.000000
344.390320 -38.207611 -35.815002 0.000000
-343.257996 -51.690918 -35.815002 0.000000
-329.774689 -51.690918 -35.815002 0.000000
-316.291382 -51.690918 -35.815002 0.159864
-302.808105 -51.690918 -35.815002 0.018119
-289.324799 -51.690918 -35.815002 0.130483
-275.841492 -51.690918 -35.815002 0.242261
-262.358185 -51.690918 -35.815002 0.225946
-248.874893 -51.690918 -35.815002 0.329981
-235.391602 -51.690918 -35.815002 0.583331
-221.908295 -51.690918 -35.815002 0.366461
-208.424988 -51.690918 -35.815002 0.816803
-194.941696 -51.690918 -35.815002 1.034117
-181.458389 -51.690918 -35.815002 0.865516
-167.975098 -51.690918 -35.815002 0.244313
-154.491791 -51.690918 -35.815002 -0.210738
-141.008499 -51.690918 -35.815002 -0.407929
-127.525192 -51.690918 -35.815002 -0.667522
-114.041885 -51.690918 -35.815002 -0.256802
-100.558594 -51.690918 -35.815002 -0.163665
-87.075287 -51.690918 -35.815002 0.232091
-73.591980 -51.690918 -35.815002 -0.003469
-60.108704 -51.690918 -35.815002 -0.074416
-46.625397 -51.690918 -35.815002 -0.484416
-33.142090 -51.690918 -35.815002 -0.935713
-19.658783 -51.690918 -35.815002 -0.880269
-6.175476 -51.690918 -35.815002 -1.278756
7.307800 -51.690918 -35.815002 -1.227080
20.791107 -51.690918 -35.815002 -1.345990
34.274414 -51.690918 -35.815002 -1.246096
47.757721 -51.690918 -35.815002 -1.050464
61.240997 -51.690918 -35.815002 -0.744134
74.724304 -51.690918 -35.815002 -0.616849
88.207611 -51.690918 -35.815002 -0.376896
101.690918 -51.690918 -35.815002 -0.397418
115.174225 -51.690918 -35.815002 -0.315471
128.657501 -51.690918 -35.815002 -0.074175
142.140808 -51.690918 -35.815002 -0.007171
155.624115 -51.690918 -35.815002 0.052175
169.107422 -51.690918 -35.815002 0.083262
182.590698 -51.690918 -35.815002 0.125842
196.074036 -51.690918 -35.815002 0.195562
209.557312 -51.690918 -35.815002 0.201500
223.040588 -51.690918 -35.815002 0.227754
236.523926 -51.690918 -35.815002 0.071411
250.007202 -51.690918 -35.815002 -0.023008
263.490540 -51.690918 -35.815002 -0.092936
276.973816 -51.690918 -35.815002 -0.093773
290.457092 -51.690918 -35.815002 -0.168318
303.940430 -51.690918 -35.815002 -0.041664
317.423706 -51.690918 -35.815002 0.038362
330.907043 -51.690918 -35.815002 0.000000
344.390320 -51.690918 -35.815002 0.000000
-343.257996 -65.174225 -35.815002 0.000000
-329.774689 -65.174225 -35.815002 0.000000
-316.291382 -65.174225 -35.815002 0.116366
-302.808105 -65.174225 -35.815002 0.046053
-289.324799 -65.174225 -35.815002 0.024694
-275.841492 -65.174225 -35.815002 0.254996
-262.358185 -65.174225 -35.815002 0.244106
-248.874893 -65.174225 -35.815002 0.330079
-235.391602 -65.174225 -35.815002 0.371509
-221.908295 -65.174225 -35.815002 0.345440
-208.424988 -65.174225 -35.815002 0.859405
-194.941696 -65.174225 -35.815002 0.553945
-181.458389 -65.174225 -35.815002 0.913179
-167.975098 -65.174225 -35.815002 0.229925
-154.491791 -65.174225 -35.815002 -0.348979
-141.008499 -65.174225 -35.815002 -0.215703
-127.525192 -65.174225 -35.815002 -1.059482
-114.041885 -65.174225 -35.815002 -0.617060
-100.558594 -65.174225 -35.815002 0.124979
-87.075287 -65.174225 -35.815002 -0.139105
-73.591980 -65.174225 -35.815002 0.066977
-60.108704 -65.174225 -35.815002 -0.319589
-46.625397 -65.174225 -35.815002 -0.270849
-33.142090 -65.174225 -35.815002 -0.671608
-19.658783 -65.174225 -35.815002 -0.735136
-6.175476 -65.174225 -35.815002 -1.048383
7.307800 -65.174225 -35.815002 -1.098519
20.791107 -65.174225 -35.815002 -1.107453
34.274414 -65.174225 -35.815002 -0.909345
47.757721 -65.174225 -35.815002 -0.693679
61.240997 -65.174225 -35.815002 -0.631159
74.724304 -65.174225 -35.815002 -0.449459
88.207611 -65.174225 -35.815002 -0.368477
101.690918 -65.174225 -35.815002 -0.319089
115.174225 -65.174225 -35.815002 -0.334380
128.657501 -65.174225 -35.815002 -0.162940
142.140808 -65.174225 -35.815002 -0.116937
155.624115 -65.174225 -35.815002 -0.153518
169.107422 -65.174225 -35.815002 -0.059143
182.590698 -65.174225 -35.815002 0.047664
196.074036 -65.174225 -35.815002 0.018436
209.557312 -65.174225 -35.815002 0.045607
223.040588 -65.174225 -35.815002 0.038853
236.523926 -65.174225 -35.815002 -0.031745
250.007202 -65.174225 -35.815002 -0.135362
263.490540 -65.174225 -35.815002 -0.080749
276.973816 -65.174225 -35.815002 -0.154135
290.457092 -65.174225 -35.815002 0.008382
303.940430 -65.174225 -35.815002 -0.094149
317.423706 -65.174225 -35.815002 -0.061003
330.907043 -65.174225 -35.815002 0.000000
344.390320 -65.174225 -35.815002 0.000000
-343.257996 -78.657501 -35.815002 0.000000
-329.774689 -78.657501 -35.815002 0.000000
-316.291382 -78.657501 -35.815002 0.090256
-302.808105 -78.657501 -35.815002 0.228632
-289.324799 -78.657501 -35.815002 0.096555
-275.841492 -78.657501 -35.815002 -0.003860
-262.358185 -78.657501 -35.815002 0.122560
-248.874893 -78.657501 -35.815002 0.111240
-235.391602 -78.657501 -35.815002 -0.000597
-221.908295 -78.657501 -35.815002 0.694650
-208.424988 -78.657501 -35.815002 0.766766
-194.941696 -78.657501 -35.815002 0.000000
-181.458389 -78.657501 -35.815002 0.022189
-167.975098 -78.657501 -35.815002 0.000000
-154.491791 -78.657501 -35.815002 0.180048
-141.008499 -78.657501 -35.815002 -0.073590
-127.525192 -78.657501 -35.815002 -0.552151
-114.041885 -78.657501 -35.815002 -0.217306
-100.558594 -78.657501 -35.815002 -0.174594
-87.075287 -78.657501 -35.815002 0.015604
-73.591980 -78.657501 -35.815002 -0.118321
-60.108704 -78.657501 -35.815002 -0.212890
-46.625397 -78.657501 -35.815002 -0.390968
-33.142090 -78.657501 -35.815002 -0.302288
-19.658783 -78.657501 -35.815002 -0.420172
-6.175476 -78.657501 -35.815002 -0.813339
7.307800 -78.657501 -35.815002 -0.918530
20.791107 -78.657501 -35.815002 -0.891940
34.274414 -78.657501 -35.815002 -0.490637
47.757721 -78.657501 -35.815002 -0.291712
61.240997 -78.657501 -35.815002 -0.280554
74.724304 -78.657501 -35.815002 -0.232885
88.207611 -78.657501 -35.815002 -0.294351
101.690918 -78.657501 -35.815002 -0.337966
115.174225 -78.657501 -35.815002 -0.286009
128.657501 -78.657501 -35.815002 -0.214211
142.140808 -78.657501 -35.815002 -0.226814
155.624115 -78.657501 -35.815002 -0.305140
169.107422 -78.657501 -35.815002 -0.242812
182.590698 -78.657501 -35.815002 -0.165759
196.074036 -78.657501 -35.815002 -0.112596
209.557312 -78.657501 -35.815002 -0.097009
223.040588 -78.657501 -35.815002 -0.114101
236.523926 -78.657501 -35.815002 -0.091164
250.007202 -78.657501 -35.815002 -0.119259
263.490540 -78.657501 -35.815002 -0.168673
276.973816 -78.657501 -35.815002 -0.206621
290.457092 -78.657501 -35.815002 -0.111621
303.940430 -78.657501 -35.815002 -0.017185
317.423706 -78.657501 -35.815002 -0.007712
330.907043 -78.657501 -35.815002 0.000000
344.390320 -78.657501 -35.815002 0.000000
-343.257996 -92.140808 -35.815002 0.000000
-329.774689 -92.140808 -35.815002 0.000000
-316.291382 -92.140808 -35.815002 -0.363324
-302.808105 -92.140808 -35.815002 -0.181308
-289.324799 -92.140808 -35.815002 -0.142354
-275.841492 -92.140808 -35.815002 -0.287602
-262.358185 -92.140808 -35.815002 -0.522869
-248.874893 -92.140808 -35.815002 -0.000172
-235.391602 -92.140808 -35.815002 0.000000
-221.908295 -92.140808 -35.815002 0.000000
-208.424988 -92.140808 -35.815002 0.000000
-194.941696 -92.140808 -35.815002 0.000000
-181.458389 -92.140808 -35.815002 0.000000
-167.975098 -92.140808 -35.815002 0.000000
-154.491791 -92.140808 -35.815002 -0.299277
-141.008499 -92.140808 -35.815002 -0.354849
-127.525192 -92.140808 -35.815002 -0.631261
-114.041885 -92.140808 -35.815002 -0.728045
-100.558594 -92.140808 -35.815002 -0.311828
-87.075287 -92.140808 -35.815002 -0.236863
-73.591980 -92.140808 -35.815002 -0.238323
-60.108704 -92.140808 -35.815002 -0.389445
-46.625397 -92.140808 -35.815002 -0.303570
-33.142090 -92.140808 -35.815002 -0.122335
-19.658783 -92.140808 -35.815002 -0.307363
-6.175476 -92.140808 -35.815002 -0.562897
7.307800 -92.140808 -35.815002 -0.633175
20.791107 -92.140808 -35.815002 -0.580245
34.274414 -92.140808 -35.815002 -0.344784
47.757721 -92.140808 -35.815002 -0.182962
61.240997 -92.140808 -35.815002 -0.190416
74.724304 -92.140808 -35.815002 -0.259519
88.207611 -92.140808 -35.815002 -0.338345
101.690918 -92.140808 -35.815002 -0.312094
115.174225 -92.140808 -35.815002 -0.284589
128.657501 -92.140808 -35.815002 -0.268350
142.140808 -92.140808 -35.815002 -0.274620
155.624115 -92.140808 -35.815002 -0.397831
169.107422 -92.140808 -35.815002 -0.335661
182.590698 -92.140808 -35.815002 -0.362248
196.074036 -92.140808 -35.815002 -0.282408
209.557312 -92.140808 -35.815002 -0.273065
223.040588 -92.140808 -35.815002 -0.264986
236.523926 -92.140808 -35.815002 -0.189499
250.007202 -92.140808 -35.815002 -0.199721
263.490540 -92.140808 -35.815002 -0.165928
276.973816 -92.140808 -35.815002 -0.197403
290.457092 -92.140808 -35.815002 -0.054939
303.940430 -92.140808 -35.815002 -0.086469
317.423706 -92.140808 -35.815002 -0.249723
330.907043 -92.140808 -35.815002 0.000000
344.390320 -92.140808 -35.815002 0.000000
-343.257996 -105.624115 -35.815002 0.000000
-329.774689 -105.624115 -35.815002 0.000000
-316.291382 -105.624115 -35.815002 0.000000
-302.808105 -105.624115 -35.815002 0.105907
-289.324799 -105.624115 -35.815002 0.124439
-275.841492 -105.624115 -35.815002 -0.252681
-262.358185 -105.624115 -35.815002 -0.237124
-248.874893 -105.624115 -35.815002 -0.407628
-235.391602 -105.624115 -35.815002 0.000000
-221.908295 -105.624115 -35.815002 0.000000
-208.424988 -105.624115 -35.815002 0.000000
-194.941696 -105.624115 -35.815002 0.000000
-181.458389 -105.624115 -35.815002 0.000000
-167.975098 -105.624115 -35.815002 0.000000
-154.491791 -105.624115 -35.815002 -1.001963
-141.008499 -105.624115 -35.815002 -0.969692
-127.525192 -105.624115 -35.815002 -0.518088
-114.041885 -105.624115 -35.815002 -0.342148
-100.558594 -105.624115 -35.815002 -0.026797
-87.075287 -105.624115 -35.815002 -0.219283
-73.591980 -105.624115 -35.815002 -0.032375
-60.108704 -105.624115 -35.815002 -0.104533
-46.625397 -105.624115 -35.815002 0.031749
-33.142090 -105.624115 -35.815002 -0.001766
-19.658783 -105.624115 -35.815002 -0.014229
-6.175476 -105.624115 -35.815002 -0.247795
7.307800 -105.624115 -35.815002 -0.350860
20.791107 -105.624115 -35.815002 -0.196174
34.274414 -105.624115 -35.815002 -0.194040
47.757721 -105.624115 -35.815002 -0.234519
61.240997 -105.624115 -35.815002 -0.210380
74.724304 -105.624115 -35.815002 -0.346847
88.207611 -105.624115 -35.815002 -0.400876
101.690918 -105.624115 -35.815002 -0.292938
115.174225 -105.624115 -35.815002 -0.245060
128.657501 -105.624115 -35.815002 -0.216616
142.140808 -105.624115 -35.815002 -0.305707
155.624115 -105.624115 -35.815002 -0.490240
169.107422 -105.624115 -35.815002 -0.543325
182.590698 -105.624115 -35.815002 -0.476651
196.074036 -105.624115 -35.815002 -0.448539
209.557312 -105.624115 -35.815002 -0.451979
223.040588 -105.624115 -35.815002 -0.466329
236.523926 -105.624115 -35.815002 -0.356811
250.007202 -105.624115 -35.815002 -0.356943
263.490540 -105.624115 -35.815002 -0.234404
276.973816 -105.624115 -35.815002 -0.072308
290.457092 -105.624115 -35.815002 -0.123249
303.940430 -105.624115 -35.815002 0.002904
317.423706 -105.624115 -35.815002 -0.060696
330.907043 -105.624115 -35.815002 0.000000
344.390320 -105.624115 -35.815002 0.000000
-343.257996 -119.107422 -35.815002 0.000000
-329.774689 -119.107422 -35.815002 0.000000
-316.291382 -119.107422 -35.815002 0.000000
-302.808105 -119.107422 -35.815002 0.000000
-289.324799 -119.107422 -35.815002 0.392563
-275.841492 -119.107422 -35.815002 0.545524
-262.358185 -119.107422 -35.815002 1.526346
-248.874893 -119.107422 -35.815002 1.525519
-235.391602 -119.107422 -35.815002 0.000000
-221.908295 -119.107422 -35.815002 0.000000
-208.424988 -119.107422 -35.815002 0.000000
-194.941696 -119.107422 -35.815002 0.000000
-181.458389 -119.107422 -35.815002 0.000000
-167.975098 -119.107422 -35.815002 0.000000
-154.491791 -119.107422 -35.815002 -0.103540
-141.008499 -119.107422 -35.815002 -0.109874
-127.525192 -119.107422 -35.815002 -0.960985
-114.041885 -119.107422 -35.815002 -0.016496
-100.558594 -119.107422 -35.815002 -0.409699
-87.075287 -119.107422 -35.815002 -0.155482
-73.591980 -119.107422 -35.815002 0.221965
-60.108704 -119.107422 -35.815002 0.135022
-46.625397 -119.107422 -35.815002 0.157068
-33.142090 -119.107422 -35.815002 0.230220
-19.658783 -119.107422 -35.815002 0.127212
-6.175476 -119.107422 -35.815002 0.029191
7.307800 -119.107422 -35.815002 0.164740
20.791107 -119.107422 -35.815002 -0.213597
34.274414 -119.107422 -35.815002 -0.186483
47.757721 -119.107422 -35.815002 -0.234804
61.240997 -119.107422 -35.815002 -0.331162
74.724304 -119.107422 -35.815002 -0.331919
88.207611 -119.107422 -35.815002 -0.369432
101.690918 -119.107422 -35.815002 -0.333500
115.174225 -119.107422 -35.815002 -0.308585
128.657501 -119.107422 -35.815002 -0.262039
142.140808 -119.107422 -35.815002 -0.404624
155.624115 -119.107422 -35.815002 -0.626605
169.107422 -119.107422 -35.815002 -0.610600
182.590698 -119.107422 -35.815002 -0.602120
196.074036 -119.107422 -35.815002 -0.600207
209.557312 -119.107422 -35.815002 -0.735493
223.040588 -119.107422 -35.815002 -0.806964
236.523926 -119.107422 -35.815002 -0.599690
250.007202 -119.107422 -35.815002 -0.530493
263.490540 -119.107422 -35.815002 -0.675034
276.973816 -119.107422 -35.815002 -0.122389
290.457092 -119.107422 -35.815002 0.318101
303.940430 -119.107422 -35.815002 0.315837
317.423706 -119.107422 -35.815002 0.000000
330.907043 -119.107422 -35.815002 0.000000
344.390320 -119.107422 -35.815002 0.000000
-343.257996 -132.590698 -35.815002 0.000000
-329.774689 -132.590698 -35.815002 0.000000
-316.291382 -132.590698 -35.815002 0.000000
-302.808105 -132.590698 -35.815002 0.000000
-289.324799 -132.590698 -35.815002 1.459164
-275.841492 -132.590698 -35.815002 0.000000
-262.358185 -132.590698 -35.815002 0.987579
-248.874893 -132.590698 -35.815002 0.000000
-235.391602 -132.590698 -35.815002 0.000000
-221.908295 -132.590698 -35.815002 0.000000
-208.424988 -132.590698 -35.815002 0.000000
-194.941696 -132.590698 -35.815002 0.000000
-181.458389 -132.590698 -35.815002 0.000000
-167.975098 -132.590698 -35.815002 0.000000
-154.491791 -132.590698 -35.815002 1.160700
-141.008499 -132.590698 -35.815002 0.000000
-127.525192 -132.590698 -35.815002 -1.576115
-114.041885 -132.590698 -35.815002 0.000000
-100.558594 -132.590698 -35.815002 -0.215206
-87.075287 -132.590698 -35.815002 -0.607824
-73.591980 -132.590698 -35.815002 -0.294743
-60.108704 -132.590698 -35.815002 0.662723
-46.625397 -132.590698 -35.815002 0.381319
-33.142090 -132.590698 -35.815002 0.215602
-19.658783 -132.590698 -35.815002 0.395957
-6.175476 -132.590698 -35.815002 0.252090
7.307800 -132.590698 -35.815002 0.013439
20.791107 -132.590698 -35.815002 -0.027419
34.274414 -132.590698 -35.815002 -0.127642
47.757721 -132.590698 -35.815002 0.052341
61.240997 -132.590698 -35.815002 -0.166313
74.724304 -132.590698 -35.815002 -0.241328
88.207611 -132.590698 -35.815002 -0.271621
101.690918 -132.590698 -35.815002 -0.236722
115.174225 -132.590698 -35.815002 -0.368431
128.657501 -132.590698 -35.815002 -0.296846
142.140808 -132.590698 -35.815002 -0.507347
155.624115 -132.590698 -35.815002 -0.657564
169.107422 -132.590698 -35.815002 -0.718384
182.590698 -132.590698 -35.815002 -0.589996
196.074036 -132.590698 -35.815002 -0.758320
209.557312 -132.590698 -35.815002 -0.791464
223.040588 -132.590698 -35.815002 -1.209323
236.523926 -132.590698 -35.815002 -0.904416
250.007202 -132.590698 -35.815002 -0.566120
263.490540 -132.590698 -35.815002 -0.657756
276.973816 -132.590698 -35.815002 -0.324156
290.457092 -132.590698 -35.815002 0.972205
303.940430 -132.590698 -35.815002 0.000000
317.423706 -132.590698 -35.815002 0.000000
330.907043 -132.590698 -35.815002 0.000000
344.390320 -132.590698 -35.815002 0.000000
-343.257996 -146.074036 -35.815002 0.000000
-329.774689 -146.074036 -35.815002 0.000000
-316.291382 -146.074036 -35.815002 0.000000
-302.808105 -146.074036 -35.815002 0.000000
-289.324799 -146.074036 -35.815002 0.000000
-275.841492 -146.074036 -35.815002 0.000000
-262.358185 -146.074036 -35.815002 0.000000
-248.874893 -146.074036 -35.815002 0.000000
-235.391602 -146.074036 -35.815002 0.000000
-221.908295 -146.074036 -35.815002 0.000000
-208.424988 -146.074036 -35.815002 0.000000
-194.941696 -146.074036 -35.815002 0.000000
-181.458389 -146.074036 -35.815002 0.000000
-167.975098 -146.074036 -35.815002 0.000000
-154.491791 -146.074036 -35.815002 0.000000
-141.008499 -146.074036 -35.815002 0.000000
-127.525192 -146.074036 -35.815002 0.000000
-114.041885 -146.074036 -35.815002 0.000000
-100.558594 -146.074036 -35.815002 0.000000
-87.075287 -146.074036 -35.815002 0.000000
-73.591980 -146.074036 -35.815002 0.000000
-60.108704 -146.074036 -35.815002 0.000000
-46.625397 -146.074036 -35.815002 -0.090452
-33.142090 -146.074036 -35.815002 -0.340351
-19.658783 -146.074036 -35.815002 -0.057685
-6.175476 -146.074036 -35.815002 0.177907
7.307800 -146.074036 -35.815002 0.068862
20.791107 -146.074036 -35.815002 -0.133924
34.274414 -146.074036 -35.815002 -0.222986
47.757721 -146.074036 -35.815002 0.000000
61.240997 -146.074036 -35.815002 0.000000
74.724304 -146.074036 -35.815002 0.000000
88.207611 -146.074036 -35.815002 0.000000
101.690918 -146.074036 -35.815002 -0.039623
115.174225 -146.074036 -35.815002 -0.405115
128.657501 -146.074036 -35.815002 -0.439507
142.140808 -146.074036 -35.815002 -0.449993
155.624115 -146.074036 -35.815002 -0.756608
169.107422 -146.074036 -35.815002 -0.669407
182.590698 -146.074036 -35.815002 0.000000
196.074036 -146.074036 -35.815002 0.000000
209.557312 -146.074036 -35.815002 0.000000
223.040588 -146.074036 -35.815002 0.000000
236.523926 -146.074036 -35.815002 0.000000
250.007202 -146.074036 -35.815002 0.000000
263.490540 -146.074036 -35.815002 0.000000
276.973816 -146.074036 -35.815002 0.000000
290.457092 -146.074036 -35.815002 0.000000
303.940430 -146.074036 -35.815002 0.000000
317.423706 -146.074036 -35.815002 0.000000
330.907043 -146.074036 -35.815002 0.000000
344.390320 -146.074036 -35.815002 0.000000
-343.257996 -159.557312 -35.815002 0.000000
-329.774689 -159.557312 -35.815002 0.000000
-316.291382 -159.557312 -35.815002 0.000000
-302.808105 -159.557312 -35.815002 0.000000
-289.324799 -159.557312 -35.815002 0.000000
-275.841492 -159.557312 -35.815002 0.000000
-262.358185 -159.557312 -35.815002 0.000000
-248.874893 -159.557312 -35.815002 0.000000
-235.391602 -159.557312 -35.815002 0.000000
-221.908295 -159.557312 -35.815002 0.000000
-208.424988 -159.557312 -35.815002 0.000000
-194.941696 -159.557312 -35.815002 0.000000
-181.458389 -159.557312 -35.815002 0.000000
-167.975098 -159.557312 -35.815002 0.000000
-154.491791 -159.557312 -35.815002 0.000000
-141.008499 -159.557312 -35.815002 0.000000
-127.525192 -159.557312 -35.815002 0.000000
-114.041885 -159.557312 -35.815002 0.000000
-100.558594 -159.557312 -35.815002 0.000000
-87.075287 -159.557312 -35.815002 0.000000
-73.591980 -159.557312 -35.815002 0.000000
-60.108704 -159.557312 -35.815002 0.000000
-46.625397 -159.557312 -35.815002 0.000000
-33.142090 -159.557312 -35.815002 0.000000
-19.658783 -159.557312 -35.815002 0.000000
-6.175476 -159.557312 -35.815002 0.000000
7.307800 -159.557312 -35.815002 0.000000
20.791107 -159.557312 -35.815002 0.000000
34.274414 -159.557312 -35.815002 0.000000
47.757721 -159.557312 -35.815002 0.000000
61.240997 -159.557312 -35.815002 0.000000
74.724304 -159.557312 -35.815002 0.000000
88.207611 -159.557312 -35.815002 0.000000
101.690918 -159.557312 -35.815002 0.000000
115.174225 -159.557312 -35.815002 0.000000
128.657501 -159.557312 -35.815002 0.000000
142.140808 -159.557312 -35.815002 0.000000
155.624115 -159.557312 -35.815002 0.000000
169.107422 -159.557312 -35.815002 0.000000
182.590698 -159.557312 -35.815002 0.000000
196.074036 -159.557312 -35.815002 0.000000
209.557312 -159.557312 -35.815002 0.000000
223.040588 -159.557312 -35.815002 0.000000
236.523926 -159.557312 -35.815002 0.000000
250.007202 -159.557312 -35.815002 0.000000
263.490540 -159.557312 -35.815002 0.000000
276.973816 -159.557312 -35.815002 0.000000
290.457092 -159.557312 -35.815002 0.000000
303.940430 -159.557312 -35.815002 0.000000
317.423706 -159.557312 -35.815002 0.000000
330.907043 -159.557312 -35.815002 0.000000
344.390320 -159.557312 -35.815002 0.000000
-343.257996 -173.040588 -35.815002 0.000000
-329.774689 -173.040588 -35.815002 0.000000
-316.291382 -173.040588 -35.815002 0.000000
-302.808105 -173.040588 -35.815002 0.000000
-289.324799 -173.040588 -35.815002 0.000000
-275.841492 -173.040588 -35.815002 0.000000
-262.358185 -173.040588 -35.815002 0.000000
-248.874893 -173.040588 -35.815002 0.000000
-235.391602 -173.040588 -35.815002 0.000000
-221.908295 -173.040588 -35.815002 0.000000
-208.424988 -173.040588 -35.815002 0.000000
-194.941696 -173.040588 -35.815002 0.000000
-181.458389 -173.040588 -35.815002 0.000000
-167.975098 -173.040588 -35.815002 0.000000
-154.491791 -173.040588 -35.815002 0.000000
-141.008499 -173.040588 -35.815002 0.000000
-127.525192 -173.040588 -35.815002 0.000000
-114.041885 -173.040588 -35.815002 0.000000
-100.558594 -173.040588 -35.815002 0.000000
-87.075287 -173.040588 -35.815002 0.000000
-73.591980 -173.040588 -35.815002 0.000000
-60.108704 -173.040588 -35.815002 0.000000
-46.625397 -173.040588 -35.815002 0.000000
-33.142090 -173.040588 -35.815002 0.000000
-19.658783 -173.040588 -35.815002 0.000000
-6.175476 -173.040588 -35.815002 0.000000
7.307800 -173.040588 -35.815002 0.000000
20.791107 -173.040588 -35.815002 0.000000
34.274414 -173.040588 -35.815002 0.000000
47.757721 -173.040588 -35.815002 0.000000
61.240997 -173.040588 -35.815002 0.000000
74.724304 -173.040588 -35.815002 0.000000
88.207611 -173.040588 -35.815002 0.000000
101.690918 -173.040588 -35.815002 0.000000
115.174225 -173.040588 -35.815002 0.000000
128.657501 -173.040588 -35.815002 0.000000
142.140808 -173.040588 -35.815002 0.000000
155.624115 -173.040588 -35.815002 0.000000
169.107422 -173.040588 -35.815002 0.000000
182.590698 -173.040588 -35.815002 0.000000
196.074036 -173.040588 -35.815002 0.000000
209.557312 -173.040588 -35.815002 0.000000
223.040588 -173.040588 -35.815002 0.000000
236.523926 -173.040588 -35.815002 0.000000
250.007202 -173.040588 -35.815002 0.000000
263.490540 -173.040588 -35.815002 0.000000
276.973816 -173.040588 -35.815002 0.000000
290.457092 -173.040588 -35.815002 0.000000
303.940430 -173.040588 -35.815002 0.000000
317.423706 -173.040588 -35.815002 0.000000
330.907043 -173.040588 -35.815002 0.000000
344.390320 -173.040588 -35.815002 0.000000
-343.257996 -186.523926 -35.815002 0.000000
-329.774689 -186.523926 -35.815002 0.000000
-316.291382 -186.523926 -35.815002 0.000000
-302.808105 -186.523926 -35.815002 0.000000
-289.324799 -186.523926 -35.815002 0.000000
-275.841492 -186.523926 -35.815002 0.000000
-262.358185 -186.523926 -35.815002 0.000000
-248.874893 -186.523926 -35.815002 0.000000
-235.391602 -186.523926 -35.815002 0.000000
-221.908295 -186.523926 -35.815002 0.000000
-208.424988 -186.523926 -35.815002 0.000000
-194.941696 -186.523926 -35.815002 0.000000
-181.458389 -186.523926 -35.815002 0.000000
-167.975098 -186.523926 -35.815002 0.000000
-154.491791 -186.523926 -35.815002 0.000000
-141.008499 -186.523926 -35.815002 0.000000
-127.525192 -186.523926 -35.815002 0.000000
-114.041885 -186.523926 -35.815002 0.000000
-100.558594 -186.523926 -35.815002 0.000000
-87.075287 -186.523926 -35.815002 0.000000
-73.591980 -186.523926 -35.815002 0.000000
-60.108704 -186.523926 -35.815002 0.000000
-46.625397 -186.523926 -35.815002 0.000000
-33.142090 -186.523926 -35.815002 0.000000
-19.658783 -186.523926 -35.815002 0.000000
-6.175476 -186.523926 -35.815002 0.000000
7.307800 -186.523926 -35.815002 0.000000
20.791107 -186.523926 -35.815002 0.000000
34.274414 -186.523926 -35.815002 0.000000
47.757721 -186.523926 -35.815002 0.000000
61.240997 -186.523926 -35.815002 0.000000
74.724304 -186.523926 -35.815002 0.000000
88.207611 -186.523926 -35.815002 0.000000
101.690918 -186.523926 -35.815002 0.000000
115.174225 -186.523926 -35.815002 0.000000
128.657501 -186.523926 -35.815002 0.000000
142.140808 -186.523926 -35.815002 0.000000
155.624115 -186.523926 -35.815002 0.000000
169.107422 -186.523926 -35.815002 0.000000
182.590698 -186.523926 -35.815002 0.000000
196.074036 -186.523926 -35.815002 0.000000
209.557312 -186.523926 -35.815002 0.000000
223.040588 -186.523926 -35.815002 0.000000
236.523926 -186.523926 -35.815002 0.000000
250.007202 -186.523926 -35.815002 0.000000
263.490540 -186.523926 -35.815002 0.000000
276.973816 -186.523926 -35.815002 0.000000
290.457092 -186.523926 -35.815002 0.000000
303.940430 -186.523926 -35.815002 0.000000
317.423706 -186.523926 -35.815002 0.000000
330.907043 -186.523926 -35.815002 0.000000
344.390320 -186.523926 -35.815002 0.000000
-343.257996 -200.007202 -35.815002 0.000000
-329.774689 -200.007202 -35.815002 0.000000
-316.291382 -200.007202 -35.815002 0.000000
-302.808105 -200.007202 -35.815002 0.000000
-289.324799 -200.007202 -35.815002 0.000000
-275.841492 -200.007202 -35.815002 0.000000
-262.358185 -200.007202 -35.815002 0.000000
-248.874893 -200.007202 -35.815002 0.000000
-235.391602 -200.007202 -35.815002 0.000000
-221.908295 -200.007202 -35.815002 0.000000
-208.424988 -200.007202 -35.815002 0.000000
-194.941696 -200.007202 -35.815002 0.000000
-181.458389 -200.007202 -35.815002 0.000000
-167.975098 -200.007202 -35.815002 0.000000
-154.491791 -200.007202 -35.815002 0.000000
-141.008499 -200.007202 -35.815002 0.000000
-127.525192 -200.007202 -35.815002 0.000000
-114.041885 -200.007202 -35.815002 0.000000
-100.558594 -200.007202 -35.815002 0.000000
-87.075287 -200.007202 -35.815002 0.000000
-73.591980 -200.007202 -35.815002 0.000000
-60.108704 -200.007202 -35.815002 0.000000
-46.625397 -200.007202 -35.815002 0.000000
-33.142090 -200.007202 -35.815002 0.000000
-19.658783 -200.007202 -35.815002 0.000000
-6.175476 -200.007202 -35.815002 0.000000
7.307800 -200.007202 -35.815002 0.000000
20.791107 -200.007202 -35.815002 0.000000
34.274414 -200.007202 -35.815002 0.000000
47.757721 -200.007202 -35.815002 0.000000
61.240997 -200.007202 -35.815002 0.000000
74.724304 -200.007202 -35.815002 0.000000
88.207611 -200.007202 -35.815002 0.000000
101.690918 -200.007202 -35.815002 0.000000
115.174225 -200.007202 -35.815002 0.000000
128.657501 -200.007202 -35.815002 0.000000
142.140808 -200.007202 -35.815002 0.000000
155.624115 -200.007202 -35.815002 0.000000
169.107422 -200.007202 -35.815002 0.000000
182.590698 -200.007202 -35.815002 0.000000
196.074036 -200.007202 -35.815002 0.000000
209.557312 -200.007202 -35.815002 0.000000
223.040588 -200.007202 -35.815002 0.000000
236.523926 -200.007202 -35.815002 0.000000
250.007202 -200.007202 -35.815002 0.000000
263.490540 -200.007202 -35.815002 0.000000
276.973816 -200.007202 -35.815002 0.000000
290.457092 -200.007202 -35.815002 0.000000
303.940430 -200.007202 -35.815002 0.000000
317.423706 -200.007202 -35.815002 0.000000
330.907043 -200.007202 -35.815002 0.000000
344.390320 -200.007202 -35.815002 0.000000
-343.257996 393.257996 -22.331701 0.000000
-329.774689 393.257996 -22.331701 0.000000
-316.291382 393.257996 -22.331701 0.000000
-302.808105 393.257996 -22.331701 0.000000
-289.324799 393.257996 -22.331701 0.000000
-275.841492 393.257996 -22.331701 0.000000
-262.358185 393.257996 -22.331701 0.000000
-248.874893 393.257996 -22.331701 0.000000
-235.391602 393.257996 -22.331701 0.000000
-221.908295 393.257996 -22.331701 0.000000
-208.424988 393.257996 -22.331701 0.000000
-194.941696 393.257996 -22.331701 0.000000
-181.458389 393.257996 -22.331701 0.000000
-167.975098 393.257996 -22.331701 0.000000
-154.491791 393.257996 -22.331701 0.000000
-141.008499 393.257996 -22.331701 0.000000
-127.525192 393.257996 -22.331701 0.000000
-114.041885 393.257996 -22.331701 0.000000
-100.558594 393.257996 -22.331701 0.000000
-87.075287 393.257996 -22.331701 0.000000
-73.591980 393.257996 -22.331701 0.000000
-60.108704 393.257996 -22.331701 0.000000
-46.625397 393.257996 -22.331701 0.000000
-33.142090 393.257996 -22.331701 0.000000
-19.658783 393.257996 -22.331701 0.000000
-6.175476 393.257996 -22.331701 0.000000
7.307800 393.257996 -22.331701 0.000000
20.791107 393.257996 -22.331701 0.000000
34.274414 393.257996 -22.331701 0.000000
47.757721 393.257996 -22.331701 0.000000
61.240997 393.257996 -22.331701 0.000000
74.724304 393.257996 -22.331701 0.000000
88.207611 393.257996 -22.331701 0.000000
101.690918 393.257996 -22.331701 0.000000
115.174225 393.257996 -22.331701 0.000000
128.657501 393.257996 -22.331701 0.000000
142.140808 393.257996 -22.331701 0.000000
155.624115 393.257996 -22.331701 0.000000
169.107422 393.257996 -22.331701 0.000000
182.590698 393.257996 -22.331701 0.000000
196.074036 393.257996 -22.331701 0.000000
209.557312 393.257996 -22.331701 0.000000
223.040588 393.257996 -22.331701 0.000000
236.523926 393.257996 -22.331701 0.000000
250.007202 393.257996 -22.331701 0.000000
263.490540 393.257996 -22.331701 0.000000
276.973816 393.257996 -22.331701 0.000000
290.457092 393.257996 -22.331701 0.000000
303.940430 393.257996 -22.331701 0.000000
317.423706 393.257996 -22.331701 0.000000
330.907043 393.257996 -22.331701 0.000000
344.390320 393.257996 -22.331701 0.000000
-343.257996 379.774689 -22.331701 0.000000
-329.774689 379.774689 -22.331701 0.000000
-316.291382 379.774689 -22.331701 0.000000
-302.808105 379.774689 -22.331701 0.000000
-289.324799 379.774689 -22.331701 0.000000
-275.841492 379.774689 -22.331701 0.000000
-262.358185 379.774689 -22.331701 0.000000
-248.874893 379.774689 -22.331701 0.000000
-235.391602 379.774689 -22.331701 0.000000
-221.908295 379.774689 -22.331701 0.000000
-208.424988 379.774689 -22.331701 0.000000
-194.941696 379.774689 -22.331701 0.000000
-181.458389 379.774689 -22.331701 0.000000
-167.975098 379.774689 -22.331701 0.000000
-154.491791 379.774689 -22.331701 0.000000
-141.008499 379.774689 -22.331701 0.000000
-127.525192 379.774689 -22.331701 0.000000
-114.041885 379.774689 -22.331701 0.000000
-100.558594 379.774689 -22.331701 0.000000
-87.075287 379.774689 -22.331701 0.000000
-73.591980 379.774689 -22.331701 0.000000
-60.108704 379.774689 -22.331701 0.000000
-46.625397 379.774689 -22.331701 0.000000
-33.142090 379.774689 -22.331701 0.000000
-19.658783 379.774689 -22.331701 0.000000
-6.175476 379.774689 -22.331701 0.000000
7.307800 379.774689 -22.331701 0.000000
20.791107 379.774689 -22.331701 0.000000
34.274414 379.774689 -22.331701 0.000000
47.757721 379.774689 -22.331701 0.000000
61.240997 379.774689 -22.331701 0.000000
74.724304 379.774689 -22.331701 0.000000
88.207611 379.774689 -22.331701 0.000000
101.690918 379.774689 -22.331701 0.000000
115.174225 379.774689 -22.331701 0.000000
128.657501 379.774689 -22.331701 0.000000
142.140808 379.774689 -22.331701 0.000000
155.624115 379.774689 -22.331701 0.000000
169.107422 379.774689 -22.331701 0.000000
182.590698 379.774689 -22.331701 0.000000
196.074036 379.774689 -22.331701 0.000000
209.557312 379.774689 -22.331701 0.000000
223.040588 379.774689 -22.331701 0.000000
236.523926 379.774689 -22.331701 0.000000
250.007202 379.774689 -22.331701 0.000000
263.490540 379.774689 -22.331701 0.000000
276.973816 379.774689 -22.331701 0.000000
290.457092 379.774689 -22.331701 0.000000
303.940430 379.774689 -22.331701 0.000000
317.423706 379.774689 -22.331701 0.000000
330.907043 379.774689 -22.331701 0.000000
344.390320 379.774689 -22.331701 0.000000
-343.257996 366.291382 -22.331701 0.000000
-329.774689 366.291382 -22.331701 0.000000
-316.291382 366.291382 -22.331701 0.000000
-302.808105 366.291382 -22.331701 0.000000
-289.324799 366.291382 -22.331701 0.000000
-275.841492 366.291382 -22.331701 0.000000
-262.358185 366.291382 -22.331701 0.000000
-248.874893 366.291382 -22.331701 0.000000
-235.391602 366.291382 -22.331701 0.000000
-221.908295 366.291382 -22.331701 0.000000
-208.424988 366.291382 -22.331701 0.000000
-194.941696 366.291382 -22.331701 0.000000
-181.458389 366.291382 -22.331701 0.000000
-167.975098 366.291382 -22.331701 0.000000
-154.491791 366.291382 -22.331701 0.000000
-141.008499 366.291382 -22.331701 0.000000
-127.525192 366.291382 -22.331701 0.000000
-114.041885 366.291382 -22.331701 0.000000
-100.558594 366.291382 -22.331701 0.000000
-87.075287 366.291382 -22.331701 0.000000
-73.591980 366.291382 -22.331701 0.000000
-60.108704 366.291382 -22.331701 0.000000
-46.625397 366.291382 -22.331701 0.000000
-33.142090 366.291382 -22.331701 0.000000
-19.658783 366.291382 -22.331701 0.000000
-6.175476 366.291382 -22.331701 0.000000
7.307800 366.291382 -22.331701 0.000000
20.791107 366.291382 -22.331701 0.306038
34.274414 366.291382 -22.331701 0.000000
47.757721 366.291382 -22.331701 0.154692
61.240997 366.291382 -22.331701 0.096444
74.724304 366.291382 -22.331701 0.023415
88.207611 366.291382 -22.331701 -0.020063
101.690918 366.291382 -22.331701 -0.155799
115.174225 366.291382 -22.331701 -0.289481
128.657501 366.291382 -22.331701 0.000000
142.140808 366.291382 -22.331701 0.000000
155.624115 366.291382 -22.331701 0.000000
169.107422 366.291382 -22.331701 0.000000
182.590698 366.291382 -22.331701 0.000000
196.074036 366.291382 -22.331701 0.000000
209.557312 366.291382 -22.331701 0.000000
223.040588 366.291382 -22.331701 0.000000
236.523926 366.291382 -22.331701 0.000000
250.007202 366.291382 -22.331701 0.000000
263.490540 366.291382 -22.331701 0.000000
276.973816 366.291382 -22.331701 0.000000
290.457092 366.291382 -22.331701 0.000000
303.940430 366.291382 -22.331701 0.000000
317.423706 366.291382 -22.331701 0.000000
330.907043 366.291382 -22.331701 0.000000
344.390320 366.291382 -22.331701 0.000000
-343.257996 352.808105 -22.331701 0.000000
-329.774689 352.808105 -22.331701 0.000000
-316.291382 352.808105 -22.331701 0.000000
-302.808105 352.808105 -22.331701 0.000000
-289.324799 352.808105 -22.331701 0.000000
-275.841492 352.808105 -22.331701 0.000000
-262.358185 352.808105 -22.331701 0.000000
-248.874893 352.808105 -22.331701 0.000000
-235.391602 352.808105 -22.331701 0.000000
-221.908295 352.808105 -22.331701 -0.816600
-208.424988 352.808105 -22.331701 -1.029533
-194.941696 352.808105 -22.331701 -0.977425
-181.458389 352.808105 -22.331701 -0.990068
-167.975098 352.808105 -22.331701 -0.812479
-154.491791 352.808105 -22.331701 -0.672124
-141.008499 352.808105 -22.331701 -0.520331
-127.525192 352.808105 -22.331701 -0.258757
-114.041885 352.808105 -22.331701 -0.038676
-100.558594 352.808105 -22.331701 0.698277
-87.075287 352.808105 -22.331701 1.114067
-73.591980 352.808105 -22.331701 1.323667
-60.108704 352.808105 -22.331701 1.367456
-46.625397 352.808105 -22.331701 1.462372
-33.142090 352.808105 -22.331701 1.562928
-19.658783 352.808105 -22.331701 1.016875
-6.175476 352.808105 -22.331701 0.597194
7.307800 352.808105 -22.331701 0.568588
20.791107 352.808105 -22.331701 0.340196
34.274414 352.808105 -22.331701 0.129199
47.757721 352.808105 -22.331701 0.065984
61.240997 352.808105 -22.331701 -0.003620
74.724304 352.808105 -22.331701 -0.087665
88.207611 352.808105 -22.331701 -0.128540
101.690918 352.808105 -22.331701 -0.253693
115.174225 352.808105 -22.331701 -0.355996
128.657501 352.808105 -22.331701 -0.364974
142.140808 352.808105 -22.331701 -0.266000
155.624115 352.808105 -22.331701 -0.458952
169.107422 352.808105 -22.331701 -0.241202
182.590698 352.808105 -22.331701 -0.009701
196.074036 352.808105 -22.331701 0.272536
209.557312 352.808105 -22.331701 0.000000
223.040588 352.808105 -22.331701 0.000000
236.523926 352.808105 -22.331701 0.000000
250.007202 352.808105 -22.331701 0.000000
263.490540 352.808105 -22.331701 0.000000
276.973816 352.808105 -22.331701 0.000000
290.457092 352.808105 -22.331701 0.000000
303.940430 352.808105 -22.331701 0.000000
317.423706 352.808105 -22.331701 0.000000
330.907043 352.808105 -22.331701 0.000000
344.390320 352.808105 -22.331701 0.000000
-343.257996 339.324799 -22.331701 0.000000
-329.774689 339.324799 -22.331701 0.000000
-316.291382 339.324799 -22.331701 0.000000
-302.808105 339.324799 -22.331701 0.000000
-289.324799 339.324799 -22.331701 0.000000
-275.841492 339.324799 -22.331701 -0.445808
-262.358185 339.324799 -22.331701 -0.310144
-248.874893 339.324799 -22.331701 -0.560609
-235.391602 339.324799 -22.331701 -0.720644
-221.908295 339.324799 -22.331701 -0.669117
-208.424988 339.324799 -22.331701 -0.736351
-194.941696 339.324799 -22.331701 -0.851926
-181.458389 339.324799 -22.331701 -0.962035
-167.975098 339.324799 -22.331701 -0.826516
-154.491791 339.324799 -22.331701 -0.603659
-141.008499 339.324799 -22.331701 -0.542790
-127.525192 339.324799 -22.331701 -0.257020
-114.041885 339.324799 -22.331701 0.242455
-100.558594 339.324799 -22.331701 0.586570
-87.075287 339.324799 -22.331701 1.056577
-73.591980 339.324799 -22.331701 1.422243
-60.108704 339.324799 -22.331701 1.385463
-46.625397 339.324799 -22.331701 1.696297
-33.142090 339.324799 -22.331701 1.444593
-19.658783 339.324799 -22.331701 1.148922
-6.175476 339.324799 -22.331701 0.853700
7.307800 339.324799 -22.331701 0.542720
20.791107 339.324799 -22.331701 0.309668
34.274414 339.324799 -22.331701 0.154867
47.757721 339.324799 -22.331701 0.024074
61.240997 339.324799 -22.331701 -0.066098
74.724304 339.324799 -22.331701 -0.120159
88.207611 339.324799 -22.331701 -0.365019
101.690918 339.324799 -22.331701 -0.631198
115.174225 339.324799 -22.331701 -0.552472
128.657501 339.324799 -22.331701 -0.370863
142.140808 339.324799 -22.331701 -0.426809
155.624115 339.324799 -22.331701 -0.292630
169.107422 339.324799 -22.331701 -0.158073
182.590698 339.324799 -22.331701 0.215097
196.074036 339.324799 -22.331701 0.475941
209.557312 339.324799 -22.331701 0.616771
223.040588 339.324799 -22.331701 0.846288
236.523926 339.324799 -22.331701 0.914613
250.007202 339.324799 -22.331701 0.836506
263.490540 339.324799 -22.331701 0.400334
276.973816 339.324799 -22.331701 0.000000
290.457092 339.324799 -22.331701 0.000000
303.940430 339.324799 -22.331701 0.000000
317.423706 339.324799 -22.331701 0.000000
330.907043 339.324799 -22.331701 0.000000
344.390320 339.324799 -22.331701 0.000000
-343.257996 325.841492 -22.331701 0.000000
-329.774689 325.841492 -22.331701 0.000000
-316.291382 325.841492 -22.331701 0.000000
-302.808105 325.841492 -22.331701 0.000000
-289.324799 325.841492 -22.331701 -0.271052
-275.841492 325.841492 -22.331701 -0.386803
-262.358185 325.841492 -22.331701 -0.327906
-248.874893 325.841492 -22.331701 -0.393250
-235.391602 325.841492 -22.331701 -0.501044
-221.908295 325.841492 -22.331701 -0.468368
-208.424988 325.841492 -22.331701 -0.658727
-194.941696 325.841492 -22.331701 -0.828176
-181.458389 325.841492 -22.331701 -0.815247
-167.975098 325.841492 -22.331701 -0.687196
-154.491791 325.841492 -22.331701 -0.505690
-141.008499 325.841492 -22.331701 -0.581293
-127.525192 325.841492 -22.331701 -0.270263
-114.041885 325.841492 -22.331701 0.238809
-100.558594 325.841492 -22.331701 0.778053
-87.075287 325.841492 -22.331701 1.119485
-73.591980 325.841492 -22.331701 1.285758
-60.108704 325.841492 -22.331701 1.381031
-46.625397 325.841492 -22.331701 1.691186
-33.142090 325.841492 -22.331701 1.524710
-19.658783 325.841492 -22.331701 1.199424
-6.175476 325.841492 -22.331701 0.933844
7.307800 325.841492 -22.331701 0.620083
20.791107 325.841492 -22.331701 0.273810
34.274414 325.841492 -22.331701 0.185889
47.757721 325.841492 -22.331701 -0.009554
61.240997 325.841492 -22.331701 -0.201351
74.724304 325.841492 -22.331701 -0.264492
88.207611 325.841492 -22.331701 -0.479499
101.690918 325.841492 -22.331701 -0.575138
115.174225 325.841492 -22.331701 -0.518988
128.657501 325.841492 -22.331701 -0.374014
142.140808 325.841492 -22.331701 -0.436499
155.624115 325.841492 -22.331701 -0.298228
169.107422 325.841492 -22.331701 0.006118
182.590698 325.841492 -22.331701 0.286130
196.074036 325.841492 -22.331701 0.456661
209.557312 325.841492 -22.331701 0.703183
223.040588 325.841492 -22.331701 0.929421
236.523926 325.841492 -22.331701 0.873484
250.007202 325.841492 -22.331701 0.843033
263.490540 325.841492 -22.331701 0.645792
276.973816 325.841492 -22.331701 0.415229
290.457092 325.841492 -22.331701 0.000000
303.940430 325.841492 -22.331701 0.000000
317.423706 325.841492 -22.331701 0.000000
330.907043 325.841492 -22.331701 0.000000
344.390320 325.841492 -22.331701 0.000000
-343.257996 312.358185 -22.331701 0.000000
-329.774689 312.358185 -22.331701 0.000000
-316.291382 312.358185 -22.331701 0.000000
-302.808105 312.358185 -22.331701 -0.146065
-289.324799 312.358185 -22.331701 -0.061153
-275.841492 312.358185 -22.331701 -0.153916
-262.358185 312.358185 -22.331701 -0.252109
-248.874893 312.358185 -22.331701 -0.304319
-235.391602 312.358185 -22.331701 -0.391984
-221.908295 312.358185 -22.331701 -0.420158
-208.424988 312.358185 -22.331701 -0.462823
-194.941696 312.358185 -22.331701 -0.511498
-181.458389 312.358185 -22.331701 -0.826683
-167.975098 312.358185 -22.331701 -0.794037
-154.491791 312.358185 -22.331701 -0.714232
-141.008499 312.358185 -22.331701 -0.758267
-127.525192 312.358185 -22.331701 -0.397141
-114.041885 312.358185 -22.331701 -0.154037
-100.558594 312.358185 -22.331701 0.734319
-87.075287 312.358185 -22.331701 1.047775
-73.591980 312.358185 -22.331701 1.337972
-60.108704 312.358185 -22.331701 1.218101
-46.625397 312.358185 -22.331701 1.603861
-33.142090 312.358185 -22.331701 1.477887
-19.658783 312.358185 -22.331701 1.303572
-6.175476 312.358185 -22.331701 1.066299
7.307800 312.358185 -22.331701 0.668451
20.791107 312.358185 -22.331701 0.290942
34.274414 312.358185 -22.331701 0.111949
47.757721 312.358185 -22.331701 -0.083630
61.240997 312.358185 -22.331701 -0.258947
74.724304 312.358185 -22.331701 -0.385712
88.207611 312.358185 -22.331701 -0.766849
101.690918 312.358185 -22.331701 -0.716415
115.174225 312.358185 -22.331701 -0.638938
128.657501 312.358185 -22.331701 -0.432725
142.140808 312.358185 -22.331701 -0.249987
155.624115 312.358185 -22.331701 -0.059657
169.107422 312.358185 -22.331701 -0.023153
182.590698 312.358185 -22.331701 0.184727
196.074036 312.358185 -22.331701 0.564679
209.557312 312.358185 -22.331701 0.634937
223.040588 312.358185 -22.331701 0.765750
236.523926 312.358185 -22.331701 0.769022
250.007202 312.358185 -22.331701 0.794887
263.490540 312.358185 -22.331701 0.508314
276.973816 312.358185 -22.331701 0.509358
290.457092 312.358185 -22.331701 0.321464
303.940430 312.358185 -22.331701 0.000000
317.423706 312.358185 -22.331701 0.000000
330.907043 312.358185 -22.331701 0.000000
344.390320 312.358185 -22.331701 0.000000
-343.257996 298.874878 -22.331701 0.000000
-329.774689 298.874878 -22.331701 0.000000
-316.291382 298.874878 -22.331701 -0.183677
-302.808105 298.874878 -22.331701 -0.059856
-289.324799 298.874878 -22.331701 -0.105167
-275.841492 298.874878 -22.331701 -0.117890
-262.358185 298.874878 -22.331701 -0.160720
-248.874893 298.874878 -22.331701 -0.205004
-235.391602 298.874878 -22.331701 -0.211370
-221.908295 298.874878 -22.331701 -0.341280
-208.424988 298.874878 -22.331701 -0.341858
-194.941696 298.874878 -22.331701 -0.310917
-181.458389 298.874878 -22.331701 -0.519277
-167.975098 298.874878 -22.331701 -0.807687
-154.491791 298.874878 -22.331701 -0.635930
-141.008499 298.874878 -22.331701 -0.574504
-127.525192 298.874878 -22.331701 -0.564290
-114.041885 298.874878 -22.331701 -0.273373
-100.558594 298.874878 -22.331701 0.315744
-87.075287 298.874878 -22.331701 0.961644
-73.591980 298.874878 -22.331701 1.165777
-60.108704 298.874878 -22.331701 1.233338
-46.625397 298.874878 -22.331701 1.830264
-33.142090 298.874878 -22.331701 1.904499
-19.658783 298.874878 -22.331701 1.586428
-6.175476 298.874878 -22.331701 1.274609
7.307800 298.874878 -22.331701 0.735628
20.791107 298.874878 -22.331701 0.368464
34.274414 298.874878 -22.331701 0.154194
47.757721 298.874878 -22.331701 -0.118094
61.240997 298.874878 -22.331701 -0.350030
74.724304 298.874878 -22.331701 -0.671572
88.207611 298.874878 -22.331701 -0.753492
101.690918 298.874878 -22.331701 -0.703314
115.174225 298.874878 -22.331701 -0.569278
128.657501 298.874878 -22.331701 -0.280414
142.140808 298.874878 -22.331701 0.003535
155.624115 298.874878 -22.331701 0.159664
169.107422 298.874878 -22.331701 0.131269
182.590698 298.874878 -22.331701 0.114097
196.074036 298.874878 -22.331701 0.478244
209.557312 298.874878 -22.331701 0.616186
223.040588 298.874878 -22.331701 0.765061
236.523926 298.874878 -22.331701 0.775216
250.007202 298.874878 -22.331701 0.623450
263.490540 298.874878 -22.331701 0.483347
276.973816 298.874878 -22.331701 0.412541
290.457092 298.874878 -22.331701 0.261673
303.940430 298.874878 -22.331701 0.190291
317.423706 298.874878 -22.331701 0.000000
330.907043 298.874878 -22.331701 0.000000
344.390320 298.874878 -22.331701 0.000000
-343.257996 285.391602 -22.331701 0.000000
-329.774689 285.391602 -22.331701 0.000000
-316.291382 285.391602 -22.331701 -0.135552
-302.808105 285.391602 -22.331701 -0.020731
-289.324799 285.391602 -22.331701 -0.030993
-275.841492 285.391602 -22.331701 -0.050349
-262.358185 285.391602 -22.331701 -0.097939
-248.874893 285.391602 -22.331701 -0.101183
-235.391602 285.391602 -22.331701 -0.140582
-221.908295 285.391602 -22.331701 -0.205904
-208.424988 285.391602 -22.331701 -0.342122
-194.941696 285.391602 -22.331701 -0.435443
-181.458389 285.391602 -22.331701 -0.533485
-167.975098 285.391602 -22.331701 -0.728923
-154.491791 285.391602 -22.331701 -0.856265
-141.008499 285.391602 -22.331701 -0.746713
-127.525192 285.391602 -22.331701 -0.728953
-114.041885 285.391602 -22.331701 -0.413729
-100.558594 285.391602 -22.331701 0.255600
-87.075287 285.391602 -22.331701 0.836076
-73.591980 285.391602 -22.331701 1.050064
-60.108704 285.391602 -22.331701 1.340450
-46.625397 285.391602 -22.331701 1.809352
-33.142090 285.391602 -22.331701 2.068063
-19.658783 285.391602 -22.331701 1.744466
-6.175476 285.391602 -22.331701 1.336168
7.307800 285.391602 -22.331701 0.821440
20.791107 285.391602 -22.331701 0.316523
34.274414 285.391602 -22.331701 0.056374
47.757721 285.391602 -22.331701 -0.346722
61.240997 285.391602 -22.331701 -0.482508
74.724304 285.391602 -22.331701 -0.767529
88.207611 285.391602 -22.331701 -0.634014
101.690918 285.391602 -22.331701 -0.448654
115.174225 285.391602 -22.331701 -0.514527
128.657501 285.391602 -22.331701 -0.175968
142.140808 285.391602 -22.331701 0.217128
155.624115 285.391602 -22.331701 0.458958
169.107422 285.391602 -22.331701 0.395353
182.590698 285.391602 -22.331701 0.392389
196.074036 285.391602 -22.331701 0.588853
209.557312 285.391602 -22.331701 0.685340
223.040588 285.391602 -22.331701 0.832295
236.523926 285.391602 -22.331701 0.643410
250.007202 285.391602 -22.331701 0.495932
263.490540 285.391602 -22.331701 0.418357
276.973816 285.391602 -22.331701 0.261575
290.457092 285.391602 -22.331701 0.144720
303.940430 285.391602 -22.331701 0.075678
317.423706 285.391602 -22.331701 0.000000
330.907043 285.391602 -22.331701 0.000000
344.390320 285.391602 -22.331701 0.000000
-343.257996 271.908295 -22.331701 0.000000
-329.774689 271.908295 -22.331701 0.000000
-316.291382 271.908295 -22.331701 -0.058544
-302.808105 271.908295 -22.331701 -0.023958
-289.324799 271.908295 -22.331701 -0.018127
-275.841492 271.908295 -22.331701 -0.099574
-262.358185 271.908295 -22.331701 -0.109217
-248.874893 271.908295 -22.331701 -0.162449
-235.391602 271.908295 -22.331701 -0.132617
-221.908295 271.908295 -22.331701 -0.139729
-208.424988 271.908295 -22.331701 -0.222930
-194.941696 271.908295 -22.331701 -0.409152
-181.458389 271.908295 -22.331701 -0.596905
-167.975098 271.908295 -22.331701 -0.568636
-154.491791 271.908295 -22.331701 -0.739223
-141.008499 271.908295 -22.331701 -0.652675
-127.525192 271.908295 -22.331701 -0.574778
-114.041885 271.908295 -22.331701 -0.529148
-100.558594 271.908295 -22.331701 0.052784
-87.075287 271.908295 -22.331701 0.710654
-73.591980 271.908295 -22.331701 0.965746
-60.108704 271.908295 -22.331701 1.513137
-46.625397 271.908295 -22.331701 2.105042
-33.142090 271.908295 -22.331701 2.028744
-19.658783 271.908295 -22.331701 1.850781
-6.175476 271.908295 -22.331701 1.646456
7.307800 271.908295 -22.331701 0.912607
20.791107 271.908295 -22.331701 0.552481
34.274414 271.908295 -22.331701 0.091446
47.757721 271.908295 -22.331701 -0.330734
61.240997 271.908295 -22.331701 -0.536617
74.724304 271.908295 -22.331701 -0.560278
88.207611 271.908295 -22.331701 -0.744694
101.690918 271.908295 -22.331701 -0.507244
115.174225 271.908295 -22.331701 -0.328736
128.657501 271.908295 -22.331701 -0.194300
142.140808 271.908295 -22.331701 -0.052133
155.624115 271.908295 -22.331701 0.249859
169.107422 271.908295 -22.331701 0.384413
182.590698 271.908295 -22.331701 0.519039
196.074036 271.908295 -22.331701 0.707372
209.557312 271.908295 -22.331701 0.737856
223.040588 271.908295 -22.331701 0.616362
236.523926 271.908295 -22.331701 0.467656
250.007202 271.908295 -22.331701 0.404112
263.490540 271.908295 -22.331701 0.231740
276.973816 271.908295 -22.331701 0.193461
290.457092 271.908295 -22.331701 0.137154
303.940430 271.908295 -22.331701 0.070126
317.423706 271.908295 -22.331701 0.058367
330.907043 271.908295 -22.331701 0.000000
344.390320 271.908295 -22.331701 0.000000
-343.257996 258.424988 -22.331701 0.000000
-329.774689 258.424988 -22.331701 0.000000
-316.291382 258.424988 -22.331701 -0.063156
-302.808105 258.424988 -22.331701 -0.025449
-289.324799 258.424988 -22.331701 -0.050109
-275.841492 258.424988 -22.331701 -0.090163
-262.358185 258.424988 -22.331701 -0.119488
-248.874893 258.424988 -22.331701 -0.130832
-235.391602 258.424988 -22.331701 -0.143181
-221.908295 258.424988 -22.331701 -0.116051
-208.424988 258.424988 -22.331701 -0.161516
-194.941696 258.424988 -22.331701 -0.357165
-181.458389 258.424988 -22.331701 -0.464147
-167.975098 258.424988 -22.331701 -0.461975
-154.491791 258.424988 -22.331701 -0.471049
-141.008499 258.424988 -22.331701 -0.721743
-127.525192 258.424988 -22.331701 -0.631368
-114.041885 258.424988 -22.331701 -0.411749
-100.558594 258.424988 -22.331701 -0.198350
-87.075287 258.424988 -22.331701 0.356377
-73.591980 258.424988 -22.331701 0.824813
-60.108704 258.424988 -22.331701 1.356884
-46.625397 258.424988 -22.331701 2.207686
-33.142090 258.424988 -22.331701 2.313618
-19.658783 258.424988 -22.331701 1.910655
-6.175476 258.424988 -22.331701 1.380187
7.307800 258.424988 -22.331701 0.776221
20.791107 258.424988 -22.331701 0.388312
34.274414 258.424988 -22.331701 -0.131133
47.757721 258.424988 -22.331701 -0.794225
61.240997 258.424988 -22.331701 -0.944056
74.724304 258.424988 -22.331701 -0.953379
88.207611 258.424988 -22.331701 -1.000023
101.690918 258.424988 -22.331701 -0.669693
115.174225 258.424988 -22.331701 -0.525756
128.657501 258.424988 -22.331701 -0.009043
142.140808 258.424988 -22.331701 -0.232183
155.624115 258.424988 -22.331701 0.128034
169.107422 258.424988 -22.331701 0.424985
182.590698 258.424988 -22.331701 0.468005
196.074036 258.424988 -22.331701 0.567727
209.557312 258.424988 -22.331701 0.621317
223.040588 258.424988 -22.331701 0.452688
236.523926 258.424988 -22.331701 0.356549
250.007202 258.424988 -22.331701 0.328264
263.490540 258.424988 -22.331701 0.239621
276.973816 258.424988 -22.331701 0.155309
290.457092 258.424988 -22.331701 0.101658
303.940430 258.424988 -22.331701 0.080634
317.423706 258.424988 -22.331701 0.049244
330.907043 258.424988 -22.331701 0.000000
344.390320 258.424988 -22.331701 0.000000
-343.257996 244.941696 -22.331701 0.000000
-329.774689 244.941696 -22.331701 0.000000
-316.291382 244.941696 -22.331701 -0.039800
-302.808105 244.941696 -22.331701 -0.054580
-289.324799 244.941696 -22.331701 -0.040142
-275.841492 244.941696 -22.331701 -0.081409
-262.358185 244.941696 -22.331701 -0.096074
-248.874893 244.941696 -22.331701 -0.146387
-235.391602 244.941696 -22.331701 -0.171327
-221.908295 244.941696 -22.331701 -0.166115
-208.424988 244.941696 -22.331701 -0.168726
-194.941696 244.941696 -22.331701 -0.256419
-181.458389 244.941696 -22.331701 -0.424180
-167.975098 244.941696 -22.331701 -0.539796
-154.491791 244.941696 -22.331701 -0.488841
-141.008499 244.941696 -22.331701 -0.647633
-127.525192 244.941696 -22.331701 -0.577767
-114.041885 244.941696 -22.331701 -0.522982
-100.558594 244.941696 -22.331701 0.046377
-87.075287 244.941696 -22.331701 0.331511
-73.591980 244.941696 -22.331701 0.684934
-60.108704 244.941696 -22.331701 1.166233
-46.625397 244.941696 -22.331701 1.720742
-33.142090 244.941696 -22.331701 2.079130
-19.658783 244.941696 -22.331701 2.096221
-6.175476 244.941696 -22.331701 1.577573
7.307800 244.941696 -22.331701 0.985399
20.791107 244.941696 -22.331701 0.446930
34.274414 244.941696 -22.331701 -0.106809
47.757721 244.941696 -22.331701 -0.421030
61.240997 244.941696 -22.331701 -0.900699
74.724304 244.941696 -22.331701 -1.108065
88.207611 244.941696 -22.331701 -0.815408
101.690918 244.941696 -22.331701 -0.806777
115.174225 244.941696 -22.331701 -0.569289
128.657501 244.941696 -22.331701 -0.090921
142.140808 244.941696 -22.331701 -0.017396
155.624115 244.941696 -22.331701 0.238005
169.107422 244.941696 -22.331701 0.354341
182.590698 244.941696 -22.331701 0.360974
196.074036 244.941696 -22.331701 0.497741
209.557312 244.941696 -22.331701 0.442944
223.040588 244.941696 -22.331701 0.314814
236.523926 244.941696 -22.331701 0.267078
250.007202 244.941696 -22.331701 0.199745
263.490540 244.941696 -22.331701 0.138589
276.973816 244.941696 -22.331701 0.100701
290.457092 244.941696 -22.331701 0.062698
303.940430 244.941696 -22.331701 0.037966
317.423706 244.941696 -22.331701 0.050967
330.907043 244.941696 -22.331701 0.000000
344.390320 244.941696 -22.331701 0.000000
-343.257996 231.458389 -22.331701 0.000000
-329.774689 231.458389 -22.331701 0.000000
-316.291382 231.458389 -22.331701 -0.012752
-302.808105 231.458389 -22.331701 -0.061209
-289.324799 231.458389 -22.331701 -0.050761
-275.841492 231.458389 -22.331701 -0.090048
-262.358185 231.458389 -22.331701 -0.095019
-248.874893 231.458389 -22.331701 -0.142570
-235.391602 231.458389 -22.331701 -0.171064
-221.908295 231.458389 -22.331701 -0.179074
-208.424988 231.458389 -22.331701 -0.247607
-194.941696 231.458389 -22.331701 -0.341132
-181.458389 231.458389 -22.331701 -0.553393
-167.975098 231.458389 -22.331701 -0.680001
-154.491791 231.458389 -22.331701 -0.690069
-141.008499 231.458389 -22.331701 -0.604475
-127.525192 231.458389 -22.331701 -0.528343
-114.041885 231.458389 -22.331701 -0.375145
-100.558594 231.458389 -22.331701 -0.037915
-87.075287 231.458389 -22.331701 0.151317
-73.591980 231.458389 -22.331701 0.305731
-60.108704 231.458389 -22.331701 0.900355
-46.625397 231.458389 -22.331701 1.729944
-33.142090 231.458389 -22.331701 1.918859
-19.658783 231.458389 -22.331701 2.297539
-6.175476 231.458389 -22.331701 1.714376
7.307800 231.458389 -22.331701 1.279322
20.791107 231.458389 -22.331701 0.549238
34.274414 231.458389 -22.331701 -0.081484
47.757721 231.458389 -22.331701 -0.950272
61.240997 231.458389 -22.331701 -1.404297
74.724304 231.458389 -22.331701 -1.412084
88.207611 231.458389 -22.331701 -1.179792
101.690918 231.458389 -22.331701 -0.887060
115.174225 231.458389 -22.331701 -0.452159
128.657501 231.458389 -22.331701 -0.376839
142.140808 231.458389 -22.331701 0.043151
155.624115 231.458389 -22.331701 0.360444
169.107422 231.458389 -22.331701 0.328715
182.590698 231.458389 -22.331701 0.310791
196.074036 231.458389 -22.331701 0.341630
209.557312 231.458389 -22.331701 0.282519
223.040588 231.458389 -22.331701 0.203742
236.523926 231.458389 -22.331701 0.137151
250.007202 231.458389 -22.331701 0.031083
263.490540 231.458389 -22.331701 0.010600
276.973816 231.458389 -22.331701 0.005991
290.457092 231.458389 -22.331701 -0.017491
303.940430 231.458389 -22.331701 -0.039765
317.423706 231.458389 -22.331701 0.001663
330.907043 231.458389 -22.331701 0.000000
344.390320 231.458389 -22.331701 0.000000
-343.257996 217.975098 -22.331701 0.000000
-329.774689 217.975098 -22.331701 0.000000
-316.291382 217.975098 -22.331701 -0.005432
-302.808105 217.975098 -22.331701 -0.012828
-289.324799 217.975098 -22.331701 -0.061248
-275.841492 217.975098 -22.331701 -0.084935
-262.358185 217.975098 -22.331701 -0.140254
-248.874893 217.975098 -22.331701 -0.225997
-235.391602 217.975098 -22.331701 -0.185297
-221.908295 217.975098 -22.331701 -0.232511
-208.424988 217.975098 -22.331701 -0.266830
-194.941696 217.975098 -22.331701 -0.456237
-181.458389 217.975098 -22.331701 -0.492173
-167.975098 217.975098 -22.331701 -0.702825
-154.491791 217.975098 -22.331701 -0.713207
-141.008499 217.975098 -22.331701 -0.757166
-127.525192 217.975098 -22.331701 -0.546478
-114.041885 217.975098 -22.331701 -0.187548
-100.558594 217.975098 -22.331701 -0.096341
-87.075287 217.975098 -22.331701 0.137676
-73.591980 217.975098 -22.331701 0.358078
-60.108704 217.975098 -22.331701 0.829200
-46.625397 217.975098 -22.331701 1.573614
-33.142090 217.975098 -22.331701 1.708899
-19.658783 217.975098 -22.331701 1.978436
-6.175476 217.975098 -22.331701 1.815663
7.307800 217.975098 -22.331701 1.398080
20.791107 217.975098 -22.331701 0.238856
34.274414 217.975098 -22.331701 -0.504346
47.757721 217.975098 -22.331701 -1.412956
61.240997 217.975098 -22.331701 -1.827492
74.724304 217.975098 -22.331701 -1.837964
88.207611 217.975098 -22.331701 -1.617606
101.690918 217.975098 -22.331701 -1.039461
115.174225 217.975098 -22.331701 -0.600490
128.657501 217.975098 -22.331701 -0.274106
142.140808 217.975098 -22.331701 0.021617
155.624115 217.975098 -22.331701 0.177590
169.107422 217.975098 -22.331701 0.337812
182.590698 217.975098 -22.331701 0.257783
196.074036 217.975098 -22.331701 0.314019
209.557312 217.975098 -22.331701 0.178436
223.040588 217.975098 -22.331701 0.139207
236.523926 217.975098 -22.331701 0.038059
250.007202 217.975098 -22.331701 -0.066813
263.490540 217.975098 -22.331701 -0.046599
276.973816 217.975098 -22.331701 -0.061105
290.457092 217.975098 -22.331701 -0.065418
303.940430 217.975098 -22.331701 -0.035291
317.423706 217.975098 -22.331701 -0.038548
330.907043 217.975098 -22.331701 0.000000
344.390320 217.975098 -22.331701 0.000000
-343.257996 204.491791 -22.331701 0.000000
-329.774689 204.491791 -22.331701 0.000000
-316.291382 204.491791 -22.331701 -0.041448
-302.808105 204.491791 -22.331701 -0.077038
-289.324799 204.491791 -22.331701 -0.095975
-275.841492 204.491791 -22.331701 -0.087412
-262.358185 204.491791 -22.331701 -0.161655
-248.874893 204.491791 -22.331701 -0.199351
-235.391602 204.491791 -22.331701 -0.196746
-221.908295 204.491791 -22.331701 -0.246819
-208.424988 204.491791 -22.331701 -0.282683
-194.941696 204.491791 -22.331701 -0.537753
-181.458389 204.491791 -22.331701 -0.567137
-167.975098 204.491791 -22.331701 -0.705375
-154.491791 204.491791 -22.331701 -0.806968
-141.008499 204.491791 -22.331701 -0.744075
-127.525192 204.491791 -22.331701 -0.542680
-114.041885 204.491791 -22.331701 -0.259674
-100.558594 204.491791 -22.331701 -0.134647
-87.075287 204.491791 -22.331701 0.243877
-73.591980 204.491791 -22.331701 0.383759
-60.108704 204.491791 -22.331701 0.652357
-46.625397 204.491791 -22.331701 1.322394
-33.142090 204.491791 -22.331701 1.933698
-19.658783 204.491791 -22.331701 1.649575
-6.175476 204.491791 -22.331701 1.137729
7.307800 204.491791 -22.331701 0.652245
20.791107 204.491791 -22.331701 -0.208718
34.274414 204.491791 -22.331701 -1.209485
47.757721 204.491791 -22.331701 -1.764734
61.240997 204.491791 -22.331701 -2.088804
74.724304 204.491791 -22.331701 -1.787703
88.207611 204.491791 -22.331701 -1.436937
101.690918 204.491791 -22.331701 -1.055606
115.174225 204.491791 -22.331701 -0.671329
128.657501 204.491791 -22.331701 -0.434930
142.140808 204.491791 -22.331701 0.055999
155.624115 204.491791 -22.331701 0.116660
169.107422 204.491791 -22.331701 0.150299
182.590698 204.491791 -22.331701 0.168079
196.074036 204.491791 -22.331701 0.135897
209.557312 204.491791 -22.331701 0.080262
223.040588 204.491791 -22.331701 -0.043804
236.523926 204.491791 -22.331701 -0.064477
250.007202 204.491791 -22.331701 -0.114374
263.490540 204.491791 -22.331701 -0.114280
276.973816 204.491791 -22.331701 -0.128825
290.457092 204.491791 -22.331701 -0.083905
303.940430 204.491791 -22.331701 -0.055974
317.423706 204.491791 -22.331701 -0.053742
330.907043 204.491791 -22.331701 0.000000
344.390320 204.491791 -22.331701 0.000000
-343.257996 191.008499 -22.331701 0.000000
-329.774689 191.008499 -22.331701 0.000000
-316.291382 191.008499 -22.331701 -0.023841
-302.808105 191.008499 -22.331701 -0.080280
-289.324799 191.008499 -22.331701 -0.094206
-275.841492 191.008499 -22.331701 -0.021442
-262.358185 191.008499 -22.331701 -0.136631
-248.874893 191.008499 -22.331701 -0.179087
-235.391602 191.008499 -22.331701 -0.253315
-221.908295 191.008499 -22.331701 -0.315102
-208.424988 191.008499 -22.331701 -0.339396
-194.941696 191.008499 -22.331701 -0.570236
-181.458389 191.008499 -22.331701 -0.501524
-167.975098 191.008499 -22.331701 -0.518568
-154.491791 191.008499 -22.331701 -0.496069
-141.008499 191.008499 -22.331701 -0.559013
-127.525192 191.008499 -22.331701 -0.459439
-114.041885 191.008499 -22.331701 -0.399821
-100.558594 191.008499 -22.331701 -0.279371
-87.075287 191.008499 -22.331701 -0.014334
-73.591980 191.008499 -22.331701 0.250399
-60.108704 191.008499 -22.331701 0.714759
-46.625397 191.008499 -22.331701 1.202142
-33.142090 191.008499 -22.331701 1.739262
-19.658783 191.008499 -22.331701 1.670632
-6.175476 191.008499 -22.331701 0.968919
7.307800 191.008499 -22.331701 -0.301100
20.791107 191.008499 -22.331701 -0.775725
34.274414 191.008499 -22.331701 -1.519248
47.757721 191.008499 -22.331701 -2.080282
61.240997 191.008499 -22.331701 -2.089211
74.724304 191.008499 -22.331701 -1.545462
88.207611 191.008499 -22.331701 -1.377177
101.690918 191.008499 -22.331701 -0.892706
115.174225 191.008499 -22.331701 -0.565052
128.657501 191.008499 -22.331701 -0.332248
142.140808 191.008499 -22.331701 -0.016516
155.624115 191.008499 -22.331701 0.056009
169.107422 191.008499 -22.331701 0.163033
182.590698 191.008499 -22.331701 0.097304
196.074036 191.008499 -22.331701 0.041506
209.557312 191.008499 -22.331701 0.100313
223.040588 191.008499 -22.331701 0.006006
236.523926 191.008499 -22.331701 -0.096285
250.007202 191.008499 -22.331701 -0.132148
263.490540 191.008499 -22.331701 -0.115290
276.973816 191.008499 -22.331701 -0.125240
290.457092 191.008499 -22.331701 -0.097631
303.940430 191.008499 -22.331701 -0.053854
317.423706 191.008499 -22.331701 -0.053697
330.907043 191.008499 -22.331701 0.000000
344.390320 191.008499 -22.331701 0.000000
-343.257996 177.525192 -22.331701 0.000000
-329.774689 177.525192 -22.331701 0.000000
-316.291382 177.525192 -22.331701 -0.038845
-302.808105 177.525192 -22.331701 -0.068145
-289.324799 177.525192 -22.331701 -0.062863
-275.841492 177.525192 -22.331701 -0.038731
-262.358185 177.525192 -22.331701 -0.038401
-248.874893 177.525192 -22.331701 -0.127737
-235.391602 177.525192 -22.331701 -0.313731
-221.908295 177.525192 -22.331701 -0.349958
-208.424988 177.525192 -22.331701 -0.406365
-194.941696 177.525192 -22.331701 -0.622071
-181.458389 177.525192 -22.331701 -0.550977
-167.975098 177.525192 -22.331701 -0.408688
-154.491791 177.525192 -22.331701 -0.502419
-141.008499 177.525192 -22.331701 -0.585765
-127.525192 177.525192 -22.331701 -0.534265
-114.041885 177.525192 -22.331701 -0.470242
-100.558594 177.525192 -22.331701 -0.149428
-87.075287 177.525192 -22.331701 -0.029062
-73.591980 177.525192 -22.331701 0.425733
-60.108704 177.525192 -22.331701 1.027840
-46.625397 177.525192 -22.331701 1.211999
-33.142090 177.525192 -22.331701 1.693923
-19.658783 177.525192 -22.331701 1.341067
-6.175476 177.525192 -22.331701 0.629457
7.307800 177.525192 -22.331701 -0.161113
20.791107 177.525192 -22.331701 -1.008282
34.274414 177.525192 -22.331701 -1.684102
47.757721 177.525192 -22.331701 -2.030154
61.240997 177.525192 -22.331701 -1.844543
74.724304 177.525192 -22.331701 -1.464810
88.207611 177.525192 -22.331701 -1.138351
101.690918 177.525192 -22.331701 -0.627007
115.174225 177.525192 -22.331701 -0.284621
128.657501 177.525192 -22.331701 -0.286620
142.140808 177.525192 -22.331701 -0.118529
155.624115 177.525192 -22.331701 0.000681
169.107422 177.525192 -22.331701 -0.029998
182.590698 177.525192 -22.331701 -0.041524
196.074036 177.525192 -22.331701 0.001748
209.557312 177.525192 -22.331701 0.013446
223.040588 177.525192 -22.331701 -0.090153
236.523926 177.525192 -22.331701 -0.101403
250.007202 177.525192 -22.331701 -0.107676
263.490540 177.525192 -22.331701 -0.101076
276.973816 177.525192 -22.331701 -0.103001
290.457092 177.525192 -22.331701 -0.076939
303.940430 177.525192 -22.331701 -0.051199
317.423706 177.525192 -22.331701 -0.051089
330.907043 177.525192 -22.331701 0.000000
344.390320 177.525192 -22.331701 0.000000
-343.257996 164.041885 -22.331701 0.000000
-329.774689 164.041885 -22.331701 0.000000
-316.291382 164.041885 -22.331701 -0.057752
-302.808105 164.041885 -22.331701 -0.010209
-289.324799 164.041885 -22.331701 0.010320
-275.841492 164.041885 -22.331701 0.007321
-262.358185 164.041885 -22.331701 0.046898
-248.874893 164.041885 -22.331701 -0.040239
-235.391602 164.041885 -22.331701 -0.133289
-221.908295 164.041885 -22.331701 -0.310708
-208.424988 164.041885 -22.331701 -0.444567
-194.941696 164.041885 -22.331701 -0.557488
-181.458389 164.041885 -22.331701 -0.665655
-167.975098 164.041885 -22.331701 -0.615308
-154.491791 164.041885 -22.331701 -0.637187
-141.008499 164.041885 -22.331701 -0.674248
-127.525192 164.041885 -22.331701 -0.458986
-114.041885 164.041885 -22.331701 -0.374107
-100.558594 164.041885 -22.331701 -0.166324
-87.075287 164.041885 -22.331701 -0.016991
-73.591980 164.041885 -22.331701 0.409477
-60.108704 164.041885 -22.331701 0.906803
-46.625397 164.041885 -22.331701 1.219432
-33.142090 164.041885 -22.331701 1.321308
-19.658783 164.041885 -22.331701 1.063023
-6.175476 164.041885 -22.331701 0.172233
7.307800 164.041885 -22.331701 -0.543927
20.791107 164.041885 -22.331701 -1.175911
34.274414 164.041885 -22.331701 -1.511980
47.757721 164.041885 -22.331701 -1.871913
61.240997 164.041885 -22.331701 -1.866471
74.724304 164.041885 -22.331701 -1.484026
88.207611 164.041885 -22.331701 -0.915678
101.690918 164.041885 -22.331701 -0.399935
115.174225 164.041885 -22.331701 -0.110885
128.657501 164.041885 -22.331701 -0.115410
142.140808 164.041885 -22.331701 -0.105072
155.624115 164.041885 -22.331701 -0.039182
169.107422 164.041885 -22.331701 0.016243
182.590698 164.041885 -22.331701 -0.045156
196.074036 164.041885 -22.331701 -0.049383
209.557312 164.041885 -22.331701 -0.087058
223.040588 164.041885 -22.331701 -0.133691
236.523926 164.041885 -22.331701 -0.109289
250.007202 164.041885 -22.331701 -0.122972
263.490540 164.041885 -22.331701 -0.089003
276.973816 164.041885 -22.331701 -0.078277
290.457092 164.041885 -22.331701 -0.059476
303.940430 164.041885 -22.331701 -0.046645
317.423706 164.041885 -22.331701 -0.036052
330.907043 164.041885 -22.331701 0.000000
344.390320 164.041885 -22.331701 0.000000
-343.257996 150.558594 -22.331701 0.000000
-329.774689 150.558594 -22.331701 0.000000
-316.291382 150.558594 -22.331701 -0.007551
-302.808105 150.558594 -22.331701 0.053108
-289.324799 150.558594 -22.331701 0.056860
-275.841492 150.558594 -22.331701 0.074815
-262.358185 150.558594 -22.331701 0.063471
-248.874893 150.558594 -22.331701 -0.063123
-235.391602 150.558594 -22.331701 -0.082309
-221.908295 150.558594 -22.331701 -0.203754
-208.424988 150.558594 -22.331701 -0.415608
-194.941696 150.558594 -22.331701 -0.582476
-181.458389 150.558594 -22.331701 -0.666627
-167.975098 150.558594 -22.331701 -0.637946
-154.491791 150.558594 -22.331701 -0.821006
-141.008499 150.558594 -22.331701 -0.710952
-127.525192 150.558594 -22.331701 -0.556193
-114.041885 150.558594 -22.331701 -0.381347
-100.558594 150.558594 -22.331701 -0.153854
-87.075287 150.558594 -22.331701 0.006227
-73.591980 150.558594 -22.331701 0.682106
-60.108704 150.558594 -22.331701 1.073603
-46.625397 150.558594 -22.331701 1.488372
-33.142090 150.558594 -22.331701 1.285763
-19.658783 150.558594 -22.331701 1.070858
-6.175476 150.558594 -22.331701 0.344845
7.307800 150.558594 -22.331701 -0.440772
20.791107 150.558594 -22.331701 -1.084110
34.274414 150.558594 -22.331701 -1.557606
47.757721 150.558594 -22.331701 -1.647473
61.240997 150.558594 -22.331701 -1.574918
74.724304 150.558594 -22.331701 -1.237769
88.207611 150.558594 -22.331701 -0.708203
101.690918 150.558594 -22.331701 -0.364814
115.174225 150.558594 -22.331701 -0.054963
128.657501 150.558594 -22.331701 0.039318
142.140808 150.558594 -22.331701 0.060337
155.624115 150.558594 -22.331701 0.022160
169.107422 150.558594 -22.331701 -0.014995
182.590698 150.558594 -22.331701 -0.041066
196.074036 150.558594 -22.331701 -0.055426
209.557312 150.558594 -22.331701 -0.077354
223.040588 150.558594 -22.331701 -0.077942
236.523926 150.558594 -22.331701 -0.099801
250.007202 150.558594 -22.331701 -0.080199
263.490540 150.558594 -22.331701 -0.074666
276.973816 150.558594 -22.331701 -0.062701
290.457092 150.558594 -22.331701 -0.053888
303.940430 150.558594 -22.331701 -0.046634
317.423706 150.558594 -22.331701 -0.044969
330.907043 150.558594 -22.331701 0.000000
344.390320 150.558594 -22.331701 0.000000
-343.257996 137.075287 -22.331701 0.000000
-329.774689 137.075287 -22.331701 0.000000
-316.291382 137.075287 -22.331701 0.054549
-302.808105 137.075287 -22.331701 0.099726
-289.324799 137.075287 -22.331701 0.085412
-275.841492 137.075287 -22.331701 0.111381
-262.358185 137.075287 -22.331701 0.201666
-248.874893 137.075287 -22.331701 0.027989
-235.391602 137.075287 -22.331701 -0.031379
-221.908295 137.075287 -22.331701 -0.194276
-208.424988 137.075287 -22.331701 -0.402131
-194.941696 137.075287 -22.331701 -0.501145
-181.458389 137.075287 -22.331701 -0.743039
-167.975098 137.075287 -22.331701 -0.813241
-154.491791 137.075287 -22.331701 -0.761127
-141.008499 137.075287 -22.331701 -0.642032
-127.525192 137.075287 -22.331701 -0.684175
-114.041885 137.075287 -22.331701 -0.401582
-100.558594 137.075287 -22.331701 -0.146607
-87.075287 137.075287 -22.331701 0.335295
-73.591980 137.075287 -22.331701 1.119973
-60.108704 137.075287 -22.331701 1.537303
-46.625397 137.075287 -22.331701 1.593510
-33.142090 137.075287 -22.331701 1.368904
-19.658783 137.075287 -22.331701 1.037056
-6.175476 137.075287 -22.331701 0.253686
7.307800 137.075287 -22.331701 -0.044352
20.791107 137.075287 -22.331701 -1.066798
34.274414 137.075287 -22.331701 -1.708742
47.757721 137.075287 -22.331701 -1.843825
61.240997 137.075287 -22.331701 -1.639814
74.724304 137.075287 -22.331701 -1.118075
88.207611 137.075287 -22.331701 -0.439445
101.690918 137.075287 -22.331701 -0.092646
115.174225 137.075287 -22.331701 0.024475
128.657501 137.075287 -22.331701 0.167510
142.140808 137.075287 -22.331701 0.102323
155.624115 137.075287 -22.331701 0.010307
169.107422 137.075287 -22.331701 0.060217
182.590698 137.075287 -22.331701 -0.009083
196.074036 137.075287 -22.331701 -0.040710
209.557312 137.075287 -22.331701 -0.061744
223.040588 137.075287 -22.331701 -0.069865
236.523926 137.075287 -22.331701 -0.060551
250.007202 137.075287 -22.331701 -0.055767
263.490540 137.075287 -22.331701 -0.051047
276.973816 137.075287 -22.331701 -0.037049
290.457092 137.075287 -22.331701 -0.043123
303.940430 137.075287 -22.331701 -0.039132
317.423706 137.075287 -22.331701 -0.030432
330.907043 137.075287 -22.331701 0.000000
344.390320 137.075287 -22.331701 0.000000
-343.257996 123.591980 -22.331701 0.000000
-329.774689 123.591980 -22.331701 0.000000
-316.291382 123.591980 -22.331701 0.000000
-302.808105 123.591980 -22.331701 0.169254
-289.324799 123.591980 -22.331701 0.166931
-275.841492 123.591980 -22.331701 0.120112
-262.358185 123.591980 -22.331701 0.154438
-248.874893 123.591980 -22.331701 0.099949
-235.391602 123.591980 -22.331701 -0.005965
-221.908295 123.591980 -22.331701 -0.192133
-208.424988 123.591980 -22.331701 -0.293322
-194.941696 123.591980 -22.331701 -0.466241
-181.458389 123.591980 -22.331701 -0.721179
-167.975098 123.591980 -22.331701 -0.826028
-154.491791 123.591980 -22.331701 -0.836281
-141.008499 123.591980 -22.331701 -0.778232
-127.525192 123.591980 -22.331701 -0.521175
-114.041885 123.591980 -22.331701 -0.241544
-100.558594 123.591980 -22.331701 0.258502
-87.075287 123.591980 -22.331701 0.972738
-73.591980 123.591980 -22.331701 1.590261
-60.108704 123.591980 -22.331701 1.952322
-46.625397 123.591980 -22.331701 1.731161
-33.142090 123.591980 -22.331701 1.411543
-19.658783 123.591980 -22.331701 1.105591
-6.175476 123.591980 -22.331701 0.271105
7.307800 123.591980 -22.331701 -0.338311
20.791107 123.591980 -22.331701 -0.897532
34.274414 123.591980 -22.331701 -1.651402
47.757721 123.591980 -22.331701 -1.600623
61.240997 123.591980 -22.331701 -1.626343
74.724304 123.591980 -22.331701 -1.214965
88.207611 123.591980 -22.331701 -0.301081
101.690918 123.591980 -22.331701 0.282871
115.174225 123.591980 -22.331701 0.229594
128.657501 123.591980 -22.331701 0.252357
142.140808 123.591980 -22.331701 0.153264
155.624115 123.591980 -22.331701 0.084133
169.107422 123.591980 -22.331701 0.038789
182.590698 123.591980 -22.331701 -0.026024
196.074036 123.591980 -22.331701 -0.034227
209.557312 123.591980 -22.331701 -0.034770
223.040588 123.591980 -22.331701 -0.053229
236.523926 123.591980 -22.331701 -0.054463
250.007202 123.591980 -22.331701 -0.048984
263.490540 123.591980 -22.331701 -0.039185
276.973816 123.591980 -22.331701 -0.032771
290.457092 123.591980 -22.331701 -0.032798
303.940430 123.591980 -22.331701 -0.014746
317.423706 123.591980 -22.331701 -0.026854
330.907043 123.591980 -22.331701 0.000000
344.390320 123.591980 -22.331701 0.000000
-343.257996 110.108704 -22.331701 0.000000
-329.774689 110.108704 -22.331701 0.000000
-316.291382 110.108704 -22.331701 0.000000
-302.808105 110.108704 -22.331701 0.318669
-289.324799 110.108704 -22.331701 0.277622
-275.841492 110.108704 -22.331701 0.212083
-262.358185 110.108704 -22.331701 0.121115
-248.874893 110.108704 -22.331701 0.101642
-235.391602 110.108704 -22.331701 0.052926
-221.908295 110.108704 -22.331701 -0.030975
-208.424988 110.108704 -22.331701 -0.216768
-194.941696 110.108704 -22.331701 -0.564756
-181.458389 110.108704 -22.331701 -0.999237
-167.975098 110.108704 -22.331701 -0.919316
-154.491791 110.108704 -22.331701 -1.013002
-141.008499 110.108704 -22.331701 -0.735506
-127.525192 110.108704 -22.331701 -0.397533
-114.041885 110.108704 -22.331701 0.180755
-100.558594 110.108704 -22.331701 0.537972
-87.075287 110.108704 -22.331701 1.177189
-73.591980 110.108704 -22.331701 1.597201
-60.108704 110.108704 -22.331701 1.793981
-46.625397 110.108704 -22.331701 1.986819
-33.142090 110.108704 -22.331701 1.533069
-19.658783 110.108704 -22.331701 1.251794
-6.175476 110.108704 -22.331701 0.604834
7.307800 110.108704 -22.331701 -0.237863
20.791107 110.108704 -22.331701 -0.960393
34.274414 110.108704 -22.331701 -1.541313
47.757721 110.108704 -22.331701 -1.728583
61.240997 110.108704 -22.331701 -1.395918
74.724304 110.108704 -22.331701 -0.811095
88.207611 110.108704 -22.331701 -0.168922
101.690918 110.108704 -22.331701 0.353701
115.174225 110.108704 -22.331701 0.463602
128.657501 110.108704 -22.331701 0.493366
142.140808 110.108704 -22.331701 0.378116
155.624115 110.108704 -22.331701 0.242201
169.107422 110.108704 -22.331701 0.087493
182.590698 110.108704 -22.331701 0.034891
196.074036 110.108704 -22.331701 0.028386
209.557312 110.108704 -22.331701 -0.042597
223.040588 110.108704 -22.331701 -0.053283
236.523926 110.108704 -22.331701 -0.059481
250.007202 110.108704 -22.331701 -0.045007
263.490540 110.108704 -22.331701 -0.027387
276.973816 110.108704 -22.331701 -0.021729
290.457092 110.108704 -22.331701 -0.019922
303.940430 110.108704 -22.331701 -0.023026
317.423706 110.108704 -22.331701 -0.024600
330.907043 110.108704 -22.331701 0.000000
344.390320 110.108704 -22.331701 0.000000
-343.257996 96.625397 -22.331701 0.000000
-329.774689 96.625397 -22.331701 0.000000
-316.291382 96.625397 -22.331701 0.000000
-302.808105 96.625397 -22.331701 0.232016
-289.324799 96.625397 -22.331701 0.235754
-275.841492 96.625397 -22.331701 0.243985
-262.358185 96.625397 -22.331701 0.105997
-248.874893 96.625397 -22.331701 0.183082
-235.391602 96.625397 -22.331701 -0.071201
-221.908295 96.625397 -22.331701 -0.129157
-208.424988 96.625397 -22.331701 -0.160562
-194.941696 96.625397 -22.331701 -0.592394
-181.458389 96.625397 -22.331701 -0.662777
-167.975098 96.625397 -22.331701 -0.852559
-154.491791 96.625397 -22.331701 -0.789943
-141.008499 96.625397 -22.331701 -0.474911
-127.525192 96.625397 -22.331701 -0.015691
-114.041885 96.625397 -22.331701 0.317276
-100.558594 96.625397 -22.331701 0.762690
-87.075287 96.625397 -22.331701 1.127741
-73.591980 96.625397 -22.331701 1.466104
-60.108704 96.625397 -22.331701 2.001439
-46.625397 96.625397 -22.331701 1.906768
-33.142090 96.625397 -22.331701 1.463481
-19.658783 96.625397 -22.331701 1.145357
-6.175476 96.625397 -22.331701 0.541606
7.307800 96.625397 -22.331701 -0.103310
20.791107 96.625397 -22.331701 -0.983651
34.274414 96.625397 -22.331701 -1.337015
47.757721 96.625397 -22.331701 -1.215817
61.240997 96.625397 -22.331701 -1.133757
74.724304 96.625397 -22.331701 -0.620747
88.207611 96.625397 -22.331701 -0.296378
101.690918 96.625397 -22.331701 0.130079
115.174225 96.625397 -22.331701 0.577246
128.657501 96.625397 -22.331701 0.551627
142.140808 96.625397 -22.331701 0.506917
155.624115 96.625397 -22.331701 0.382103
169.107422 96.625397 -22.331701 0.234638
182.590698 96.625397 -22.331701 0.141918
196.074036 96.625397 -22.331701 0.096411
209.557312 96.625397 -22.331701 0.006305
223.040588 96.625397 -22.331701 -0.041889
236.523926 96.625397 -22.331701 -0.035063
250.007202 96.625397 -22.331701 -0.028111
263.490540 96.625397 -22.331701 -0.017294
276.973816 96.625397 -22.331701 -0.013908
290.457092 96.625397 -22.331701 -0.012637
303.940430 96.625397 -22.331701 -0.016828
317.423706 96.625397 -22.331701 -0.023051
330.907043 96.625397 -22.331701 0.000000
344.390320 96.625397 -22.331701 0.000000
-343.257996 83.142090 -22.331701 0.000000
-329.774689 83.142090 -22.331701 0.000000
-316.291382 83.142090 -22.331701 0.000000
-302.808105 83.142090 -22.331701 0.283653
-289.324799 83.142090 -22.331701 0.158426
-275.841492 83.142090 -22.331701 0.160058
-262.358185 83.142090 -22.331701 0.202979
-248.874893 83.142090 -22.331701 0.179226
-235.391602 83.142090 -22.331701 0.016861
-221.908295 83.142090 -22.331701 -0.152359
-208.424988 83.142090 -22.331701 -0.244528
-194.941696 83.142090 -22.331701 -0.527341
-181.458389 83.142090 -22.331701 -0.715914
-167.975098 83.142090 -22.331701 -0.639030
-154.491791 83.142090 -22.331701 -0.387100
-141.008499 83.142090 -22.331701 -0.266146
-127.525192 83.142090 -22.331701 0.012423
-114.041885 83.142090 -22.331701 0.458529
-100.558594 83.142090 -22.331701 1.097129
-87.075287 83.142090 -22.331701 1.430270
-73.591980 83.142090 -22.331701 1.642329
-60.108704 83.142090 -22.331701 1.964842
-46.625397 83.142090 -22.331701 1.466639
-33.142090 83.142090 -22.331701 1.146605
-19.658783 83.142090 -22.331701 0.740992
-6.175476 83.142090 -22.331701 0.354237
7.307800 83.142090 -22.331701 -0.287271
20.791107 83.142090 -22.331701 -0.824316
34.274414 83.142090 -22.331701 -1.232898
47.757721 83.142090 -22.331701 -1.060277
61.240997 83.142090 -22.331701 -0.987594
74.724304 83.142090 -22.331701 -0.577106
88.207611 83.142090 -22.331701 -0.004290
101.690918 83.142090 -22.331701 0.099372
115.174225 83.142090 -22.331701 0.323347
128.657501 83.142090 -22.331701 0.383833
142.140808 83.142090 -22.331701 0.492709
155.624115 83.142090 -22.331701 0.457887
169.107422 83.142090 -22.331701 0.405925
182.590698 83.142090 -22.331701 0.338125
196.074036 83.142090 -22.331701 0.206813
209.557312 83.142090 -22.331701 0.076355
223.040588 83.142090 -22.331701 0.008474
236.523926 83.142090 -22.331701 -0.015525
250.007202 83.142090 -22.331701 -0.003992
263.490540 83.142090 -22.331701 -0.003949
276.973816 83.142090 -22.331701 -0.010777
290.457092 83.142090 -22.331701 -0.008374
303.940430 83.142090 -22.331701 -0.007197
317.423706 83.142090 -22.331701 -0.016444
330.907043 83.142090 -22.331701 0.000000
344.390320 83.142090 -22.331701 0.000000
-343.257996 69.658783 -22.331701 0.000000
-329.774689 69.658783 -22.331701 0.000000
-316.291382 69.658783 -22.331701 0.000000
-302.808105 69.658783 -22.331701 0.000000
-289.324799 69.658783 -22.331701 0.133470
-275.841492 69.658783 -22.331701 0.140913
-262.358185 69.658783 -22.331701 0.082020
-248.874893 69.658783 -22.331701 0.126243
-235.391602 69.658783 -22.331701 -0.059424
-221.908295 69.658783 -22.331701 0.040956
-208.424988 69.658783 -22.331701 -0.130085
-194.941696 69.658783 -22.331701 -0.228974
-181.458389 69.658783 -22.331701 -0.400384
-167.975098 69.658783 -22.331701 -0.382495
-154.491791 69.658783 -22.331701 -0.392165
-141.008499 69.658783 -22.331701 -0.174635
-127.525192 69.658783 -22.331701 0.125261
-114.041885 69.658783 -22.331701 0.226175
-100.558594 69.658783 -22.331701 0.699289
-87.075287 69.658783 -22.331701 1.283186
-73.591980 69.658783 -22.331701 1.580508
-60.108704 69.658783 -22.331701 1.695296
-46.625397 69.658783 -22.331701 1.020307
-33.142090 69.658783 -22.331701 0.502480
-19.658783 69.658783 -22.331701 0.666193
-6.175476 69.658783 -22.331701 0.433269
7.307800 69.658783 -22.331701 -0.083790
20.791107 69.658783 -22.331701 -0.638642
34.274414 69.658783 -22.331701 -1.059444
47.757721 69.658783 -22.331701 -1.087223
61.240997 69.658783 -22.331701 -0.877589
74.724304 69.658783 -22.331701 -0.650679
88.207611 69.658783 -22.331701 -0.080856
101.690918 69.658783 -22.331701 0.092151
115.174225 69.658783 -22.331701 0.254822
128.657501 69.658783 -22.331701 0.347602
142.140808 69.658783 -22.331701 0.510512
155.624115 69.658783 -22.331701 0.474557
169.107422 69.658783 -22.331701 0.609847
182.590698 69.658783 -22.331701 0.531636
196.074036 69.658783 -22.331701 0.384407
209.557312 69.658783 -22.331701 0.247760
223.040588 69.658783 -22.331701 0.088029
236.523926 69.658783 -22.331701 0.037648
250.007202 69.658783 -22.331701 0.026928
263.490540 69.658783 -22.331701 0.012628
276.973816 69.658783 -22.331701 0.004368
290.457092 69.658783 -22.331701 -0.000615
303.940430 69.658783 -22.331701 -0.012247
317.423706 69.658783 -22.331701 -0.010934
330.907043 69.658783 -22.331701 0.000000
344.390320 69.658783 -22.331701 0.000000
-343.257996 56.175476 -22.331701 0.000000
-329.774689 56.175476 -22.331701 0.000000
-316.291382 56.175476 -22.331701 0.000000
-302.808105 56.175476 -22.331701 0.258425
-289.324799 56.175476 -22.331701 0.153895
-275.841492 56.175476 -22.331701 0.182651
-262.358185 56.175476 -22.331701 0.178299
-248.874893 56.175476 -22.331701 0.133485
-235.391602 56.175476 -22.331701 -0.076818
-221.908295 56.175476 -22.331701 -0.166745
-208.424988 56.175476 -22.331701 -0.278618
-194.941696 56.175476 -22.331701 -0.189279
-181.458389 56.175476 -22.331701 -0.164061
-167.975098 56.175476 -22.331701 -0.204820
-154.491791 56.175476 -22.331701 0.041030
-141.008499 56.175476 -22.331701 0.024258
-127.525192 56.175476 -22.331701 0.057383
-114.041885 56.175476 -22.331701 0.395059
-100.558594 56.175476 -22.331701 1.050735
-87.075287 56.175476 -22.331701 1.583795
-73.591980 56.175476 -22.331701 1.393391
-60.108704 56.175476 -22.331701 1.591054
-46.625397 56.175476 -22.331701 1.112612
-33.142090 56.175476 -22.331701 1.071883
-19.658783 56.175476 -22.331701 0.641046
-6.175476 56.175476 -22.331701 0.337179
7.307800 56.175476 -22.331701 -0.044851
20.791107 56.175476 -22.331701 -0.538286
34.274414 56.175476 -22.331701 -1.146541
47.757721 56.175476 -22.331701 -1.332373
61.240997 56.175476 -22.331701 -0.940059
74.724304 56.175476 -22.331701 -0.674156
88.207611 56.175476 -22.331701 -0.293365
101.690918 56.175476 -22.331701 0.027798
115.174225 56.175476 -22.331701 0.194970
128.657501 56.175476 -22.331701 0.325314
142.140808 56.175476 -22.331701 0.508248
155.624115 56.175476 -22.331701 0.472368
169.107422 56.175476 -22.331701 0.585552
182.590698 56.175476 -22.331701 0.650504
196.074036 56.175476 -22.331701 0.490195
209.557312 56.175476 -22.331701 0.324019
223.040588 56.175476 -22.331701 0.257432
236.523926 56.175476 -22.331701 0.106823
250.007202 56.175476 -22.331701 0.084636
263.490540 56.175476 -22.331701 0.044792
276.973816 56.175476 -22.331701 0.027472
290.457092 56.175476 -22.331701 0.023529
303.940430 56.175476 -22.331701 0.005509
317.423706 56.175476 -22.331701 -0.008153
330.907043 56.175476 -22.331701 0.000000
344.390320 56.175476 -22.331701 0.000000
-343.257996 42.692200 -22.331701 0.000000
-329.774689 42.692200 -22.331701 0.000000
-316.291382 42.692200 -22.331701 0.000000
-302.808105 42.692200 -22.331701 0.123003
-289.324799 42.692200 -22.331701 0.122640
-275.841492 42.692200 -22.331701 0.236308
-262.358185 42.692200 -22.331701 0.106613
-248.874893 42.692200 -22.331701 0.109005
-235.391602 42.692200 -22.331701 -0.014680
-221.908295 42.692200 -22.331701 -0.082148
-208.424988 42.692200 -22.331701 -0.148282
-194.941696 42.692200 -22.331701 -0.108425
-181.458389 42.692200 -22.331701 -0.015340
-167.975098 42.692200 -22.331701 0.190073
-154.491791 42.692200 -22.331701 -0.141927
-141.008499 42.692200 -22.331701 0.267856
-127.525192 42.692200 -22.331701 0.745498
-114.041885 42.692200 -22.331701 0.610595
-100.558594 42.692200 -22.331701 1.249887
-87.075287 42.692200 -22.331701 1.627800
-73.591980 42.692200 -22.331701 1.531457
-60.108704 42.692200 -22.331701 1.437531
-46.625397 42.692200 -22.331701 1.782316
-33.142090 42.692200 -22.331701 1.023422
-19.658783 42.692200 -22.331701 0.631819
-6.175476 42.692200 -22.331701 0.524241
7.307800 42.692200 -22.331701 0.205848
20.791107 42.692200 -22.331701 -0.440273
34.274414 42.692200 -22.331701 -1.146109
47.757721 42.692200 -22.331701 -1.421349
61.240997 42.692200 -22.331701 -1.043377
74.724304 42.692200 -22.331701 -1.013688
88.207611 42.692200 -22.331701 -0.703659
101.690918 42.692200 -22.331701 -0.305313
115.174225 42.692200 -22.331701 -0.056535
128.657501 42.692200 -22.331701 0.345187
142.140808 42.692200 -22.331701 0.408941
155.624115 42.692200 -22.331701 0.499604
169.107422 42.692200 -22.331701 0.660575
182.590698 42.692200 -22.331701 0.619847
196.074036 42.692200 -22.331701 0.544916
209.557312 42.692200 -22.331701 0.455078
223.040588 42.692200 -22.331701 0.341513
236.523926 42.692200 -22.331701 0.179979
250.007202 42.692200 -22.331701 0.144714
263.490540 42.692200 -22.331701 0.073480
276.973816 42.692200 -22.331701 0.064753
290.457092 42.692200 -22.331701 0.031014
303.940430 42.692200 -22.331701 -0.000905
317.423706 42.692200 -22.331701 -0.025454
330.907043 42.692200 -22.331701 0.000000
344.390320 42.692200 -22.331701 0.000000
-343.257996 29.208893 -22.331701 0.000000
-329.774689 29.208893 -22.331701 0.000000
-316.291382 29.208893 -22.331701 0.000000
-302.808105 29.208893 -22.331701 0.223546
-289.324799 29.208893 -22.331701 0.190880
-275.841492 29.208893 -22.331701 0.187744
-262.358185 29.208893 -22.331701 0.228913
-248.874893 29.208893 -22.331701 0.208607
-235.391602 29.208893 -22.331701 0.064639
-221.908295 29.208893 -22.331701 0.059829
-208.424988 29.208893 -22.331701 0.241110
-194.941696 29.208893 -22.331701 0.060755
-181.458389 29.208893 -22.331701 0.157992
-167.975098 29.208893 -22.331701 0.177110
-154.491791 29.208893 -22.331701 -0.024590
-141.008499 29.208893 -22.331701 0.333837
-127.525192 29.208893 -22.331701 0.797215
-114.041885 29.208893 -22.331701 0.755624
-100.558594 29.208893 -22.331701 1.041164
-87.075287 29.208893 -22.331701 1.310767
-73.591980 29.208893 -22.331701 1.131143
-60.108704 29.208893 -22.331701 1.155402
-46.625397 29.208893 -22.331701 1.499023
-33.142090 29.208893 -22.331701 1.079307
-19.658783 29.208893 -22.331701 0.708065
-6.175476 29.208893 -22.331701 0.717248
7.307800 29.208893 -22.331701 0.202906
20.791107 29.208893 -22.331701 -0.424010
34.274414 29.208893 -22.331701 -1.118475
47.757721 29.208893 -22.331701 -1.382172
61.240997 29.208893 -22.331701 -1.019237
74.724304 29.208893 -22.331701 -0.871917
88.207611 29.208893 -22.331701 -0.572819
101.690918 29.208893 -22.331701 -0.356009
115.174225 29.208893 -22.331701 -0.023815
128.657501 29.208893 -22.331701 0.171616
142.140808 29.208893 -22.331701 0.361180
155.624115 29.208893 -22.331701 0.457167
169.107422 29.208893 -22.331701 0.582169
182.590698 29.208893 -22.331701 0.658280
196.074036 29.208893 -22.331701 0.696345
209.557312 29.208893 -22.331701 0.615038
223.040588 29.208893 -22.331701 0.475931
236.523926 29.208893 -22.331701 0.308110
250.007202 29.208893 -22.331701 0.212599
263.490540 29.208893 -22.331701 0.105583
276.973816 29.208893 -22.331701 0.031482
290.457092 29.208893 -22.331701 0.006286
303.940430 29.208893 -22.331701 -0.004468
317.423706 29.208893 -22.331701 0.020616
330.907043 29.208893 -22.331701 0.000000
344.390320 29.208893 -22.331701 0.000000
-343.257996 15.725586 -22.331701 0.000000
-329.774689 15.725586 -22.331701 0.000000
-316.291382 15.725586 -22.331701 0.163051
-302.808105 15.725586 -22.331701 0.234325
-289.324799 15.725586 -22.331701 0.245063
-275.841492 15.725586 -22.331701 0.216590
-262.358185 15.725586 -22.331701 0.225992
-248.874893 15.725586 -22.331701 0.323683
-235.391602 15.725586 -22.331701 0.278933
-221.908295 15.725586 -22.331701 0.342532
-208.424988 15.725586 -22.331701 0.376930
-194.941696 15.725586 -22.331701 0.357976
-181.458389 15.725586 -22.331701 0.203277
-167.975098 15.725586 -22.331701 0.201769
-154.491791 15.725586 -22.331701 -0.122455
-141.008499 15.725586 -22.331701 0.041258
-127.525192 15.725586 -22.331701 0.593317
-114.041885 15.725586 -22.331701 0.761057
-100.558594 15.725586 -22.331701 0.891986
-87.075287 15.725586 -22.331701 1.175192
-73.591980 15.725586 -22.331701 0.709054
-60.108704 15.725586 -22.331701 0.806948
-46.625397 15.725586 -22.331701 0.890018
-33.142090 15.725586 -22.331701 0.648045
-19.658783 15.725586 -22.331701 0.485794
-6.175476 15.725586 -22.331701 0.322735
7.307800 15.725586 -22.331701 0.004630
20.791107 15.725586 -22.331701 -0.512547
34.274414 15.725586 -22.331701 -0.954874
47.757721 15.725586 -22.331701 -1.308246
61.240997 15.725586 -22.331701 -1.234208
74.724304 15.725586 -22.331701 -0.831422
88.207611 15.725586 -22.331701 -0.621544
101.690918 15.725586 -22.331701 -0.398983
115.174225 15.725586 -22.331701 -0.026843
128.657501 15.725586 -22.331701 0.074836
142.140808 15.725586 -22.331701 0.319928
155.624115 15.725586 -22.331701 0.493179
169.107422 15.725586 -22.331701 0.597022
182.590698 15.725586 -22.331701 0.722264
196.074036 15.725586 -22.331701 0.780201
209.557312 15.725586 -22.331701 0.600852
223.040588 15.725586 -22.331701 0.551085
236.523926 15.725586 -22.331701 0.346966
250.007202 15.725586 -22.331701 0.277024
263.490540 15.725586 -22.331701 0.135558
276.973816 15.725586 -22.331701 0.082706
290.457092 15.725586 -22.331701 0.003802
303.940430 15.725586 -22.331701 -0.014903
317.423706 15.725586 -22.331701 -0.068111
330.907043 15.725586 -22.331701 0.000000
344.390320 15.725586 -22.331701 0.000000
-343.257996 2.242279 -22.331701 0.000000
-329.774689 2.242279 -22.331701 0.000000
-316.291382 2.242279 -22.331701 0.108693
-302.808105 2.242279 -22.331701 0.201847
-289.324799 2.242279 -22.331701 0.246591
-275.841492 2.242279 -22.331701 0.299856
-262.358185 2.242279 -22.331701 0.196331
-248.874893 2.242279 -22.331701 0.293455
-235.391602 2.242279 -22.331701 0.481224
-221.908295 2.242279 -22.331701 0.355573
-208.424988 2.242279 -22.331701 0.450932
-194.941696 2.242279 -22.331701 0.432623
-181.458389 2.242279 -22.331701 0.362576
-167.975098 2.242279 -22.331701 0.301961
-154.491791 2.242279 -22.331701 0.068118
-141.008499 2.242279 -22.331701 0.292527
-127.525192 2.242279 -22.331701 0.559150
-114.041885 2.242279 -22.331701 0.522567
-100.558594 2.242279 -22.331701 0.683466
-87.075287 2.242279 -22.331701 0.515615
-73.591980 2.242279 -22.331701 0.013370
-60.108704 2.242279 -22.331701 0.279999
-46.625397 2.242279 -22.331701 0.456187
-33.142090 2.242279 -22.331701 0.123381
-19.658783 2.242279 -22.331701 0.127918
-6.175476 2.242279 -22.331701 -0.112538
7.307800 2.242279 -22.331701 -0.238022
20.791107 2.242279 -22.331701 -0.664220
34.274414 2.242279 -22.331701 -0.974682
47.757721 2.242279 -22.331701 -0.969913
61.240997 2.242279 -22.331701 -1.054370
74.724304 2.242279 -22.331701 -0.798022
88.207611 2.242279 -22.331701 -0.457438
101.690918 2.242279 -22.331701 -0.412803
115.174225 2.242279 -22.331701 -0.115725
128.657501 2.242279 -22.331701 0.114192
142.140808 2.242279 -22.331701 0.336304
155.624115 2.242279 -22.331701 0.481995
169.107422 2.242279 -22.331701 0.496633
182.590698 2.242279 -22.331701 0.676599
196.074036 2.242279 -22.331701 0.652932
209.557312 2.242279 -22.331701 0.596815
223.040588 2.242279 -22.331701 0.584522
236.523926 2.242279 -22.331701 0.451476
250.007202 2.242279 -22.331701 0.275543
263.490540 2.242279 -22.331701 0.172183
276.973816 2.242279 -22.331701 0.036158
290.457092 2.242279 -22.331701 0.039423
303.940430 2.242279 -22.331701 -0.081348
317.423706 2.242279 -22.331701 -0.029765
330.907043 2.242279 -22.331701 0.000000
344.390320 2.242279 -22.331701 0.000000
-343.257996 -11.240997 -22.331701 0.000000
-329.774689 -11.240997 -22.331701 0.000000
-316.291382 -11.240997 -22.331701 0.173218
-302.808105 -11.240997 -22.331701 0.247465
-289.324799 -11.240997 -22.331701 0.184519
-275.841492 -11.240997 -22.331701 0.137585
-262.358185 -11.240997 -22.331701 0.201417
-248.874893 -11.240997 -22.331701 0.384996
-235.391602 -11.240997 -22.331701 0.503054
-221.908295 -11.240997 -22.331701 0.610754
-208.424988 -11.240997 -22.331701 0.491643
-194.941696 -11.240997 -22.331701 0.513520
-181.458389 -11.240997 -22.331701 0.788036
-167.975098 -11.240997 -22.331701 0.588085
-154.491791 -11.240997 -22.331701 0.125021
-141.008499 -11.240997 -22.331701 0.359945
-127.525192 -11.240997 -22.331701 0.175439
-114.041885 -11.240997 -22.331701 0.183809
-100.558594 -11.240997 -22.331701 0.451096
-87.075287 -11.240997 -22.331701 0.405892
-73.591980 -11.240997 -22.331701 0.434579
-60.108704 -11.240997 -22.331701 0.250731
-46.625397 -11.240997 -22.331701 0.453541
-33.142090 -11.240997 -22.331701 -0.058689
-19.658783 -11.240997 -22.331701 -0.267100
-6.175476 -11.240997 -22.331701 -0.516689
7.307800 -11.240997 -22.331701 -0.868240
20.791107 -11.240997 -22.331701 -1.165210
34.274414 -11.240997 -22.331701 -1.038131
47.757721 -11.240997 -22.331701 -0.950979
61.240997 -11.240997 -22.331701 -1.030450
74.724304 -11.240997 -22.331701 -0.995362
88.207611 -11.240997 -22.331701 -0.508402
101.690918 -11.240997 -22.331701 -0.335654
115.174225 -11.240997 -22.331701 -0.180155
128.657501 -11.240997 -22.331701 -0.060747
142.140808 -11.240997 -22.331701 0.151747
155.624115 -11.240997 -22.331701 0.319551
169.107422 -11.240997 -22.331701 0.447752
182.590698 -11.240997 -22.331701 0.524084
196.074036 -11.240997 -22.331701 0.608790
209.557312 -11.240997 -22.331701 0.589366
223.040588 -11.240997 -22.331701 0.532991
236.523926 -11.240997 -22.331701 0.393821
250.007202 -11.240997 -22.331701 0.216614
263.490540 -11.240997 -22.331701 0.105864
276.973816 -11.240997 -22.331701 0.014205
290.457092 -11.240997 -22.331701 -0.017112
303.940430 -11.240997 -22.331701 -0.011064
317.423706 -11.240997 -22.331701 -0.052263
330.907043 -11.240997 -22.331701 0.000000
344.390320 -11.240997 -22.331701 0.000000
-343.257996 -24.724304 -22.331701 0.000000
-329.774689 -24.724304 -22.331701 0.000000
-316.291382 -24.724304 -22.331701 0.110685
-302.808105 -24.724304 -22.331701 0.179350
-289.324799 -24.724304 -22.331701 0.211537
-275.841492 -24.724304 -22.331701 0.206295
-262.358185 -24.724304 -22.331701 0.170222
-248.874893 -24.724304 -22.331701 0.453853
-235.391602 -24.724304 -22.331701 0.508815
-221.908295 -24.724304 -22.331701 0.606813
-208.424988 -24.724304 -22.331701 0.770979
-194.941696 -24.724304 -22.331701 0.740323
-181.458389 -24.724304 -22.331701 0.837180
-167.975098 -24.724304 -22.331701 0.542258
-154.491791 -24.724304 -22.331701 0.428470
-141.008499 -24.724304 -22.331701 0.337960
-127.525192 -24.724304 -22.331701 0.245375
-114.041885 -24.724304 -22.331701 0.480741
-100.558594 -24.724304 -22.331701 0.305463
-87.075287 -24.724304 -22.331701 0.260061
-73.591980 -24.724304 -22.331701 0.180905
-60.108704 -24.724304 -22.331701 0.031060
-46.625397 -24.724304 -22.331701 0.262997
-33.142090 -24.724304 -22.331701 -0.659269
-19.658783 -24.724304 -22.331701 -0.809273
-6.175476 -24.724304 -22.331701 -0.962343
7.307800 -24.724304 -22.331701 -1.016739
20.791107 -24.724304 -22.331701 -1.244765
34.274414 -24.724304 -22.331701 -1.317697
47.757721 -24.724304 -22.331701 -1.159140
61.240997 -24.724304 -22.331701 -1.025639
74.724304 -24.724304 -22.331701 -0.850722
88.207611 -24.724304 -22.331701 -0.477224
101.690918 -24.724304 -22.331701 -0.128077
115.174225 -24.724304 -22.331701 -0.295581
128.657501 -24.724304 -22.331701 -0.126681
142.140808 -24.724304 -22.331701 0.105198
155.624115 -24.724304 -22.331701 0.214635
169.107422 -24.724304 -22.331701 0.251614
182.590698 -24.724304 -22.331701 0.381777
196.074036 -24.724304 -22.331701 0.501343
209.557312 -24.724304 -22.331701 0.548796
223.040588 -24.724304 -22.331701 0.399475
236.523926 -24.724304 -22.331701 0.266532
250.007202 -24.724304 -22.331701 0.137290
263.490540 -24.724304 -22.331701 0.118692
276.973816 -24.724304 -22.331701 0.019263
290.457092 -24.724304 -22.331701 0.011961
303.940430 -24.724304 -22.331701 -0.039193
317.423706 -24.724304 -22.331701 -0.069556
330.907043 -24.724304 -22.331701 0.000000
344.390320 -24.724304 -22.331701 0.000000
-343.257996 -38.207611 -22.331701 0.000000
-329.774689 -38.207611 -22.331701 0.000000
-316.291382 -38.207611 -22.331701 0.072718
-302.808105 -38.207611 -22.331701 0.014543
-289.324799 -38.207611 -22.331701 0.182755
-275.841492 -38.207611 -22.331701 0.189096
-262.358185 -38.207611 -22.331701 0.295730
-248.874893 -38.207611 -22.331701 0.413302
-235.391602 -38.207611 -22.331701 0.483509
-221.908295 -38.207611 -22.331701 0.516441
-208.424988 -38.207611 -22.331701 0.756055
-194.941696 -38.207611 -22.331701 0.733815
-181.458389 -38.207611 -22.331701 0.889338
-167.975098 -38.207611 -22.331701 0.472204
-154.491791 -38.207611 -22.331701 0.113058
-141.008499 -38.207611 -22.331701 -0.124590
-127.525192 -38.207611 -22.331701 -0.143152
-114.041885 -38.207611 -22.331701 0.084156
-100.558594 -38.207611 -22.331701 0.204562
-87.075287 -38.207611 -22.331701 -0.051724
-73.591980 -38.207611 -22.331701 -0.215861
-60.108704 -38.207611 -22.331701 -0.213926
-46.625397 -38.207611 -22.331701 -0.231518
-33.142090 -38.207611 -22.331701 -0.681839
-19.658783 -38.207611 -22.331701 -0.764151
-6.175476 -38.207611 -22.331701 -0.870306
7.307800 -38.207611 -22.331701 -1.101430
20.791107 -38.207611 -22.331701 -1.052416
34.274414 -38.207611 -22.331701 -1.178830
47.757721 -38.207611 -22.331701 -0.983578
61.240997 -38.207611 -22.331701 -0.612869
74.724304 -38.207611 -22.331701 -0.594453
88.207611 -38.207611 -22.331701 -0.507805
101.690918 -38.207611 -22.331701 -0.338264
115.174225 -38.207611 -22.331701 -0.210119
128.657501 -38.207611 -22.331701 0.028730
142.140808 -38.207611 -22.331701 0.085125
155.624115 -38.207611 -22.331701 0.133115
169.107422 -38.207611 -22.331701 0.158937
182.590698 -38.207611 -22.331701 0.214712
196.074036 -38.207611 -22.331701 0.338364
209.557312 -38.207611 -22.331701 0.413630
223.040588 -38.207611 -22.331701 0.354112
236.523926 -38.207611 -22.331701 0.197310
250.007202 -38.207611 -22.331701 0.063043
263.490540 -38.207611 -22.331701 -0.006188
276.973816 -38.207611 -22.331701 -0.050867
290.457092 -38.207611 -22.331701 -0.072024
303.940430 -38.207611 -22.331701 -0.053085
317.423706 -38.207611 -22.331701 -0.076672
330.907043 -38.207611 -22.331701 0.000000
344.390320 -38.207611 -22.331701 0.000000
-343.257996 -51.690918 -22.331701 0.000000
-329.774689 -51.690918 -22.331701 0.000000
-316.291382 -51.690918 -22.331701 0.133727
-302.808105 -51.690918 -22.331701 0.068761
-289.324799 -51.690918 -22.331701 0.233984
-275.841492 -51.690918 -22.331701 0.298452
-262.358185 -51.690918 -22.331701 0.211108
-248.874893 -51.690918 -22.331701 0.342433
-235.391602 -51.690918 -22.331701 0.594367
-221.908295 -51.690918 -22.331701 0.484816
-208.424988 -51.690918 -22.331701 0.733768
-194.941696 -51.690918 -22.331701 1.096737
-181.458389 -51.690918 -22.331701 0.815273
-167.975098 -51.690918 -22.331701 0.121033
-154.491791 -51.690918 -22.331701 -0.342610
-141.008499 -51.690918 -22.331701 -0.063477
-127.525192 -51.690918 -22.331701 -0.528900
-114.041885 -51.690918 -22.331701 -0.273261
-100.558594 -51.690918 -22.331701 0.019403
-87.075287 -51.690918 -22.331701 0.168884
-73.591980 -51.690918 -22.331701 0.119839
-60.108704 -51.690918 -22.331701 -0.014437
-46.625397 -51.690918 -22.331701 -0.371303
-33.142090 -51.690918 -22.331701 -0.734033
-19.658783 -51.690918 -22.331701 -0.852349
-6.175476 -51.690918 -22.331701 -1.078842
7.307800 -51.690918 -22.331701 -1.158426
20.791107 -51.690918 -22.331701 -1.312363
34.274414 -51.690918 -22.331701 -1.229558
47.757721 -51.690918 -22.331701 -0.974283
61.240997 -51.690918 -22.331701 -0.696714
74.724304 -51.690918 -22.331701 -0.531163
88.207611 -51.690918 -22.331701 -0.414536
101.690918 -51.690918 -22.331701 -0.374090
115.174225 -51.690918 -22.331701 -0.355191
128.657501 -51.690918 -22.331701 -0.078892
142.140808 -51.690918 -22.331701 -0.024167
155.624115 -51.690918 -22.331701 0.026446
169.107422 -51.690918 -22.331701 0.069493
182.590698 -51.690918 -22.331701 0.087411
196.074036 -51.690918 -22.331701 0.215700
209.557312 -51.690918 -22.331701 0.198148
223.040588 -51.690918 -22.331701 0.228598
236.523926 -51.690918 -22.331701 0.043847
250.007202 -51.690918 -22.331701 -0.034855
263.490540 -51.690918 -22.331701 -0.090410
276.973816 -51.690918 -22.331701 -0.158360
290.457092 -51.690918 -22.331701 -0.101354
303.940430 -51.690918 -22.331701 -0.099897
317.423706 -51.690918 -22.331701 -0.087646
330.907043 -51.690918 -22.331701 0.000000
344.390320 -51.690918 -22.331701 0.000000
-343.257996 -65.174225 -22.331701 0.000000
-329.774689 -65.174225 -22.331701 0.000000
-316.291382 -65.174225 -22.331701 0.220134
-302.808105 -65.174225 -22.331701 -0.008780
-289.324799 -65.174225 -22.331701 0.141183
-275.841492 -65.174225 -22.331701 0.212555
-262.358185 -65.174225 -22.331701 0.245546
-248.874893 -65.174225 -22.331701 0.338347
-235.391602 -65.174225 -22.331701 0.180045
-221.908295 -65.174225 -22.331701 0.412761
-208.424988 -65.174225 -22.331701 1.126526
-194.941696 -65.174225 -22.331701 0.892666
-181.458389 -65.174225 -22.331701 0.862721
-167.975098 -65.174225 -22.331701 0.237098
-154.491791 -65.174225 -22.331701 -0.100395
-141.008499 -65.174225 -22.331701 0.026372
-127.525192 -65.174225 -22.331701 -1.033740
-114.041885 -65.174225 -22.331701 -0.521500
-100.558594 -65.174225 -22.331701 -0.040723
-87.075287 -65.174225 -22.331701 0.009380
-73.591980 -65.174225 -22.331701 0.077267
-60.108704 -65.174225 -22.331701 -0.003019
-46.625397 -65.174225 -22.331701 -0.326066
-33.142090 -65.174225 -22.331701 -0.489180
-19.658783 -65.174225 -22.331701 -0.626540
-6.175476 -65.174225 -22.331701 -0.994802
7.307800 -65.174225 -22.331701 -1.251699
20.791107 -65.174225 -22.331701 -1.200397
34.274414 -65.174225 -22.331701 -0.915423
47.757721 -65.174225 -22.331701 -0.668028
61.240997 -65.174225 -22.331701 -0.610357
74.724304 -65.174225 -22.331701 -0.466672
88.207611 -65.174225 -22.331701 -0.383973
101.690918 -65.174225 -22.331701 -0.398569
115.174225 -65.174225 -22.331701 -0.324513
128.657501 -65.174225 -22.331701 -0.244765
142.140808 -65.174225 -22.331701 -0.130910
155.624115 -65.174225 -22.331701 -0.157920
169.107422 -65.174225 -22.331701 -0.102870
182.590698 -65.174225 -22.331701 0.074979
196.074036 -65.174225 -22.331701 0.045915
209.557312 -65.174225 -22.331701 0.058988
223.040588 -65.174225 -22.331701 0.060069
236.523926 -65.174225 -22.331701 -0.056004
250.007202 -65.174225 -22.331701 -0.119521
263.490540 -65.174225 -22.331701 -0.148830
276.973816 -65.174225 -22.331701 -0.124660
290.457092 -65.174225 -22.331701 -0.084318
303.940430 -65.174225 -22.331701 -0.072382
317.423706 -65.174225 -22.331701 -0.107409
330.907043 -65.174225 -22.331701 0.000000
344.390320 -65.174225 -22.331701 0.000000
-343.257996 -78.657501 -22.331701 0.000000
-329.774689 -78.657501 -22.331701 0.000000
-316.291382 -78.657501 -22.331701 0.030061
-302.808105 -78.657501 -22.331701 0.007237
-289.324799 -78.657501 -22.331701 0.129875
-275.841492 -78.657501 -22.331701 -0.029253
-262.358185 -78.657501 -22.331701 0.330337
-248.874893 -78.657501 -22.331701 0.416489
-235.391602 -78.657501 -22.331701 0.379956
-221.908295 -78.657501 -22.331701 0.738094
-208.424988 -78.657501 -22.331701 0.000000
-194.941696 -78.657501 -22.331701 0.000000
-181.458389 -78.657501 -22.331701 0.000000
-167.975098 -78.657501 -22.331701 1.023959
-154.491791 -78.657501 -22.331701 0.606716
-141.008499 -78.657501 -22.331701 -0.502155
-127.525192 -78.657501 -22.331701 -0.554670
-114.041885 -78.657501 -22.331701 -0.525258
-100.558594 -78.657501 -22.331701 -0.172995
-87.075287 -78.657501 -22.331701 -0.108394
-73.591980 -78.657501 -22.331701 -0.072018
-60.108704 -78.657501 -22.331701 -0.105223
-46.625397 -78.657501 -22.331701 -0.144132
-33.142090 -78.657501 -22.331701 -0.240016
-19.658783 -78.657501 -22.331701 -0.446768
-6.175476 -78.657501 -22.331701 -0.789598
7.307800 -78.657501 -22.331701 -0.899112
20.791107 -78.657501 -22.331701 -0.880405
34.274414 -78.657501 -22.331701 -0.533051
47.757721 -78.657501 -22.331701 -0.496679
61.240997 -78.657501 -22.331701 -0.286790
74.724304 -78.657501 -22.331701 -0.307102
88.207611 -78.657501 -22.331701 -0.335160
101.690918 -78.657501 -22.331701 -0.368283
115.174225 -78.657501 -22.331701 -0.316132
128.657501 -78.657501 -22.331701 -0.271461
142.140808 -78.657501 -22.331701 -0.255079
155.624115 -78.657501 -22.331701 -0.286635
169.107422 -78.657501 -22.331701 -0.267763
182.590698 -78.657501 -22.331701 -0.198781
196.074036 -78.657501 -22.331701 -0.076884
209.557312 -78.657501 -22.331701 -0.052402
223.040588 -78.657501 -22.331701 -0.064013
236.523926 -78.657501 -22.331701 -0.090686
250.007202 -78.657501 -22.331701 -0.140378
263.490540 -78.657501 -22.331701 -0.203318
276.973816 -78.657501 -22.331701 -0.165608
290.457092 -78.657501 -22.331701 -0.167164
303.940430 -78.657501 -22.331701 -0.029079
317.423706 -78.657501 -22.331701 0.047607
330.907043 -78.657501 -22.331701 0.000000
344.390320 -78.657501 -22.331701 0.000000
-343.257996 -92.140808 -22.331701 0.000000
-329.774689 -92.140808 -22.331701 0.000000
-316.291382 -92.140808 -22.331701 0.000000
-302.808105 -92.140808 -22.331701 -0.085207
-289.324799 -92.140808 -22.331701 -0.361224
-275.841492 -92.140808 -22.331701 -0.106412
-262.358185 -92.140808 -22.331701 -0.368796
-248.874893 -92.140808 -22.331701 -0.118240
-235.391602 -92.140808 -22.331701 0.000000
-221.908295 -92.140808 -22.331701 0.000000
-208.424988 -92.140808 -22.331701 0.000000
-194.941696 -92.140808 -22.331701 0.000000
-181.458389 -92.140808 -22.331701 0.000000
-167.975098 -92.140808 -22.331701 0.000000
-154.491791 -92.140808 -22.331701 -0.220673
-141.008499 -92.140808 -22.331701 -0.989517
-127.525192 -92.140808 -22.331701 -0.572874
-114.041885 -92.140808 -22.331701 -0.861784
-100.558594 -92.140808 -22.331701 -0.137548
-87.075287 -92.140808 -22.331701 -0.377238
-73.591980 -92.140808 -22.331701 -0.116102
-60.108704 -92.140808 -22.331701 -0.104866
-46.625397 -92.140808 -22.331701 -0.158295
-33.142090 -92.140808 -22.331701 -0.024102
-19.658783 -92.140808 -22.331701 -0.259717
-6.175476 -92.140808 -22.331701 -0.537724
7.307800 -92.140808 -22.331701 -0.715453
20.791107 -92.140808 -22.331701 -0.538588
34.274414 -92.140808 -22.331701 -0.310740
47.757721 -92.140808 -22.331701 -0.171307
61.240997 -92.140808 -22.331701 -0.254443
74.724304 -92.140808 -22.331701 -0.248956
88.207611 -92.140808 -22.331701 -0.361048
101.690918 -92.140808 -22.331701 -0.284439
115.174225 -92.140808 -22.331701 -0.247676
128.657501 -92.140808 -22.331701 -0.296521
142.140808 -92.140808 -22.331701 -0.296463
155.624115 -92.140808 -22.331701 -0.412895
169.107422 -92.140808 -22.331701 -0.382389
182.590698 -92.140808 -22.331701 -0.370913
196.074036 -92.140808 -22.331701 -0.273819
209.557312 -92.140808 -22.331701 -0.332150
223.040588 -92.140808 -22.331701 -0.219291
236.523926 -92.140808 -22.331701 -0.183729
250.007202 -92.140808 -22.331701 -0.118246
263.490540 -92.140808 -22.331701 -0.120266
276.973816 -92.140808 -22.331701 -0.143206
290.457092 -92.140808 -22.331701 -0.221168
303.940430 -92.140808 -22.331701 -0.172041
317.423706 -92.140808 -22.331701 -0.235165
330.907043 -92.140808 -22.331701 0.000000
344.390320 -92.140808 -22.331701 0.000000
-343.257996 -105.624115 -22.331701 0.000000
-329.774689 -105.624115 -22.331701 0.000000
-316.291382 -105.624115 -22.331701 0.000000
-302.808105 -105.624115 -22.331701 0.088038
-289.324799 -105.624115 -22.331701 0.312637
-275.841492 -105.624115 -22.331701 -0.402761
-262.358185 -105.624115 -22.331701 -0.122200
-248.874893 -105.624115 -22.331701 -0.631812
-235.391602 -105.624115 -22.331701 0.000000
-221.908295 -105.624115 -22.331701 0.000000
-208.424988 -105.624115 -22.331701 0.000000
-194.941696 -105.624115 -22.331701 0.000000
-181.458389 -105.624115 -22.331701 0.000000
-167.975098 -105.624115 -22.331701 0.000000
-154.491791 -105.624115 -22.331701 0.000000
-141.008499 -105.624115 -22.331701 -1.107050
-127.525192 -105.624115 -22.331701 -1.074812
-114.041885 -105.624115 -22.331701 -0.763464
-100.558594 -105.624115 -22.331701 -0.567635
-87.075287 -105.624115 -22.331701 -0.205321
-73.591980 -105.624115 -22.331701 0.055306
-60.108704 -105.624115 -22.331701 -0.045121
-46.625397 -105.624115 -22.331701 0.110210
-33.142090 -105.624115 -22.331701 -0.067971
-19.658783 -105.624115 -22.331701 -0.223828
-6.175476 -105.624115 -22.331701 -0.250263
7.307800 -105.624115 -22.331701 -0.426897
20.791107 -105.624115 -22.331701 -0.348073
34.274414 -105.624115 -22.331701 -0.170018
47.757721 -105.624115 -22.331701 -0.175315
61.240997 -105.624115 -22.331701 -0.235943
74.724304 -105.624115 -22.331701 -0.381737
88.207611 -105.624115 -22.331701 -0.357856
101.690918 -105.624115 -22.331701 -0.267144
115.174225 -105.624115 -22.331701 -0.283971
128.657501 -105.624115 -22.331701 -0.212265
142.140808 -105.624115 -22.331701 -0.306066
155.624115 -105.624115 -22.331701 -0.446477
169.107422 -105.624115 -22.331701 -0.500966
182.590698 -105.624115 -22.331701 -0.542527
196.074036 -105.624115 -22.331701 -0.543908
209.557312 -105.624115 -22.331701 -0.524705
223.040588 -105.624115 -22.331701 -0.499190
236.523926 -105.624115 -22.331701 -0.320607
250.007202 -105.624115 -22.331701 -0.301067
263.490540 -105.624115 -22.331701 -0.115346
276.973816 -105.624115 -22.331701 0.035501
290.457092 -105.624115 -22.331701 0.226234
303.940430 -105.624115 -22.331701 -0.015635
317.423706 -105.624115 -22.331701 0.000000
330.907043 -105.624115 -22.331701 0.000000
344.390320 -105.624115 -22.331701 0.000000
-343.257996 -119.107422 -22.331701 0.000000
-329.774689 -119.107422 -22.331701 0.000000
-316.291382 -119.107422 -22.331701 0.000000
-302.808105 -119.107422 -22.331701 0.000000
-289.324799 -119.107422 -22.331701 0.568067
-275.841492 -119.107422 -22.331701 0.876042
-262.358185 -119.107422 -22.331701 1.727401
-248.874893 -119.107422 -22.331701 0.000000
-235.391602 -119.107422 -22.331701 0.000000
-221.908295 -119.107422 -22.331701 0.000000
-208.424988 -119.107422 -22.331701 0.000000
-194.941696 -119.107422 -22.331701 0.000000
-181.458389 -119.107422 -22.331701 0.000000
-167.975098 -119.107422 -22.331701 0.000000
-154.491791 -119.107422 -22.331701 -1.069988
-141.008499 -119.107422 -22.331701 -0.773088
-127.525192 -119.107422 -22.331701 -1.029910
-114.041885 -119.107422 -22.331701 0.120107
-100.558594 -119.107422 -22.331701 -0.539417
-87.075287 -119.107422 -22.331701 -0.255224
-73.591980 -119.107422 -22.331701 0.172617
-60.108704 -119.107422 -22.331701 0.079453
-46.625397 -119.107422 -22.331701 0.076591
-33.142090 -119.107422 -22.331701 0.203924
-19.658783 -119.107422 -22.331701 0.096160
-6.175476 -119.107422 -22.331701 -0.017918
7.307800 -119.107422 -22.331701 0.006413
20.791107 -119.107422 -22.331701 -0.150203
34.274414 -119.107422 -22.331701 -0.236179
47.757721 -119.107422 -22.331701 -0.187336
61.240997 -119.107422 -22.331701 -0.239340
74.724304 -119.107422 -22.331701 -0.268695
88.207611 -119.107422 -22.331701 -0.261081
101.690918 -119.107422 -22.331701 -0.356773
115.174225 -119.107422 -22.331701 -0.268299
128.657501 -119.107422 -22.331701 -0.255719
142.140808 -119.107422 -22.331701 -0.390261
155.624115 -119.107422 -22.331701 -0.645817
169.107422 -119.107422 -22.331701 -0.603158
182.590698 -119.107422 -22.331701 -0.755879
196.074036 -119.107422 -22.331701 -0.749623
209.557312 -119.107422 -22.331701 -0.640673
223.040588 -119.107422 -22.331701 -0.790065
236.523926 -119.107422 -22.331701 -0.654555
250.007202 -119.107422 -22.331701 -0.529961
263.490540 -119.107422 -22.331701 -0.477028
276.973816 -119.107422 -22.331701 -0.008543
290.457092 -119.107422 -22.331701 0.512202
303.940430 -119.107422 -22.331701 0.466839
317.423706 -119.107422 -22.331701 0.000000
330.907043 -119.107422 -22.331701 0.000000
344.390320 -119.107422 -22.331701 0.000000
-343.257996 -132.590698 -22.331701 0.000000
-329.774689 -132.590698 -22.331701 0.000000
-316.291382 -132.590698 -22.331701 0.000000
-302.808105 -132.590698 -22.331701 0.000000
-289.324799 -132.590698 -22.331701 0.000000
-275.841492 -132.590698 -22.331701 0.000000
-262.358185 -132.590698 -22.331701 0.000000
-248.874893 -132.590698 -22.331701 0.000000
-235.391602 -132.590698 -22.331701 0.000000
-221.908295 -132.590698 -22.331701 0.000000
-208.424988 -132.590698 -22.331701 0.000000
-194.941696 -132.590698 -22.331701 0.000000
-181.458389 -132.590698 -22.331701 0.000000
-167.975098 -132.590698 -22.331701 0.000000
-154.491791 -132.590698 -22.331701 0.000000
-141.008499 -132.590698 -22.331701 0.896604
-127.525192 -132.590698 -22.331701 -0.365837
-114.041885 -132.590698 -22.331701 -0.535485
-100.558594 -132.590698 -22.331701 -0.277863
-87.075287 -132.590698 -22.331701 -0.628037
-73.591980 -132.590698 -22.331701 -0.404764
-60.108704 -132.590698 -22.331701 0.556445
-46.625397 -132.590698 -22.331701 0.306980
-33.142090 -132.590698 -22.331701 0.301076
-19.658783 -132.590698 -22.331701 0.500205
-6.175476 -132.590698 -22.331701 0.265287
7.307800 -132.590698 -22.331701 0.009229
20.791107 -132.590698 -22.331701 -0.012954
34.274414 -132.590698 -22.331701 -0.010530
47.757721 -132.590698 -22.331701 -0.050165
61.240997 -132.590698 -22.331701 -0.143619
74.724304 -132.590698 -22.331701 -0.209788
88.207611 -132.590698 -22.331701 -0.102063
101.690918 -132.590698 -22.331701 -0.287625
115.174225 -132.590698 -22.331701 -0.429248
128.657501 -132.590698 -22.331701 -0.318332
142.140808 -132.590698 -22.331701 -0.519700
155.624115 -132.590698 -22.331701 -0.614358
169.107422 -132.590698 -22.331701 -0.579250
182.590698 -132.590698 -22.331701 -0.655061
196.074036 -132.590698 -22.331701 -1.019937
209.557312 -132.590698 -22.331701 -0.792375
223.040588 -132.590698 -22.331701 -1.278229
236.523926 -132.590698 -22.331701 -0.896895
250.007202 -132.590698 -22.331701 -0.918410
263.490540 -132.590698 -22.331701 -0.873964
276.973816 -132.590698 -22.331701 -0.244064
290.457092 -132.590698 -22.331701 0.000000
303.940430 -132.590698 -22.331701 0.000000
317.423706 -132.590698 -22.331701 0.000000
330.907043 -132.590698 -22.331701 0.000000
344.390320 -132.590698 -22.331701 0.000000
-343.257996 -146.074036 -22.331701 0.000000
-329.774689 -146.074036 -22.331701 0.000000
-316.291382 -146.074036 -22.331701 0.000000
-302.808105 -146.074036 -22.331701 0.000000
-289.324799 -146.074036 -22.331701 0.000000
-275.841492 -146.074036 -22.331701 0.000000
-262.358185 -146.074036 -22.331701 0.000000
-248.874893 -146.074036 -22.331701 0.000000
-235.391602 -146.074036 -22.331701 0.000000
-221.908295 -146.074036 -22.331701 0.000000
-208.424988 -146.074036 -22.331701 0.000000
-194.941696 -146.074036 -22.331701 0.000000
-181.458389 -146.074036 -22.331701 0.000000
-167.975098 -146.074036 -22.331701 0.000000
-154.491791 -146.074036 -22.331701 0.000000
-141.008499 -146.074036 -22.331701 0.000000
-127.525192 -146.074036 -22.331701 0.000000
-114.041885 -146.074036 -22.331701 0.000000
-100.558594 -146.074036 -22.331701 0.000000
-87.075287 -146.074036 -22.331701 0.000000
-73.591980 -146.074036 -22.331701 0.000000
-60.108704 -146.074036 -22.331701 0.000000
-46.625397 -146.074036 -22.331701 0.154786
-33.142090 -146.074036 -22.331701 -0.075648
-19.658783 -146.074036 -22.331701 0.061511
-6.175476 -146.074036 -22.331701 0.159145
7.307800 -146.074036 -22.331701 -0.044381
20.791107 -146.074036 -22.331701 0.224730
34.274414 -146.074036 -22.331701 0.000000
47.757721 -146.074036 -22.331701 0.000000
61.240997 -146.074036 -22.331701 0.000000
74.724304 -146.074036 -22.331701 0.000000
88.207611 -146.074036 -22.331701 0.000000
101.690918 -146.074036 -22.331701 0.000000
115.174225 -146.074036 -22.331701 -0.312427
128.657501 -146.074036 -22.331701 -0.465768
142.140808 -146.074036 -22.331701 -0.470103
155.624115 -146.074036 -22.331701 0.000000
169.107422 -146.074036 -22.331701 0.000000
182.590698 -146.074036 -22.331701 0.000000
196.074036 -146.074036 -22.331701 0.000000
209.557312 -146.074036 -22.331701 0.000000
223.040588 -146.074036 -22.331701 0.000000
236.523926 -146.074036 -22.331701 0.000000
250.007202 -146.074036 -22.331701 0.000000
263.490540 -146.074036 -22.331701 0.000000
276.973816 -146.074036 -22.331701 0.000000
290.457092 -146.074036 -22.331701 0.000000
303.940430 -146.074036 -22.331701 0.000000
317.423706 -146.074036 -22.331701 0.000000
330.907043 -146.074036 -22.331701 0.000000
344.390320 -146.074036 -22.331701 0.000000
-343.257996 -159.557312 -22.331701 0.000000
-329.774689 -159.557312 -22.331701 0.000000
-316.291382 -159.557312 -22.331701 0.000000
-302.808105 -159.557312 -22.331701 0.000000
-289.324799 -159.557312 -22.331701 0.000000
-275.841492 -159.557312 -22.331701 0.000000
-262.358185 -159.557312 -22.331701 0.000000
-248.874893 -159.557312 -22.331701 0.000000
-235.391602 -159.557312 -22.331701 0.000000
-221.908295 -159.557312 -22.331701 0.000000
-208.424988 -159.557312 -22.331701 0.000000
-194.941696 -159.557312 -22.331701 0.000000
-181.458389 -159.557312 -22.331701 0.000000
-167.975098 -159.557312 -22.331701 0.000000
-154.491791 -159.557312 -22.331701 0.000000
-141.008499 -159.557312 -22.331701 0.000000
-127.525192 -159.557312 -22.331701 0.000000
-114.041885 -159.557312 -22.331701 0.000000
-100.558594 -159.557312 -22.331701 0.000000
-87.075287 -159.557312 -22.331701 0.000000
-73.591980 -159.557312 -22.331701 0.000000
-60.108704 -159.557312 -22.331701 0.000000
-46.625397 -159.557312 -22.331701 0.000000
-33.142090 -159.557312 -22.331701 0.000000
-19.658783 -159.557312 -22.331701 0.000000
-6.175476 -159.557312 -22.331701 0.000000
7.307800 -159.557312 -22.331701 0.000000
20.791107 -159.557312 -22.331701 0.000000
34.274414 -159.557312 -22.331701 0.000000
47.757721 -159.557312 -22.331701 0.000000
61.240997 -159.557312 -22.331701 0.000000
74.724304 -159.557312 -22.331701 0.000000
88.207611 -159.557312 -22.331701 0.000000
101.690918 -159.557312 -22.331701 0.000000
115.174225 -159.557312 -22.331701 0.000000
128.657501 -159.557312 -22.331701 0.000000
142.140808 -159.557312 -22.331701 0.000000
155.624115 -159.557312 -22.331701 0.000000
169.107422 -159.557312 -22.331701 0.000000
182.590698 -159.557312 -22.331701 0.000000
196.074036 -159.557312 -22.331701 0.000000
209.557312 -159.557312 -22.331701 0.000000
223.040588 -159.557312 -22.331701 0.000000
236.523926 -159.557312 -22.331701 0.000000
250.007202 -159.557312 -22.331701 0.000000
263.490540 -159.557312 -22.331701 0.000000
276.973816 -159.557312 -22.331701 0.000000
290.457092 -159.557312 -22.331701 0.000000
303.940430 -159.557312 -22.331701 0.000000
317.423706 -159.557312 -22.331701 0.000000
330.907043 -159.557312 -22.331701 0.000000
344.390320 -159.557312 -22.331701 0.000000
-343.257996 -173.040588 -22.331701 0.000000
-329.774689 -173.040588 -22.331701 0.000000
-316.291382 -173.040588 -22.331701 0.000000
-302.808105 -173.040588 -22.331701 0.000000
-289.324799 -173.040588 -22.331701 0.000000
-275.841492 -173.040588 -22.331701 0.000000
-262.358185 -173.040588 -22.331701 0.000000
-248.874893 -173.040588 -22.331701 0.000000
-235.391602 -173.040588 -22.331701 0.000000
-221.908295 -173.040588 -22.331701 0.000000
-208.424988 -173.040588 -22.331701 0.000000
-194.941696 -173.040588 -22.331701 0.000000
-181.458389 -173.040588 -22.331701 0.000000
-167.975098 -173.040588 -22.331701 0.000000
-154.491791 -173.040588 -22.331701 0.000000
-141.008499 -173.040588 -22.331701 0.000000
-127.525192 -173.040588 -22.331701 0.000000
-114.041885 -173.040588 -22.331701 0.000000
-100.558594 -173.040588 -22.331701 0.000000
-87.075287 -173.040588 -22.331701 0.000000
-73.591980 -173.040588 -22.331701 0.000000
-60.108704 -173.040588 -22.331701 0.000000
-46.625397 -173.040588 -22.331701 0.000000
-33.142090 -173.040588 -22.331701 0.000000
-19.658783 -173.040588 -22.331701 0.000000
-6.175476 -173.040588 -22.331701 0.000000
7.307800 -173.040588 -22.331701 0.000000
20.791107 -173.040588 -22.331701 0.000000
34.274414 -173.040588 -22.331701 0.000000
47.757721 -173.040588 -22.331701 0.000000
61.240997 -173.040588 -22.331701 0.000000
74.724304 -173.040588 -22.331701 0.000000
88.207611 -173.040588 -22.331701 0.000000
101.690918 -173.040588 -22.331701 0.000000
115.174225 -173.040588 -22.331701 0.000000
128.657501 -173.040588 -22.331701 0.000000
142.140808 -173.040588 -22.331701 0.000000
155.624115 -173.040588 -22.331701 0.000000
169.107422 -173.040588 -22.331701 0.000000
182.590698 -173.040588 -22.331701 0.000000
196.074036 -173.040588 -22.331701 0.000000
209.557312 -173.040588 -22.331701 0.000000
223.040588 -173.040588 -22.331701 0.000000
236.523926 -173.040588 -22.331701 0.000000
250.007202 -173.040588 -22.331701 0.000000
263.490540 -173.040588 -22.331701 0.000000
276.973816 -173.040588 -22.331701 0.000000
290.457092 -173.040588 -22.331701 0.000000
303.940430 -173.040588 -22.331701 0.000000
317.423706 -173.040588 -22.331701 0.000000
330.907043 -173.040588 -22.331701 0.000000
344.390320 -173.040588 -22.331701 0.000000
-343.257996 -186.523926 -22.331701 0.000000
-329.774689 -186.523926 -22.331701 0.000000
-316.291382 -186.523926 -22.331701 0.000000
-302.808105 -186.523926 -22.331701 0.000000
-289.324799 -186.523926 -22.331701 0.000000
-275.841492 -186.523926 -22.331701 0.000000
-262.358185 -186.523926 -22.331701 0.000000
-248.874893 -186.523926 -22.331701 0.000000
-235.391602 -186.523926 -22.331701 0.000000
-221.908295 -186.523926 -22.331701 0.000000
-208.424988 -186.523926 -22.331701 0.000000
-194.941696 -186.523926 -22.331701 0.000000
-181.458389 -186.523926 -22.331701 0.000000
-167.975098 -186.523926 -22.331701 0.000000
-154.491791 -186.523926 -22.331701 0.000000
-141.008499 -186.523926 -22.331701 0.000000
-127.525192 -186.523926 -22.331701 0.000000
-114.041885 -186.523926 -22.331701 0.000000
-100.558594 -186.523926 -22.331701 0.000000
-87.075287 -186.523926 -22.331701 0.000000
-73.591980 -186.523926 -22.331701 0.000000
-60.108704 -186.523926 -22.331701 0.000000
-46.625397 -186.523926 -22.331701 0.000000
-33.142090 -186.523926 -22.331701 0.000000
-19.658783 -186.523926 -22.331701 0.000000
-6.175476 -186.523926 -22.331701 0.000000
7.307800 -186.523926 -22.331701 0.000000
20.791107 -186.523926 -22.331701 0.000000
34.274414 -186.523926 -22.331701 0.000000
47.757721 -186.523926 -22.331701 0.000000
61.240997 -186.523926 -22.331701 0.000000
74.724304 -186.523926 -22.331701 0.000000
88.207611 -186.523926 -22.331701 0.000000
101.690918 -186.523926 -22.331701 0.000000
115.174225 -186.523926 -22.331701 0.000000
128.657501 -186.523926 -22.331701 0.000000
142.140808 -186.523926 -22.331701 0.000000
155.624115 -186.523926 -22.331701 0.000000
169.107422 -186.523926 -22.331701 0.000000
182.590698 -186.523926 -22.331701 0.000000
196.074036 -186.523926 -22.331701 0.000000
209.557312 -186.523926 -22.331701 0.000000
223.040588 -186.523926 -22.331701 0.000000
236.523926 -186.523926 -22.331701 0.000000
250.007202 -186.523926 -22.331701 0.000000
263.490540 -186.523926 -22.331701 0.000000
276.973816 -186.523926 -22.331701 0.000000
290.457092 -186.523926 -22.331701 0.000000
303.940430 -186.523926 -22.331701 0.000000
317.423706 -186.523926 -22.331701 0.000000
330.907043 -186.523926 -22.331701 0.000000
344.390320 -186.523926 -22.331701 0.000000
-343.257996 -200.007202 -22.331701 0.000000
-329.774689 -200.007202 -22.331701 0.000000
-316.291382 -200.007202 -22.331701 0.000000
-302.808105 -200.007202 -22.331701 0.000000
-289.324799 -200.007202 -22.331701 0.000000
-275.841492 -200.007202 -22.331701 0.000000
-262.358185 -200.007202 -22.331701 0.000000
-248.874893 -200.007202 -22.331701 0.000000
-235.391602 -200.007202 -22.331701 0.000000
-221.908295 -200.007202 -22.331701 0.000000
-208.424988 -200.007202 -22.331701 0.000000
-194.941696 -200.007202 -22.331701 0.000000
-181.458389 -200.007202 -22.331701 0.000000
-167.975098 -200.007202 -22.331701 0.000000
-154.491791 -200.007202 -22.331701 0.000000
-141.008499 -200.007202 -22.331701 0.000000
-127.525192 -200.007202 -22.331701 0.000000
-114.041885 -200.007202 -22.331701 0.000000
-100.558594 -200.007202 -22.331701 0.000000
-87.075287 -200.007202 -22.331701 0.000000
-73.591980 -200.007202 -22.331701 0.000000
-60.108704 -200.007202 -22.331701 0.000000
-46.625397 -200.007202 -22.331701 0.000000
-33.142090 -200.007202 -22.331701 0.000000
-19.658783 -200.007202 -22.331701 0.000000
-6.175476 -200.007202 -22.331701 0.000000
7.307800 -200.007202 -22.331701 0.000000
20.791107 -200.007202 -22.331701 0.000000
34.274414 -200.007202 -22.331701 0.000000
47.757721 -200.007202 -22.331701 0.000000
61.240997 -200.007202 -22.331701 0.000000
74.724304 -200.007202 -22.331701 0.000000
88.207611 -200.007202 -22.331701 0.000000
101.690918 -200.007202 -22.331701 0.000000
115.174225 -200.007202 -22.331701 0.000000
128.657501 -200.007202 -22.331701 0.000000
142.140808 -200.007202 -22.331701 0.000000
155.624115 -200.007202 -22.331701 0.000000
169.107422 -200.007202 -22.331701 0.000000
182.590698 -200.007202 -22.331701 0.000000
196.074036 -200.007202 -22.331701 0.000000
209.557312 -200.007202 -22.331701 0.000000
223.040588 -200.007202 -22.331701 0.000000
236.523926 -200.007202 -22.331701 0.000000
250.007202 -200.007202 -22.331701 0.000000
263.490540 -200.007202 -22.331701 0.000000
276.973816 -200.007202 -22.331701 0.000000
290.457092 -200.007202 -22.331701 0.000000
303.940430 -200.007202 -22.331701 0.000000
317.423706 -200.007202 -22.331701 0.000000
330.907043 -200.007202 -22.331701 0.000000
344.390320 -200.007202 -22.331701 0.000000
-343.257996 393.257996 -8.848400 0.000000
-329.774689 393.257996 -8.848400 0.000000
-316.291382 393.257996 -8.848400 0.000000
-302.808105 393.257996 -8.848400 0.000000
-289.324799 393.257996 -8.848400 0.000000
-275.841492 393.257996 -8.848400 0.000000
-262.358185 393.257996 -8.848400 0.000000
-248.874893 393.257996 -8.848400 0.000000
-235.391602 393.257996 -8.848400 0.000000
-221.908295 393.257996 -8.848400 0.000000
-208.424988 393.257996 -8.848400 0.000000
-194.941696 393.257996 -8.848400 0.000000
-181.458389 393.257996 -8.848400 0.000000
-167.975098 393.257996 -8.848400 0.000000
-154.491791 393.257996 -8.848400 0.000000
-141.008499 393.257996 -8.848400 0.000000
-127.525192 393.257996 -8.848400 0.000000
-114.041885 393.257996 -8.848400 0.000000
-100.558594 393.257996 -8.848400 0.000000
-87.075287 393.257996 -8.848400 0.000000
-73.591980 393.257996 -8.848400 0.000000
-60.108704 393.257996 -8.848400 0.000000
-46.625397 393.257996 -8.848400 0.000000
-33.142090 393.257996 -8.848400 0.000000
-19.658783 393.257996 -8.848400 0.000000
-6.175476 393.257996 -8.848400 0.000000
7.307800 393.257996 -8.848400 0.000000
20.791107 393.257996 -8.848400 0.000000
34.274414 393.257996 -8.848400 0.000000
47.757721 393.257996 -8.848400 0.000000
61.240997 393.257996 -8.848400 0.000000
74.724304 393.257996 -8.848400 0.000000
88.207611 393.257996 -8.848400 0.000000
101.690918 393.257996 -8.848400 0.000000
115.174225 393.257996 -8.848400 0.000000
128.657501 393.257996 -8.848400 0.000000
142.140808 393.257996 -8.848400 0.000000
155.624115 393.257996 -8.848400 0.000000
169.107422 393.257996 -8.848400 0.000000
182.590698 393.257996 -8.848400 0.000000
196.074036 393.257996 -8.848400 0.000000
209.557312 393.257996 -8.848400 0.000000
223.040588 393.257996 -8.848400 0.000000
236.523926 393.257996 -8.848400 0.000000
250.007202 393.257996 -8.848400 0.000000
263.490540 393.257996 -8.848400 0.000000
276.973816 393.257996 -8.848400 0.000000
290.457092 393.257996 -8.848400 0.000000
303.940430 393.257996 -8.848400 0.000000
317.423706 393.257996 -8.848400 0.000000
330.907043 393.257996 -8.848400 0.000000
344.390320 393.257996 -8.848400 0.000000
-343.257996 379.774689 -8.848400 0.000000
-329.774689 379.774689 -8.848400 0.000000
-316.291382 379.774689 -8.848400 0.000000
-302.808105 379.774689 -8.848400 0.000000
-289.324799 379.774689 -8.848400 0.000000
-275.841492 379.774689 -8.848400 0.000000
-262.358185 379.774689 -8.848400 0.000000
-248.874893 379.774689 -8.848400 0.000000
-235.391602 379.774689 -8.848400 0.000000
-221.908295 379.774689 -8.848400 0.000000
-208.424988 379.774689 -8.848400 0.000000
-194.941696 379.774689 -8.848400 0.000000
-181.458389 379.774689 -8.848400 0.000000
-167.975098 379.774689 -8.848400 0.000000
-154.491791 379.774689 -8.848400 0.000000
-141.008499 379.774689 -8.848400 0.000000
-127.525192 379.774689 -8.848400 0.000000
-114.041885 379.774689 -8.848400 0.000000
-100.558594 379.774689 -8.848400 0.000000
-87.075287 379.774689 -8.848400 0.000000
-73.591980 379.774689 -8.848400 0.000000
-60.108704 379.774689 -8.848400 0.000000
-46.625397 379.774689 -8.848400 0.000000
-33.142090 379.774689 -8.848400 0.000000
-19.658783 379.774689 -8.848400 0.000000
-6.175476 379.774689 -8.848400 0.000000
7.307800 379.774689 -8.848400 0.000000
20.791107 379.774689 -8.848400 0.000000
34.274414 379.774689 -8.848400 0.000000
47.757721 379.774689 -8.848400 0.000000
61.240997 379.774689 -8.848400 0.000000
74.724304 379.774689 -8.848400 0.000000
88.207611 379.774689 -8.848400 0.000000
101.690918 379.774689 -8.848400 0.000000
115.174225 379.774689 -8.848400 0.000000
128.657501 379.774689 -8.848400 0.000000
142.140808 379.774689 -8.848400 0.000000
155.624115 379.774689 -8.848400 0.000000
169.107422 379.774689 -8.848400 0.000000
182.590698 379.774689 -8.848400 0.000000
196.074036 379.774689 -8.848400 0.000000
209.557312 379.774689 -8.848400 0.000000
223.040588 379.774689 -8.848400 0.000000
236.523926 379.774689 -8.848400 0.000000
250.007202 379.774689 -8.848400 0.000000
263.490540 379.774689 -8.848400 0.000000
276.973816 379.774689 -8.848400 0.000000
290.457092 379.774689 -8.848400 0.000000
303.940430 379.774689 -8.848400 0.000000
317.423706 379.774689 -8.848400 0.000000
330.907043 379.774689 -8.848400 0.000000
344.390320 379.774689 -8.848400 0.000000
-343.257996 366.291382 -8.848400 0.000000
-329.774689 366.291382 -8.848400 0.000000
-316.291382 366.291382 -8.848400 0.000000
-302.808105 366.291382 -8.848400 0.000000
-289.324799 366.291382 -8.848400 0.000000
-275.841492 366.291382 -8.848400 0.000000
-262.358185 366.291382 -8.848400 0.000000
-248.874893 366.291382 -8.848400 0.000000
-235.391602 366.291382 -8.848400 0.000000
-221.908295 366.291382 -8.848400 0.000000
-208.424988 366.291382 -8.848400 0.000000
-194.941696 366.291382 -8.848400 0.000000
-181.458389 366.291382 -8.848400 0.000000
-167.975098 366.291382 -8.848400 0.000000
-154.491791 366.291382 -8.848400 0.000000
-141.008499 366.291382 -8.848400 0.000000
-127.525192 366.291382 -8.848400 0.000000
-114.041885 366.291382 -8.848400 0.000000
-100.558594 366.291382 -8.848400 0.000000
-87.075287 366.291382 -8.848400 0.000000
-73.591980 366.291382 -8.848400 0.000000
-60.108704 366.291382 -8.848400 0.000000
-46.625397 366.291382 -8.848400 0.000000
-33.142090 366.291382 -8.848400 0.000000
-19.658783 366.291382 -8.848400 0.000000
-6.175476 366.291382 -8.848400 0.000000
7.307800 366.291382 -8.848400 0.000000
20.791107 366.291382 -8.848400 0.000000
34.274414 366.291382 -8.848400 0.000000
47.757721 366.291382 -8.848400 0.000000
61.240997 366.291382 -8.848400 0.000000
74.724304 366.291382 -8.848400 0.000000
88.207611 366.291382 -8.848400 0.000000
101.690918 366.291382 -8.848400 0.000000
115.174225 366.291382 -8.848400 0.000000
128.657501 366.291382 -8.848400 0.000000
142.140808 366.291382 -8.848400 0.000000
155.624115 366.291382 -8.848400 0.000000
169.107422 366.291382 -8.848400 0.000000
182.590698 366.291382 -8.848400 0.000000
196.074036 366.291382 -8.848400 0.000000
209.557312 366.291382 -8.848400 0.000000
223.040588 366.291382 -8.848400 0.000000
236.523926 366.291382 -8.848400 0.000000
250.007202 366.291382 -8.848400 0.000000
263.490540 366.291382 -8.848400 0.000000
276.973816 366.291382 -8.848400 0.000000
290.457092 366.291382 -8.848400 0.000000
303.940430 366.291382 -8.848400 0.000000
317.423706 366.291382 -8.848400 0.000000
330.907043 366.291382 -8.848400 0.000000
344.390320 366.291382 -8.848400 0.000000
-343.257996 352.808105 -8.848400 0.000000
-329.774689 352.808105 -8.848400 0.000000
-316.291382 352.808105 -8.848400 0.000000
-302.808105 352.808105 -8.848400 0.000000
-289.324799 352.808105 -8.848400 0.000000
-275.841492 352.808105 -8.848400 0.000000
-262.358185 352.808105 -8.848400 0.000000
-248.874893 352.808105 -8.848400 0.000000
-235.391602 352.808105 -8.848400 0.000000
-221.908295 352.808105 -8.848400 0.000000
-208.424988 352.808105 -8.848400 0.000000
-194.941696 352.808105 -8.848400 0.000000
-181.458389 352.808105 -8.848400 0.000000
-167.975098 352.808105 -8.848400 0.000000
-154.491791 352.808105 -8.848400 0.000000
-141.008499 352.808105 -8.848400 0.000000
-127.525192 352.808105 -8.848400 0.000000
-114.041885 352.808105 -8.848400 0.000000
-100.558594 352.808105 -8.848400 0.000000
-87.075287 352.808105 -8.848400 0.000000
-73.591980 352.808105 -8.848400 0.000000
-60.108704 352.808105 -8.848400 0.000000
-46.625397 352.808105 -8.848400 0.000000
-33.142090 352.808105 -8.848400 0.000000
-19.658783 352.808105 -8.848400 0.000000
-6.175476 352.808105 -8.848400 0.000000
7.307800 352.808105 -8.848400 0.000000
20.791107 352.808105 -8.848400 0.000000
34.274414 352.808105 -8.848400 0.000000
47.757721 352.808105 -8.848400 0.000000
61.240997 352.808105 -8.848400 0.000000
74.724304 352.808105 -8.848400 0.000000
88.207611 352.808105 -8.848400 0.000000
101.690918 352.808105 -8.848400 0.000000
115.174225 352.808105 -8.848400 0.000000
128.657501 352.808105 -8.848400 0.000000
142.140808 352.808105 -8.848400 0.000000
155.624115 352.808105 -8.848400 0.000000
169.107422 352.808105 -8.848400 0.000000
182.590698 352.808105 -8.848400 0.000000
196.074036 352.808105 -8.848400 0.000000
209.557312 352.808105 -8.848400 0.000000
223.040588 352.808105 -8.848400 0.000000
236.523926 352.808105 -8.848400 0.000000
250.007202 352.808105 -8.848400 0.000000
263.490540 352.808105 -8.848400 0.000000
276.973816 352.808105 -8.848400 0.000000
290.457092 352.808105 -8.848400 0.000000
303.940430 352.808105 -8.848400 0.000000
317.423706 352.808105 -8.848400 0.000000
330.907043 352.808105 -8.848400 0.000000
344.390320 352.808105 -8.848400 0.000000
-343.257996 339.324799 -8.848400 0.000000
-329.774689 339.324799 -8.848400 0.000000
-316.291382 339.324799 -8.848400 0.000000
-302.808105 339.324799 -8.848400 0.000000
-289.324799 339.324799 -8.848400 0.000000
-275.841492 339.324799 -8.848400 0.000000
-262.358185 339.324799 -8.848400 0.000000
-248.874893 339.324799 -8.848400 0.000000
-235.391602 339.324799 -8.848400 0.000000
-221.908295 339.324799 -8.848400 0.000000
-208.424988 339.324799 -8.848400 0.000000
-194.941696 339.324799 -8.848400 0.000000
-181.458389 339.324799 -8.848400 0.000000
-167.975098 339.324799 -8.848400 0.000000
-154.491791 339.324799 -8.848400 0.000000
-141.008499 339.324799 -8.848400 0.000000
-127.525192 339.324799 -8.848400 0.000000
-114.041885 339.324799 -8.848400 0.000000
-100.558594 339.324799 -8.848400 0.000000
-87.075287 339.324799 -8.848400 0.000000
-73.591980 339.324799 -8.848400 0.000000
-60.108704 339.324799 -8.848400 0.000000
-46.625397 339.324799 -8.848400 0.000000
-33.142090 339.324799 -8.848400 0.000000
-19.658783 339.324799 -8.848400 0.000000
-6.175476 339.324799 -8.848400 0.000000
7.307800 339.324799 -8.848400 0.000000
20.791107 339.324799 -8.848400 0.000000
34.274414 339.324799 -8.848400 0.000000
47.757721 339.324799 -8.848400 0.000000
61.240997 339.324799 -8.848400 0.000000
74.724304 339.324799 -8.848400 0.000000
88.207611 339.324799 -8.848400 0.000000
101.690918 339.324799 -8.848400 0.000000
115.174225 339.324799 -8.848400 0.000000
128.657501 339.324799 -8.848400 0.000000
142.140808 339.324799 -8.848400 0.000000
155.624115 339.324799 -8.848400 0.000000
169.107422 339.324799 -8.848400 0.000000
182.590698 339.324799 -8.848400 0.000000
196.074036 339.324799 -8.848400 0.000000
209.557312 339.324799 -8.848400 0.000000
223.040588 339.324799 -8.848400 0.000000
236.523926 339.324799 -8.848400 0.000000
250.007202 339.324799 -8.848400 0.000000
263.490540 339.324799 -8.848400 0.000000
276.973816 339.324799 -8.848400 0.000000
290.457092 339.324799 -8.848400 0.000000
303.940430 339.324799 -8.848400 0.000000
317.423706 339.324799 -8.848400 0.000000
330.907043 339.324799 -8.848400 0.000000
344.390320 339.324799 -8.848400 0.000000
-343.257996 325.841492 -8.848400 0.000000
-329.774689 325.841492 -8.848400 0.000000
-316.291382 325.841492 -8.848400 0.000000
-302.808105 325.841492 -8.848400 0.000000
-289.324799 325.841492 -8.848400 0.000000
-275.841492 325.841492 -8.848400 0.000000
-262.358185 325.841492 -8.848400 0.000000
-248.874893 325.841492 -8.848400 0.000000
-235.391602 325.841492 -8.848400 0.000000
-221.908295 325.841492 -8.848400 0.000000
-208.424988 325.841492 -8.848400 0.000000
-194.941696 325.841492 -8.848400 0.000000
-181.458389 325.841492 -8.848400 0.000000
-167.975098 325.841492 -8.848400 0.000000
-154.491791 325.841492 -8.848400 0.000000
-141.008499 325.841492 -8.848400 0.000000
-127.525192 325.841492 -8.848400 0.309001
-114.041885 325.841492 -8.848400 0.740211
-100.558594 325.841492 -8.848400 1.219232
-87.075287 325.841492 -8.848400 1.196254
-73.591980 325.841492 -8.848400 1.461326
-60.108704 325.841492 -8.848400 1.243536
-46.625397 325.841492 -8.848400 1.644401
-33.142090 325.841492 -8.848400 0.000000
-19.658783 325.841492 -8.848400 0.000000
-6.175476 325.841492 -8.848400 0.000000
7.307800 325.841492 -8.848400 0.000000
20.791107 325.841492 -8.848400 0.000000
34.274414 325.841492 -8.848400 0.000000
47.757721 325.841492 -8.848400 0.000000
61.240997 325.841492 -8.848400 0.000000
74.724304 325.841492 -8.848400 0.000000
88.207611 325.841492 -8.848400 0.000000
101.690918 325.841492 -8.848400 0.000000
115.174225 325.841492 -8.848400 0.000000
128.657501 325.841492 -8.848400 0.000000
142.140808 325.841492 -8.848400 0.000000
155.624115 325.841492 -8.848400 0.000000
169.107422 325.841492 -8.848400 0.000000
182.590698 325.841492 -8.848400 0.000000
196.074036 325.841492 -8.848400 0.000000
209.557312 325.841492 -8.848400 0.000000
223.040588 325.841492 -8.848400 0.000000
236.523926 325.841492 -8.848400 0.000000
250.007202 325.841492 -8.848400 0.000000
263.490540 325.841492 -8.848400 0.000000
276.973816 325.841492 -8.848400 0.000000
290.457092 325.841492 -8.848400 0.000000
303.940430 325.841492 -8.848400 0.000000
317.423706 325.841492 -8.848400 0.000000
330.907043 325.841492 -8.848400 0.000000
344.390320 325.841492 -8.848400 0.000000
-343.257996 312.358185 -8.848400 0.000000
-329.774689 312.358185 -8.848400 0.000000
-316.291382 312.358185 -8.848400 0.000000
-302.808105 312.358185 -8.848400 0.000000
-289.324799 312.358185 -8.848400 0.000000
-275.841492 312.358185 -8.848400 0.000000
-262.358185 312.358185 -8.848400 0.000000
-248.874893 312.358185 -8.848400 0.000000
-235.391602 312.358185 -8.848400 0.000000
-221.908295 312.358185 -8.848400 0.000000
-208.424988 312.358185 -8.848400 0.000000
-194.941696 312.358185 -8.848400 0.000000
-181.458389 312.358185 -8.848400 0.000000
-167.975098 312.358185 -8.848400 0.000000
-154.491791 312.358185 -8.848400 0.000000
-141.008499 312.358185 -8.848400 -0.314046
-127.525192 312.358185 -8.848400 -0.099559
-114.041885 312.358185 -8.848400 0.149240
-100.558594 312.358185 -8.848400 0.927302
-87.075287 312.358185 -8.848400 1.158574
-73.591980 312.358185 -8.848400 1.157189
-60.108704 312.358185 -8.848400 1.284425
-46.625397 312.358185 -8.848400 1.630155
-33.142090 312.358185 -8.848400 1.590030
-19.658783 312.358185 -8.848400 0.000000
-6.175476 312.358185 -8.848400 0.000000
7.307800 312.358185 -8.848400 0.000000
20.791107 312.358185 -8.848400 0.000000
34.274414 312.358185 -8.848400 0.000000
47.757721 312.358185 -8.848400 0.000000
61.240997 312.358185 -8.848400 0.000000
74.724304 312.358185 -8.848400 0.000000
88.207611 312.358185 -8.848400 0.000000
101.690918 312.358185 -8.848400 0.000000
115.174225 312.358185 -8.848400 0.000000
128.657501 312.358185 -8.848400 0.000000
142.140808 312.358185 -8.848400 0.000000
155.624115 312.358185 -8.848400 0.000000
169.107422 312.358185 -8.848400 0.000000
182.590698 312.358185 -8.848400 0.000000
196.074036 312.358185 -8.848400 0.000000
209.557312 312.358185 -8.848400 0.000000
223.040588 312.358185 -8.848400 0.000000
236.523926 312.358185 -8.848400 0.000000
250.007202 312.358185 -8.848400 0.000000
263.490540 312.358185 -8.848400 0.000000
276.973816 312.358185 -8.848400 0.000000
290.457092 312.358185 -8.848400 0.000000
303.940430 312.358185 -8.848400 0.000000
317.423706 312.358185 -8.848400 0.000000
330.907043 312.358185 -8.848400 0.000000
344.390320 312.358185 -8.848400 0.000000
-343.257996 298.874878 -8.848400 0.000000
-329.774689 298.874878 -8.848400 0.000000
-316.291382 298.874878 -8.848400 0.000000
-302.808105 298.874878 -8.848400 0.000000
-289.324799 298.874878 -8.848400 0.000000
-275.841492 298.874878 -8.848400 0.000000
-262.358185 298.874878 -8.848400 0.000000
-248.874893 298.874878 -8.848400 0.000000
-235.391602 298.874878 -8.848400 0.000000
-221.908295 298.874878 -8.848400 0.000000
-208.424988 298.874878 -8.848400 0.000000
-194.941696 298.874878 -8.848400 0.000000
-181.458389 298.874878 -8.848400 0.000000
-167.975098 298.874878 -8.848400 0.000000
-154.491791 298.874878 -8.848400 0.000000
-141.008499 298.874878 -8.848400 -0.241303
-127.525192 298.874878 -8.848400 -0.255916
-114.041885 298.874878 -8.848400 -0.079244
-100.558594 298.874878 -8.848400 0.514737
-87.075287 298.874878 -8.848400 1.081830
-73.591980 298.874878 -8.848400 1.236122
-60.108704 298.874878 -8.848400 1.508555
-46.625397 298.874878 -8.848400 1.832732
-33.142090 298.874878 -8.848400 2.228884
-19.658783 298.874878 -8.848400 1.790041
-6.175476 298.874878 -8.848400 0.000000
7.307800 298.874878 -8.848400 0.000000
20.791107 298.874878 -8.848400 0.000000
34.274414 298.874878 -8.848400 0.000000
47.757721 298.874878 -8.848400 0.000000
61.240997 298.874878 -8.848400 0.000000
74.724304 298.874878 -8.848400 0.000000
88.207611 298.874878 -8.848400 0.000000
101.690918 298.874878 -8.848400 0.000000
115.174225 298.874878 -8.848400 0.000000
128.657501 298.874878 -8.848400 0.000000
142.140808 298.874878 -8.848400 0.000000
155.624115 298.874878 -8.848400 0.000000
169.107422 298.874878 -8.848400 0.000000
182.590698 298.874878 -8.848400 0.000000
196.074036 298.874878 -8.848400 0.000000
209.557312 298.874878 -8.848400 0.000000
223.040588 298.874878 -8.848400 0.000000
236.523926 298.874878 -8.848400 0.000000
250.007202 298.874878 -8.848400 0.000000
263.490540 298.874878 -8.848400 0.000000
276.973816 298.874878 -8.848400 0.000000
290.457092 298.874878 -8.848400 0.000000
303.940430 298.874878 -8.848400 0.000000
317.423706 298.874878 -8.848400 0.000000
330.907043 298.874878 -8.848400 0.000000
344.390320 298.874878 -8.848400 0.000000
-343.257996 285.391602 -8.848400 0.000000
-329.774689 285.391602 -8.848400 0.000000
-316.291382 285.391602 -8.848400 0.000000
-302.808105 285.391602 -8.848400 0.000000
-289.324799 285.391602 -8.848400 0.000000
-275.841492 285.391602 -8.848400 0.000000
-262.358185 285.391602 -8.848400 0.000000
-248.874893 285.391602 -8.848400 0.000000
-235.391602 285.391602 -8.848400 0.000000
-221.908295 285.391602 -8.848400 0.000000
-208.424988 285.391602 -8.848400 0.000000
-194.941696 285.391602 -8.848400 0.000000
-181.458389 285.391602 -8.848400 0.000000
-167.975098 285.391602 -8.848400 0.000000
-154.491791 285.391602 -8.848400 0.000000
-141.008499 285.391602 -8.848400 -0.533838
-127.525192 285.391602 -8.848400 -0.540395
-114.041885 285.391602 -8.848400 -0.061453
-100.558594 285.391602 -8.848400 0.467971
-87.075287 285.391602 -8.848400 0.890875
-73.591980 285.391602 -8.848400 1.092646
-60.108704 285.391602 -8.848400 1.328200
-46.625397 285.391602 -8.848400 1.861130
-33.142090 285.391602 -8.848400 2.077348
-19.658783 285.391602 -8.848400 1.626258
-6.175476 285.391602 -8.848400 1.408426
7.307800 285.391602 -8.848400 0.916032
20.791107 285.391602 -8.848400 0.338518
34.274414 285.391602 -8.848400 0.000000
47.757721 285.391602 -8.848400 0.000000
61.240997 285.391602 -8.848400 0.000000
74.724304 285.391602 -8.848400 0.000000
88.207611 285.391602 -8.848400 0.000000
101.690918 285.391602 -8.848400 0.000000
115.174225 285.391602 -8.848400 0.000000
128.657501 285.391602 -8.848400 0.000000
142.140808 285.391602 -8.848400 0.000000
155.624115 285.391602 -8.848400 0.000000
169.107422 285.391602 -8.848400 0.000000
182.590698 285.391602 -8.848400 0.000000
196.074036 285.391602 -8.848400 0.000000
209.557312 285.391602 -8.848400 0.000000
223.040588 285.391602 -8.848400 0.000000
236.523926 285.391602 -8.848400 0.000000
250.007202 285.391602 -8.848400 0.000000
263.490540 285.391602 -8.848400 0.000000
276.973816 285.391602 -8.848400 0.000000
290.457092 285.391602 -8.848400 0.000000
303.940430 285.391602 -8.848400 0.000000
317.423706 285.391602 -8.848400 0.000000
330.907043 285.391602 -8.848400 0.000000
344.390320 285.391602 -8.848400 0.000000
-343.257996 271.908295 -8.848400 0.000000
-329.774689 271.908295 -8.848400 0.000000
-316.291382 271.908295 -8.848400 0.000000
-302.808105 271.908295 -8.848400 0.000000
-289.324799 271.908295 -8.848400 0.000000
-275.841492 271.908295 -8.848400 0.000000
-262.358185 271.908295 -8.848400 0.000000
-248.874893 271.908295 -8.848400 0.000000
-235.391602 271.908295 -8.848400 0.000000
-221.908295 271.908295 -8.848400 0.000000
-208.424988 271.908295 -8.848400 0.000000
-194.941696 271.908295 -8.848400 0.000000
-181.458389 271.908295 -8.848400 0.000000
-167.975098 271.908295 -8.848400 0.000000
-154.491791 271.908295 -8.848400 0.000000
-141.008499 271.908295 -8.848400 -0.297146
-127.525192 271.908295 -8.848400 -0.456887
-114.041885 271.908295 -8.848400 -0.440865
-100.558594 271.908295 -8.848400 0.023585
-87.075287 271.908295 -8.848400 0.768867
-73.591980 271.908295 -8.848400 1.003550
-60.108704 271.908295 -8.848400 1.517319
-46.625397 271.908295 -8.848400 2.218530
-33.142090 271.908295 -8.848400 2.189816
-19.658783 271.908295 -8.848400 1.722184
-6.175476 271.908295 -8.848400 1.527658
7.307800 271.908295 -8.848400 0.959393
20.791107 271.908295 -8.848400 0.604763
34.274414 271.908295 -8.848400 0.285647
47.757721 271.908295 -8.848400 -0.296496
61.240997 271.908295 -8.848400 0.000000
74.724304 271.908295 -8.848400 0.000000
88.207611 271.908295 -8.848400 -0.837011
101.690918 271.908295 -8.848400 -0.385003
115.174225 271.908295 -8.848400 -0.420840
128.657501 271.908295 -8.848400 -0.424123
142.140808 271.908295 -8.848400 -0.344313
155.624115 271.908295 -8.848400 0.000000
169.107422 271.908295 -8.848400 0.000000
182.590698 271.908295 -8.848400 0.000000
196.074036 271.908295 -8.848400 0.000000
209.557312 271.908295 -8.848400 0.000000
223.040588 271.908295 -8.848400 0.000000
236.523926 271.908295 -8.848400 0.000000
250.007202 271.908295 -8.848400 0.000000
263.490540 271.908295 -8.848400 0.000000
276.973816 271.908295 -8.848400 0.000000
290.457092 271.908295 -8.848400 0.000000
303.940430 271.908295 -8.848400 0.000000
317.423706 271.908295 -8.848400 0.000000
330.907043 271.908295 -8.848400 0.000000
344.390320 271.908295 -8.848400 0.000000
-343.257996 258.424988 -8.848400 0.000000
-329.774689 258.424988 -8.848400 0.000000
-316.291382 258.424988 -8.848400 0.000000
-302.808105 258.424988 -8.848400 0.000000
-289.324799 258.424988 -8.848400 0.000000
-275.841492 258.424988 -8.848400 0.000000
-262.358185 258.424988 -8.848400 0.000000
-248.874893 258.424988 -8.848400 0.000000
-235.391602 258.424988 -8.848400 0.000000
-221.908295 258.424988 -8.848400 0.000000
-208.424988 258.424988 -8.848400 0.000000
-194.941696 258.424988 -8.848400 0.000000
-181.458389 258.424988 -8.848400 0.000000
-167.975098 258.424988 -8.848400 0.000000
-154.491791 258.424988 -8.848400 0.000000
-141.008499 258.424988 -8.848400 -0.445017
-127.525192 258.424988 -8.848400 -0.517176
-114.041885 258.424988 -8.848400 -0.127024
-100.558594 258.424988 -8.848400 0.058808
-87.075287 258.424988 -8.848400 0.572978
-73.591980 258.424988 -8.848400 0.863784
-60.108704 258.424988 -8.848400 1.271563
-46.625397 258.424988 -8.848400 2.203456
-33.142090 258.424988 -8.848400 2.306626
-19.658783 258.424988 -8.848400 2.141968
-6.175476 258.424988 -8.848400 1.395480
7.307800 258.424988 -8.848400 0.716713
20.791107 258.424988 -8.848400 0.439921
34.274414 258.424988 -8.848400 0.061673
47.757721 258.424988 -8.848400 -0.692568
61.240997 258.424988 -8.848400 -1.008900
74.724304 258.424988 -8.848400 -1.000006
88.207611 258.424988 -8.848400 -0.890969
101.690918 258.424988 -8.848400 -0.592624
115.174225 258.424988 -8.848400 -0.580410
128.657501 258.424988 -8.848400 -0.203935
142.140808 258.424988 -8.848400 -0.397179
155.624115 258.424988 -8.848400 -0.195016
169.107422 258.424988 -8.848400 0.000000
182.590698 258.424988 -8.848400 0.000000
196.074036 258.424988 -8.848400 0.000000
209.557312 258.424988 -8.848400 0.000000
223.040588 258.424988 -8.848400 0.000000
236.523926 258.424988 -8.848400 0.000000
250.007202 258.424988 -8.848400 0.000000
263.490540 258.424988 -8.848400 0.000000
276.973816 258.424988 -8.848400 0.000000
290.457092 258.424988 -8.848400 0.000000
303.940430 258.424988 -8.848400 0.000000
317.423706 258.424988 -8.848400 0.000000
330.907043 258.424988 -8.848400 0.000000
344.390320 258.424988 -8.848400 0.000000
-343.257996 244.941696 -8.848400 0.000000
-329.774689 244.941696 -8.848400 0.000000
-316.291382 244.941696 -8.848400 0.000000
-302.808105 244.941696 -8.848400 0.000000
-289.324799 244.941696 -8.848400 0.000000
-275.841492 244.941696 -8.848400 0.000000
-262.358185 244.941696 -8.848400 0.000000
-248.874893 244.941696 -8.848400 0.000000
-235.391602 244.941696 -8.848400 0.000000
-221.908295 244.941696 -8.848400 0.000000
-208.424988 244.941696 -8.848400 0.000000
-194.941696 244.941696 -8.848400 0.000000
-181.458389 244.941696 -8.848400 0.000000
-167.975098 244.941696 -8.848400 0.000000
-154.491791 244.941696 -8.848400 -0.401020
-141.008499 244.941696 -8.848400 -0.339927
-127.525192 244.941696 -8.848400 -0.494839
-114.041885 244.941696 -8.848400 -0.327051
-100.558594 244.941696 -8.848400 0.105895
-87.075287 244.941696 -8.848400 0.340179
-73.591980 244.941696 -8.848400 0.539048
-60.108704 244.941696 -8.848400 1.061725
-46.625397 244.941696 -8.848400 1.826502
-33.142090 244.941696 -8.848400 2.120814
-19.658783 244.941696 -8.848400 2.101816
-6.175476 244.941696 -8.848400 1.506558
7.307800 244.941696 -8.848400 0.935426
20.791107 244.941696 -8.848400 0.519635
34.274414 244.941696 -8.848400 -0.157866
47.757721 244.941696 -8.848400 -0.541075
61.240997 244.941696 -8.848400 -1.025852
74.724304 244.941696 -8.848400 -1.375654
88.207611 244.941696 -8.848400 -0.965968
101.690918 244.941696 -8.848400 -0.811183
115.174225 244.941696 -8.848400 -0.459982
128.657501 244.941696 -8.848400 -0.109499
142.140808 244.941696 -8.848400 -0.073698
155.624115 244.941696 -8.848400 0.221692
169.107422 244.941696 -8.848400 0.055692
182.590698 244.941696 -8.848400 0.000000
196.074036 244.941696 -8.848400 0.000000
209.557312 244.941696 -8.848400 0.000000
223.040588 244.941696 -8.848400 0.000000
236.523926 244.941696 -8.848400 0.000000
250.007202 244.941696 -8.848400 0.000000
263.490540 244.941696 -8.848400 0.000000
276.973816 244.941696 -8.848400 0.000000
290.457092 244.941696 -8.848400 0.000000
303.940430 244.941696 -8.848400 0.000000
317.423706 244.941696 -8.848400 0.000000
330.907043 244.941696 -8.848400 0.000000
344.390320 244.941696 -8.848400 0.000000
-343.257996 231.458389 -8.848400 0.000000
-329.774689 231.458389 -8.848400 0.000000
-316.291382 231.458389 -8.848400 0.000000
-302.808105 231.458389 -8.848400 0.000000
-289.324799 231.458389 -8.848400 0.000000
-275.841492 231.458389 -8.848400 0.000000
-262.358185 231.458389 -8.848400 0.000000
-248.874893 231.458389 -8.848400 0.000000
-235.391602 231.458389 -8.848400 0.000000
-221.908295 231.458389 -8.848400 0.000000
-208.424988 231.458389 -8.848400 0.000000
-194.941696 231.458389 -8.848400 0.000000
-181.458389 231.458389 -8.848400 0.000000
-167.975098 231.458389 -8.848400 0.000000
-154.491791 231.458389 -8.848400 0.000000
-141.008499 231.458389 -8.848400 -0.556172
-127.525192 231.458389 -8.848400 -0.310770
-114.041885 231.458389 -8.848400 -0.312540
-100.558594 231.458389 -8.848400 0.047871
-87.075287 231.458389 -8.848400 0.265720
-73.591980 231.458389 -8.848400 0.189359
-60.108704 231.458389 -8.848400 0.960146
-46.625397 231.458389 -8.848400 1.657518
-33.142090 231.458389 -8.848400 2.049222
-19.658783 231.458389 -8.848400 2.307828
-6.175476 231.458389 -8.848400 1.791108
7.307800 231.458389 -8.848400 1.104290
20.791107 231.458389 -8.848400 0.505055
34.274414 231.458389 -8.848400 -0.165310
47.757721 231.458389 -8.848400 -0.979452
61.240997 231.458389 -8.848400 -1.172729
74.724304 231.458389 -8.848400 -1.487194
88.207611 231.458389 -8.848400 -1.201859
101.690918 231.458389 -8.848400 -0.959760
115.174225 231.458389 -8.848400 -0.308541
128.657501 231.458389 -8.848400 -0.315287
142.140808 231.458389 -8.848400 -0.078198
155.624115 231.458389 -8.848400 0.287257
169.107422 231.458389 -8.848400 0.173178
182.590698 231.458389 -8.848400 0.000000
196.074036 231.458389 -8.848400 0.000000
209.557312 231.458389 -8.848400 0.000000
223.040588 231.458389 -8.848400 0.000000
236.523926 231.458389 -8.848400 0.000000
250.007202 231.458389 -8.848400 0.000000
263.490540 231.458389 -8.848400 0.000000
276.973816 231.458389 -8.848400 0.000000
290.457092 231.458389 -8.848400 0.000000
303.940430 231.458389 -8.848400 0.000000
317.423706 231.458389 -8.848400 0.000000
330.907043 231.458389 -8.848400 0.000000
344.390320 231.458389 -8.848400 0.000000
-343.257996 217.975098 -8.848400 0.000000
-329.774689 217.975098 -8.848400 0.000000
-316.291382 217.975098 -8.848400 0.000000
-302.808105 217.975098 -8.848400 0.000000
-289.324799 217.975098 -8.848400 0.000000
-275.841492 217.975098 -8.848400 0.000000
-262.358185 217.975098 -8.848400 0.000000
-248.874893 217.975098 -8.848400 0.000000
-235.391602 217.975098 -8.848400 0.000000
-221.908295 217.975098 -8.848400 0.000000
-208.424988 217.975098 -8.848400 0.000000
-194.941696 217.975098 -8.848400 0.000000
-181.458389 217.975098 -8.848400 0.000000
-167.975098 217.975098 -8.848400 0.000000
-154.491791 217.975098 -8.848400 -0.617543
-141.008499 217.975098 -8.848400 -0.626454
-127.525192 217.975098 -8.848400 -0.312041
-114.041885 217.975098 -8.848400 -0.222094
-100.558594 217.975098 -8.848400 -0.169998
-87.075287 217.975098 -8.848400 0.128648
-73.591980 217.975098 -8.848400 0.283399
-60.108704 217.975098 -8.848400 0.860657
-46.625397 217.975098 -8.848400 1.764217
-33.142090 217.975098 -8.848400 1.790638
-19.658783 217.975098 -8.848400 2.166530
-6.175476 217.975098 -8.848400 1.830349
7.307800 217.975098 -8.848400 1.418527
20.791107 217.975098 -8.848400 0.396036
34.274414 217.975098 -8.848400 -0.698029
47.757721 217.975098 -8.848400 -1.626104
61.240997 217.975098 -8.848400 -1.725301
74.724304 217.975098 -8.848400 -1.625492
88.207611 217.975098 -8.848400 -1.409417
101.690918 217.975098 -8.848400 -0.846728
115.174225 217.975098 -8.848400 -0.449340
128.657501 217.975098 -8.848400 -0.208751
142.140808 217.975098 -8.848400 -0.037615
155.624115 217.975098 -8.848400 0.077818
169.107422 217.975098 -8.848400 0.126055
182.590698 217.975098 -8.848400 0.000000
196.074036 217.975098 -8.848400 0.000000
209.557312 217.975098 -8.848400 0.000000
223.040588 217.975098 -8.848400 0.000000
236.523926 217.975098 -8.848400 0.000000
250.007202 217.975098 -8.848400 0.000000
263.490540 217.975098 -8.848400 0.000000
276.973816 217.975098 -8.848400 0.000000
290.457092 217.975098 -8.848400 0.000000
303.940430 217.975098 -8.848400 0.000000
317.423706 217.975098 -8.848400 0.000000
330.907043 217.975098 -8.848400 0.000000
344.390320 217.975098 -8.848400 0.000000
-343.257996 204.491791 -8.848400 0.000000
-329.774689 204.491791 -8.848400 0.000000
-316.291382 204.491791 -8.848400 0.000000
-302.808105 204.491791 -8.848400 0.000000
-289.324799 204.491791 -8.848400 0.000000
-275.841492 204.491791 -8.848400 0.000000
-262.358185 204.491791 -8.848400 0.000000
-248.874893 204.491791 -8.848400 0.000000
-235.391602 204.491791 -8.848400 0.000000
-221.908295 204.491791 -8.848400 0.000000
-208.424988 204.491791 -8.848400 0.000000
-194.941696 204.491791 -8.848400 0.000000
-181.458389 204.491791 -8.848400 0.000000
-167.975098 204.491791 -8.848400 0.000000
-154.491791 204.491791 -8.848400 -0.541762
-141.008499 204.491791 -8.848400 -0.631918
-127.525192 204.491791 -8.848400 -0.562781
-114.041885 204.491791 -8.848400 -0.247905
-100.558594 204.491791 -8.848400 -0.140788
-87.075287 204.491791 -8.848400 0.246058
-73.591980 204.491791 -8.848400 0.397341
-60.108704 204.491791 -8.848400 0.679813
-46.625397 204.491791 -8.848400 1.465058
-33.142090 204.491791 -8.848400 1.974190
-19.658783 204.491791 -8.848400 1.798623
-6.175476 204.491791 -8.848400 1.147409
7.307800 204.491791 -8.848400 0.603987
20.791107 204.491791 -8.848400 -0.197635
34.274414 204.491791 -8.848400 -1.217143
47.757721 204.491791 -8.848400 -1.743253
61.240997 204.491791 -8.848400 -1.960215
74.724304 204.491791 -8.848400 -1.720124
88.207611 204.491791 -8.848400 -1.463429
101.690918 204.491791 -8.848400 -0.963071
115.174225 204.491791 -8.848400 -0.614942
128.657501 204.491791 -8.848400 -0.310017
142.140808 204.491791 -8.848400 0.016010
155.624115 204.491791 -8.848400 0.124566
169.107422 204.491791 -8.848400 0.169118
182.590698 204.491791 -8.848400 0.000000
196.074036 204.491791 -8.848400 0.000000
209.557312 204.491791 -8.848400 0.000000
223.040588 204.491791 -8.848400 0.000000
236.523926 204.491791 -8.848400 0.000000
250.007202 204.491791 -8.848400 0.000000
263.490540 204.491791 -8.848400 0.000000
276.973816 204.491791 -8.848400 0.000000
290.457092 204.491791 -8.848400 0.000000
303.940430 204.491791 -8.848400 0.000000
317.423706 204.491791 -8.848400 0.000000
330.907043 204.491791 -8.848400 0.000000
344.390320 204.491791 -8.848400 0.000000
-343.257996 191.008499 -8.848400 0.000000
-329.774689 191.008499 -8.848400 0.000000
-316.291382 191.008499 -8.848400 0.000000
-302.808105 191.008499 -8.848400 0.000000
-289.324799 191.008499 -8.848400 0.000000
-275.841492 191.008499 -8.848400 0.000000
-262.358185 191.008499 -8.848400 0.000000
-248.874893 191.008499 -8.848400 0.000000
-235.391602 191.008499 -8.848400 0.000000
-221.908295 191.008499 -8.848400 0.000000
-208.424988 191.008499 -8.848400 0.000000
-194.941696 191.008499 -8.848400 0.000000
-181.458389 191.008499 -8.848400 0.000000
-167.975098 191.008499 -8.848400 0.000000
-154.491791 191.008499 -8.848400 -0.494909
-141.008499 191.008499 -8.848400 -0.609477
-127.525192 191.008499 -8.848400 -0.441250
-114.041885 191.008499 -8.848400 -0.372624
-100.558594 191.008499 -8.848400 -0.291217
-87.075287 191.008499 -8.848400 -0.099401
-73.591980 191.008499 -8.848400 0.256413
-60.108704 191.008499 -8.848400 0.767784
-46.625397 191.008499 -8.848400 1.201607
-33.142090 191.008499 -8.848400 1.826533
-19.658783 191.008499 -8.848400 1.689041
-6.175476 191.008499 -8.848400 0.796124
7.307800 191.008499 -8.848400 -0.229576
20.791107 191.008499 -8.848400 -0.595956
34.274414 191.008499 -8.848400 -1.550775
47.757721 191.008499 -8.848400 -2.129157
61.240997 191.008499 -8.848400 -2.163009
74.724304 191.008499 -8.848400 -1.561011
88.207611 191.008499 -8.848400 -1.411346
101.690918 191.008499 -8.848400 -0.847532
115.174225 191.008499 -8.848400 -0.480979
128.657501 191.008499 -8.848400 -0.225285
142.140808 191.008499 -8.848400 -0.013354
155.624115 191.008499 -8.848400 0.052311
169.107422 191.008499 -8.848400 0.000000
182.590698 191.008499 -8.848400 0.000000
196.074036 191.008499 -8.848400 0.000000
209.557312 191.008499 -8.848400 0.000000
223.040588 191.008499 -8.848400 0.000000
236.523926 191.008499 -8.848400 0.000000
250.007202 191.008499 -8.848400 0.000000
263.490540 191.008499 -8.848400 0.000000
276.973816 191.008499 -8.848400 0.000000
290.457092 191.008499 -8.848400 0.000000
303.940430 191.008499 -8.848400 0.000000
317.423706 191.008499 -8.848400 0.000000
330.907043 191.008499 -8.848400 0.000000
344.390320 191.008499 -8.848400 0.000000
-343.257996 177.525192 -8.848400 0.000000
-329.774689 177.525192 -8.848400 0.000000
-316.291382 177.525192 -8.848400 0.000000
-302.808105 177.525192 -8.848400 0.000000
-289.324799 177.525192 -8.848400 0.000000
-275.841492 177.525192 -8.848400 0.000000
-262.358185 177.525192 -8.848400 0.000000
-248.874893 177.525192 -8.848400 0.000000
-235.391602 177.525192 -8.848400 0.000000
-221.908295 177.525192 -8.848400 0.000000
-208.424988 177.525192 -8.848400 0.000000
-194.941696 177.525192 -8.848400 0.000000
-181.458389 177.525192 -8.848400 0.000000
-167.975098 177.525192 -8.848400 0.000000
-154.491791 177.525192 -8.848400 -0.461751
-141.008499 177.525192 -8.848400 -0.550430
-127.525192 177.525192 -8.848400 -0.457098
-114.041885 177.525192 -8.848400 -0.414397
-100.558594 177.525192 -8.848400 -0.170880
-87.075287 177.525192 -8.848400 -0.100981
-73.591980 177.525192 -8.848400 0.492562
-60.108704 177.525192 -8.848400 0.841809
-46.625397 177.525192 -8.848400 1.118424
-33.142090 177.525192 -8.848400 1.558685
-19.658783 177.525192 -8.848400 1.327303
-6.175476 177.525192 -8.848400 0.450602
7.307800 177.525192 -8.848400 -0.452028
20.791107 177.525192 -8.848400 -1.211067
34.274414 177.525192 -8.848400 -1.775297
47.757721 177.525192 -8.848400 -1.975685
61.240997 177.525192 -8.848400 -1.857191
74.724304 177.525192 -8.848400 -1.533919
88.207611 177.525192 -8.848400 -1.228447
101.690918 177.525192 -8.848400 -0.536355
115.174225 177.525192 -8.848400 -0.275801
128.657501 177.525192 -8.848400 -0.166973
142.140808 177.525192 -8.848400 -0.026497
155.624115 177.525192 -8.848400 0.000000
169.107422 177.525192 -8.848400 0.000000
182.590698 177.525192 -8.848400 0.000000
196.074036 177.525192 -8.848400 0.000000
209.557312 177.525192 -8.848400 0.000000
223.040588 177.525192 -8.848400 0.000000
236.523926 177.525192 -8.848400 0.000000
250.007202 177.525192 -8.848400 0.000000
263.490540 177.525192 -8.848400 0.000000
276.973816 177.525192 -8.848400 0.000000
290.457092 177.525192 -8.848400 0.000000
303.940430 177.525192 -8.848400 0.000000
317.423706 177.525192 -8.848400 0.000000
330.907043 177.525192 -8.848400 0.000000
344.390320 177.525192 -8.848400 0.000000
-343.257996 164.041885 -8.848400 0.000000
-329.774689 164.041885 -8.848400 0.000000
-316.291382 164.041885 -8.848400 0.000000
-302.808105 164.041885 -8.848400 0.000000
-289.324799 164.041885 -8.848400 0.000000
-275.841492 164.041885 -8.848400 0.000000
-262.358185 164.041885 -8.848400 0.000000
-248.874893 164.041885 -8.848400 0.000000
-235.391602 164.041885 -8.848400 0.000000
-221.908295 164.041885 -8.848400 0.000000
-208.424988 164.041885 -8.848400 0.000000
-194.941696 164.041885 -8.848400 0.000000
-181.458389 164.041885 -8.848400 0.000000
-167.975098 164.041885 -8.848400 0.000000
-154.491791 164.041885 -8.848400 -0.672465
-141.008499 164.041885 -8.848400 -0.677369
-127.525192 164.041885 -8.848400 -0.550180
-114.041885 164.041885 -8.848400 -0.327422
-100.558594 164.041885 -8.848400 -0.191236
-87.075287 164.041885 -8.848400 -0.037746
-73.591980 164.041885 -8.848400 0.450150
-60.108704 164.041885 -8.848400 0.992657
-46.625397 164.041885 -8.848400 1.186015
-33.142090 164.041885 -8.848400 1.173430
-19.658783 164.041885 -8.848400 1.093254
-6.175476 164.041885 -8.848400 0.326288
7.307800 164.041885 -8.848400 -0.662064
20.791107 164.041885 -8.848400 -1.232762
34.274414 164.041885 -8.848400 -1.750554
47.757721 164.041885 -8.848400 -1.807269
61.240997 164.041885 -8.848400 -1.607114
74.724304 164.041885 -8.848400 -1.498222
88.207611 164.041885 -8.848400 -1.008541
101.690918 164.041885 -8.848400 -0.469988
115.174225 164.041885 -8.848400 -0.200525
128.657501 164.041885 -8.848400 0.000000
142.140808 164.041885 -8.848400 0.000000
155.624115 164.041885 -8.848400 0.000000
169.107422 164.041885 -8.848400 0.000000
182.590698 164.041885 -8.848400 0.000000
196.074036 164.041885 -8.848400 0.000000
209.557312 164.041885 -8.848400 0.000000
223.040588 164.041885 -8.848400 0.000000
236.523926 164.041885 -8.848400 0.000000
250.007202 164.041885 -8.848400 0.000000
263.490540 164.041885 -8.848400 0.000000
276.973816 164.041885 -8.848400 0.000000
290.457092 164.041885 -8.848400 0.000000
303.940430 164.041885 -8.848400 0.000000
317.423706 164.041885 -8.848400 0.000000
330.907043 164.041885 -8.848400 0.000000
344.390320 164.041885 -8.848400 0.000000
-343.257996 150.558594 -8.848400 0.000000
-329.774689 150.558594 -8.848400 0.000000
-316.291382 150.558594 -8.848400 0.000000
-302.808105 150.558594 -8.848400 0.000000
-289.324799 150.558594 -8.848400 0.000000
-275.841492 150.558594 -8.848400 0.000000
-262.358185 150.558594 -8.848400 0.000000
-248.874893 150.558594 -8.848400 0.000000
-235.391602 150.558594 -8.848400 0.000000
-221.908295 150.558594 -8.848400 0.000000
-208.424988 150.558594 -8.848400 0.000000
-194.941696 150.558594 -8.848400 0.000000
-181.458389 150.558594 -8.848400 0.000000
-167.975098 150.558594 -8.848400 0.000000
-154.491791 150.558594 -8.848400 -0.728037
-141.008499 150.558594 -8.848400 -0.623167
-127.525192 150.558594 -8.848400 -0.581778
-114.041885 150.558594 -8.848400 -0.530992
-100.558594 150.558594 -8.848400 -0.103768
-87.075287 150.558594 -8.848400 0.156666
-73.591980 150.558594 -8.848400 0.573851
-60.108704 150.558594 -8.848400 1.281369
-46.625397 150.558594 -8.848400 1.458703
-33.142090 150.558594 -8.848400 1.283078
-19.658783 150.558594 -8.848400 1.051586
-6.175476 150.558594 -8.848400 0.349317
7.307800 150.558594 -8.848400 -0.412147
20.791107 150.558594 -8.848400 -1.052920
34.274414 150.558594 -8.848400 -1.589578
47.757721 150.558594 -8.848400 -1.657556
61.240997 150.558594 -8.848400 -1.438964
74.724304 150.558594 -8.848400 -1.284208
88.207611 150.558594 -8.848400 -0.788492
101.690918 150.558594 -8.848400 -0.347055
115.174225 150.558594 -8.848400 0.000000
128.657501 150.558594 -8.848400 0.000000
142.140808 150.558594 -8.848400 0.000000
155.624115 150.558594 -8.848400 0.000000
169.107422 150.558594 -8.848400 0.000000
182.590698 150.558594 -8.848400 0.000000
196.074036 150.558594 -8.848400 0.000000
209.557312 150.558594 -8.848400 0.000000
223.040588 150.558594 -8.848400 0.000000
236.523926 150.558594 -8.848400 0.000000
250.007202 150.558594 -8.848400 0.000000
263.490540 150.558594 -8.848400 0.000000
276.973816 150.558594 -8.848400 0.000000
290.457092 150.558594 -8.848400 0.000000
303.940430 150.558594 -8.848400 0.000000
317.423706 150.558594 -8.848400 0.000000
330.907043 150.558594 -8.848400 0.000000
344.390320 150.558594 -8.848400 0.000000
-343.257996 137.075287 -8.848400 0.000000
-329.774689 137.075287 -8.848400 0.000000
-316.291382 137.075287 -8.848400 0.000000
-302.808105 137.075287 -8.848400 0.000000
-289.324799 137.075287 -8.848400 0.000000
-275.841492 137.075287 -8.848400 0.000000
-262.358185 137.075287 -8.848400 0.000000
-248.874893 137.075287 -8.848400 0.000000
-235.391602 137.075287 -8.848400 0.000000
-221.908295 137.075287 -8.848400 0.000000
-208.424988 137.075287 -8.848400 0.000000
-194.941696 137.075287 -8.848400 0.000000
-181.458389 137.075287 -8.848400 0.000000
-167.975098 137.075287 -8.848400 0.000000
-154.491791 137.075287 -8.848400 -0.696221
-141.008499 137.075287 -8.848400 -0.604200
-127.525192 137.075287 -8.848400 -0.704821
-114.041885 137.075287 -8.848400 -0.525281
-100.558594 137.075287 -8.848400 -0.134669
-87.075287 137.075287 -8.848400 0.360179
-73.591980 137.075287 -8.848400 1.141964
-60.108704 137.075287 -8.848400 1.626240
-46.625397 137.075287 -8.848400 1.773531
-33.142090 137.075287 -8.848400 1.524856
-19.658783 137.075287 -8.848400 1.155861
-6.175476 137.075287 -8.848400 0.200199
7.307800 137.075287 -8.848400 -0.102234
20.791107 137.075287 -8.848400 -1.162050
34.274414 137.075287 -8.848400 -1.757941
47.757721 137.075287 -8.848400 -1.650581
61.240997 137.075287 -8.848400 -1.398319
74.724304 137.075287 -8.848400 -1.102639
88.207611 137.075287 -8.848400 -0.666017
101.690918 137.075287 -8.848400 0.000000
115.174225 137.075287 -8.848400 0.000000
128.657501 137.075287 -8.848400 0.000000
142.140808 137.075287 -8.848400 0.000000
155.624115 137.075287 -8.848400 0.000000
169.107422 137.075287 -8.848400 0.000000
182.590698 137.075287 -8.848400 0.000000
196.074036 137.075287 -8.848400 0.000000
209.557312 137.075287 -8.848400 0.000000
223.040588 137.075287 -8.848400 0.000000
236.523926 137.075287 -8.848400 0.000000
250.007202 137.075287 -8.848400 0.000000
263.490540 137.075287 -8.848400 0.000000
276.973816 137.075287 -8.848400 0.000000
290.457092 137.075287 -8.848400 0.000000
303.940430 137.075287 -8.848400 0.000000
317.423706 137.075287 -8.848400 0.000000
330.907043 137.075287 -8.848400 0.000000
344.390320 137.075287 -8.848400 0.000000
-343.257996 123.591980 -8.848400 0.000000
-329.774689 123.591980 -8.848400 0.000000
-316.291382 123.591980 -8.848400 0.000000
-302.808105 123.591980 -8.848400 0.000000
-289.324799 123.591980 -8.848400 0.000000
-275.841492 123.591980 -8.848400 0.000000
-262.358185 123.591980 -8.848400 0.000000
-248.874893 123.591980 -8.848400 0.000000
-235.391602 123.591980 -8.848400 0.000000
-221.908295 123.591980 -8.848400 0.000000
-208.424988 123.591980 -8.848400 0.000000
-194.941696 123.591980 -8.848400 0.000000
-181.458389 123.591980 -8.848400 0.000000
-167.975098 123.591980 -8.848400 0.000000
-154.491791 123.591980 -8.848400 -0.940489
-141.008499 123.591980 -8.848400 -0.632140
-127.525192 123.591980 -8.848400 -0.564296
-114.041885 123.591980 -8.848400 -0.191824
-100.558594 123.591980 -8.848400 0.260453
-87.075287 123.591980 -8.848400 1.053636
-73.591980 123.591980 -8.848400 1.497082
-60.108704 123.591980 -8.848400 1.902225
-46.625397 123.591980 -8.848400 1.739906
-33.142090 123.591980 -8.848400 1.453020
-19.658783 123.591980 -8.848400 1.239357
-6.175476 123.591980 -8.848400 0.428511
7.307800 123.591980 -8.848400 -0.150872
20.791107 123.591980 -8.848400 -0.850510
34.274414 123.591980 -8.848400 -1.605810
47.757721 123.591980 -8.848400 -1.549789
61.240997 123.591980 -8.848400 -1.558528
74.724304 123.591980 -8.848400 -0.956811
88.207611 123.591980 -8.848400 -0.468870
101.690918 123.591980 -8.848400 0.000000
115.174225 123.591980 -8.848400 0.000000
128.657501 123.591980 -8.848400 0.000000
142.140808 123.591980 -8.848400 0.000000
155.624115 123.591980 -8.848400 0.000000
169.107422 123.591980 -8.848400 0.000000
182.590698 123.591980 -8.848400 0.000000
196.074036 123.591980 -8.848400 0.000000
209.557312 123.591980 -8.848400 0.000000
223.040588 123.591980 -8.848400 0.000000
236.523926 123.591980 -8.848400 0.000000
250.007202 123.591980 -8.848400 0.000000
263.490540 123.591980 -8.848400 0.000000
276.973816 123.591980 -8.848400 0.000000
290.457092 123.591980 -8.848400 0.000000
303.940430 123.591980 -8.848400 0.000000
317.423706 123.591980 -8.848400 0.000000
330.907043 123.591980 -8.848400 0.000000
344.390320 123.591980 -8.848400 0.000000
-343.257996 110.108704 -8.848400 0.000000
-329.774689 110.108704 -8.848400 0.000000
-316.291382 110.108704 -8.848400 0.000000
-302.808105 110.108704 -8.848400 0.000000
-289.324799 110.108704 -8.848400 0.000000
-275.841492 110.108704 -8.848400 0.000000
-262.358185 110.108704 -8.848400 0.000000
-248.874893 110.108704 -8.848400 0.000000
-235.391602 110.108704 -8.848400 0.000000
-221.908295 110.108704 -8.848400 0.000000
-208.424988 110.108704 -8.848400 0.000000
-194.941696 110.108704 -8.848400 0.000000
-181.458389 110.108704 -8.848400 0.000000
-167.975098 110.108704 -8.848400 0.000000
-154.491791 110.108704 -8.848400 -1.155333
-141.008499 110.108704 -8.848400 -0.667096
-127.525192 110.108704 -8.848400 -0.341598
-114.041885 110.108704 -8.848400 0.145833
-100.558594 110.108704 -8.848400 0.653178
-87.075287 110.108704 -8.848400 1.102964
-73.591980 110.108704 -8.848400 1.502046
-60.108704 110.108704 -8.848400 1.808639
-46.625397 110.108704 -8.848400 2.043938
-33.142090 110.108704 -8.848400 1.541905
-19.658783 110.108704 -8.848400 1.467646
-6.175476 110.108704 -8.848400 0.612080
7.307800 110.108704 -8.848400 -0.233976
20.791107 110.108704 -8.848400 -0.979629
34.274414 110.108704 -8.848400 -1.424124
47.757721 110.108704 -8.848400 -1.613211
61.240997 110.108704 -8.848400 -1.576324
74.724304 110.108704 -8.848400 -0.933279
88.207611 110.108704 -8.848400 -0.060746
101.690918 110.108704 -8.848400 0.000000
115.174225 110.108704 -8.848400 0.000000
128.657501 110.108704 -8.848400 0.000000
142.140808 110.108704 -8.848400 0.000000
155.624115 110.108704 -8.848400 0.000000
169.107422 110.108704 -8.848400 0.000000
182.590698 110.108704 -8.848400 0.000000
196.074036 110.108704 -8.848400 0.000000
209.557312 110.108704 -8.848400 0.000000
223.040588 110.108704 -8.848400 0.000000
236.523926 110.108704 -8.848400 0.000000
250.007202 110.108704 -8.848400 0.000000
263.490540 110.108704 -8.848400 0.000000
276.973816 110.108704 -8.848400 0.000000
290.457092 110.108704 -8.848400 0.000000
303.940430 110.108704 -8.848400 0.000000
317.423706 110.108704 -8.848400 0.000000
330.907043 110.108704 -8.848400 0.000000
344.390320 110.108704 -8.848400 0.000000
-343.257996 96.625397 -8.848400 0.000000
-329.774689 96.625397 -8.848400 0.000000
-316.291382 96.625397 -8.848400 0.000000
-302.808105 96.625397 -8.848400 0.000000
-289.324799 96.625397 -8.848400 0.000000
-275.841492 96.625397 -8.848400 0.000000
-262.358185 96.625397 -8.848400 0.000000
-248.874893 96.625397 -8.848400 0.000000
-235.391602 96.625397 -8.848400 0.000000
-221.908295 96.625397 -8.848400 0.000000
-208.424988 96.625397 -8.848400 0.000000
-194.941696 96.625397 -8.848400 0.000000
-181.458389 96.625397 -8.848400 0.000000
-167.975098 96.625397 -8.848400 0.000000
-154.491791 96.625397 -8.848400 -0.913837
-141.008499 96.625397 -8.848400 -0.502165
-127.525192 96.625397 -8.848400 0.048126
-114.041885 96.625397 -8.848400 0.381667
-100.558594 96.625397 -8.848400 0.863346
-87.075287 96.625397 -8.848400 1.220696
-73.591980 96.625397 -8.848400 1.283168
-60.108704 96.625397 -8.848400 1.939418
-46.625397 96.625397 -8.848400 1.744072
-33.142090 96.625397 -8.848400 1.396901
-19.658783 96.625397 -8.848400 1.101658
-6.175476 96.625397 -8.848400 0.446361
7.307800 96.625397 -8.848400 -0.242029
20.791107 96.625397 -8.848400 -0.899427
34.274414 96.625397 -8.848400 -1.316150
47.757721 96.625397 -8.848400 -1.290215
61.240997 96.625397 -8.848400 -1.221276
74.724304 96.625397 -8.848400 -0.690501
88.207611 96.625397 -8.848400 0.246177
101.690918 96.625397 -8.848400 0.000000
115.174225 96.625397 -8.848400 0.000000
128.657501 96.625397 -8.848400 0.000000
142.140808 96.625397 -8.848400 0.000000
155.624115 96.625397 -8.848400 0.000000
169.107422 96.625397 -8.848400 0.000000
182.590698 96.625397 -8.848400 0.000000
196.074036 96.625397 -8.848400 0.000000
209.557312 96.625397 -8.848400 0.000000
223.040588 96.625397 -8.848400 0.000000
236.523926 96.625397 -8.848400 0.000000
250.007202 96.625397 -8.848400 0.000000
263.490540 96.625397 -8.848400 0.000000
276.973816 96.625397 -8.848400 0.000000
290.457092 96.625397 -8.848400 0.000000
303.940430 96.625397 -8.848400 0.000000
317.423706 96.625397 -8.848400 0.000000
330.907043 96.625397 -8.848400 0.000000
344.390320 96.625397 -8.848400 0.000000
-343.257996 83.142090 -8.848400 0.000000
-329.774689 83.142090 -8.848400 0.000000
-316.291382 83.142090 -8.848400 0.000000
-302.808105 83.142090 -8.848400 0.000000
-289.324799 83.142090 -8.848400 0.000000
-275.841492 83.142090 -8.848400 0.000000
-262.358185 83.142090 -8.848400 0.000000
-248.874893 83.142090 -8.848400 0.000000
-235.391602 83.142090 -8.848400 0.000000
-221.908295 83.142090 -8.848400 0.000000
-208.424988 83.142090 -8.848400 0.000000
-194.941696 83.142090 -8.848400 0.000000
-181.458389 83.142090 -8.848400 0.000000
-167.975098 83.142090 -8.848400 0.000000
-154.491791 83.142090 -8.848400 0.000000
-141.008499 83.142090 -8.848400 -0.396317
-127.525192 83.142090 -8.848400 -0.053818
-114.041885 83.142090 -8.848400 0.312069
-100.558594 83.142090 -8.848400 1.034066
-87.075287 83.142090 -8.848400 1.273767
-73.591980 83.142090 -8.848400 1.574834
-60.108704 83.142090 -8.848400 1.956490
-46.625397 83.142090 -8.848400 1.366888
-33.142090 83.142090 -8.848400 1.193135
-19.658783 83.142090 -8.848400 0.671545
-6.175476 83.142090 -8.848400 0.419754
7.307800 83.142090 -8.848400 -0.249994
20.791107 83.142090 -8.848400 -0.869171
34.274414 83.142090 -8.848400 -0.960989
47.757721 83.142090 -8.848400 -1.159997
61.240997 83.142090 -8.848400 -0.954444
74.724304 83.142090 -8.848400 -0.508976
88.207611 83.142090 -8.848400 0.179367
101.690918 83.142090 -8.848400 0.000000
115.174225 83.142090 -8.848400 0.000000
128.657501 83.142090 -8.848400 0.000000
142.140808 83.142090 -8.848400 0.000000
155.624115 83.142090 -8.848400 0.000000
169.107422 83.142090 -8.848400 0.000000
182.590698 83.142090 -8.848400 0.000000
196.074036 83.142090 -8.848400 0.000000
209.557312 83.142090 -8.848400 0.000000
223.040588 83.142090 -8.848400 0.000000
236.523926 83.142090 -8.848400 0.000000
250.007202 83.142090 -8.848400 0.000000
263.490540 83.142090 -8.848400 0.000000
276.973816 83.142090 -8.848400 0.000000
290.457092 83.142090 -8.848400 0.000000
303.940430 83.142090 -8.848400 0.000000
317.423706 83.142090 -8.848400 0.000000
330.907043 83.142090 -8.848400 0.000000
344.390320 83.142090 -8.848400 0.000000
-343.257996 69.658783 -8.848400 0.000000
-329.774689 69.658783 -8.848400 0.000000
-316.291382 69.658783 -8.848400 0.000000
-302.808105 69.658783 -8.848400 0.000000
-289.324799 69.658783 -8.848400 0.000000
-275.841492 69.658783 -8.848400 0.000000
-262.358185 69.658783 -8.848400 0.000000
-248.874893 69.658783 -8.848400 0.000000
-235.391602 69.658783 -8.848400 0.000000
-221.908295 69.658783 -8.848400 0.000000
-208.424988 69.658783 -8.848400 0.000000
-194.941696 69.658783 -8.848400 0.000000
-181.458389 69.658783 -8.848400 0.000000
-167.975098 69.658783 -8.848400 0.000000
-154.491791 69.658783 -8.848400 0.000000
-141.008499 69.658783 -8.848400 -0.250099
-127.525192 69.658783 -8.848400 -0.015837
-114.041885 69.658783 -8.848400 0.378683
-100.558594 69.658783 -8.848400 0.766931
-87.075287 69.658783 -8.848400 1.140281
-73.591980 69.658783 -8.848400 1.571008
-60.108704 69.658783 -8.848400 1.893744
-46.625397 69.658783 -8.848400 1.066951
-33.142090 69.658783 -8.848400 0.533788
-19.658783 69.658783 -8.848400 0.808641
-6.175476 69.658783 -8.848400 0.376827
7.307800 69.658783 -8.848400 -0.079681
20.791107 69.658783 -8.848400 -0.631630
34.274414 69.658783 -8.848400 -1.057758
47.757721 69.658783 -8.848400 -0.933273
61.240997 69.658783 -8.848400 -0.977708
74.724304 69.658783 -8.848400 -0.731149
88.207611 69.658783 -8.848400 -0.181147
101.690918 69.658783 -8.848400 0.000000
115.174225 69.658783 -8.848400 0.000000
128.657501 69.658783 -8.848400 0.000000
142.140808 69.658783 -8.848400 0.000000
155.624115 69.658783 -8.848400 0.000000
169.107422 69.658783 -8.848400 0.000000
182.590698 69.658783 -8.848400 0.000000
196.074036 69.658783 -8.848400 0.000000
209.557312 69.658783 -8.848400 0.000000
223.040588 69.658783 -8.848400 0.000000
236.523926 69.658783 -8.848400 0.000000
250.007202 69.658783 -8.848400 0.000000
263.490540 69.658783 -8.848400 0.000000
276.973816 69.658783 -8.848400 0.000000
290.457092 69.658783 -8.848400 0.000000
303.940430 69.658783 -8.848400 0.000000
317.423706 69.658783 -8.848400 0.000000
330.907043 69.658783 -8.848400 0.000000
344.390320 69.658783 -8.848400 0.000000
-343.257996 56.175476 -8.848400 0.000000
-329.774689 56.175476 -8.848400 0.000000
-316.291382 56.175476 -8.848400 0.000000
-302.808105 56.175476 -8.848400 0.000000
-289.324799 56.175476 -8.848400 0.000000
-275.841492 56.175476 -8.848400 0.000000
-262.358185 56.175476 -8.848400 0.000000
-248.874893 56.175476 -8.848400 0.000000
-235.391602 56.175476 -8.848400 0.000000
-221.908295 56.175476 -8.848400 0.000000
-208.424988 56.175476 -8.848400 0.000000
-194.941696 56.175476 -8.848400 0.000000
-181.458389 56.175476 -8.848400 0.000000
-167.975098 56.175476 -8.848400 0.000000
-154.491791 56.175476 -8.848400 0.000000
-141.008499 56.175476 -8.848400 -0.285132
-127.525192 56.175476 -8.848400 0.127438
-114.041885 56.175476 -8.848400 0.476122
-100.558594 56.175476 -8.848400 0.945358
-87.075287 56.175476 -8.848400 1.344646
-73.591980 56.175476 -8.848400 1.354300
-60.108704 56.175476 -8.848400 1.489153
-46.625397 56.175476 -8.848400 0.975232
-33.142090 56.175476 -8.848400 0.975530
-19.658783 56.175476 -8.848400 0.693012
-6.175476 56.175476 -8.848400 0.269415
7.307800 56.175476 -8.848400 -0.227050
20.791107 56.175476 -8.848400 -0.525320
34.274414 56.175476 -8.848400 -1.230058
47.757721 56.175476 -8.848400 -1.319024
61.240997 56.175476 -8.848400 -0.938896
74.724304 56.175476 -8.848400 -0.746281
88.207611 56.175476 -8.848400 -0.294702
101.690918 56.175476 -8.848400 -0.070959
115.174225 56.175476 -8.848400 0.000000
128.657501 56.175476 -8.848400 0.000000
142.140808 56.175476 -8.848400 0.000000
155.624115 56.175476 -8.848400 0.000000
169.107422 56.175476 -8.848400 0.000000
182.590698 56.175476 -8.848400 0.000000
196.074036 56.175476 -8.848400 0.000000
209.557312 56.175476 -8.848400 0.000000
223.040588 56.175476 -8.848400 0.000000
236.523926 56.175476 -8.848400 0.000000
250.007202 56.175476 -8.848400 0.000000
263.490540 56.175476 -8.848400 0.000000
276.973816 56.175476 -8.848400 0.000000
290.457092 56.175476 -8.848400 0.000000
303.940430 56.175476 -8.848400 0.000000
317.423706 56.175476 -8.848400 0.000000
330.907043 56.175476 -8.848400 0.000000
344.390320 56.175476 -8.848400 0.000000
-343.257996 42.692200 -8.848400 0.000000
-329.774689 42.692200 -8.848400 0.000000
-316.291382 42.692200 -8.848400 0.000000
-302.808105 42.692200 -8.848400 0.000000
-289.324799 42.692200 -8.848400 0.000000
-275.841492 42.692200 -8.848400 0.000000
-262.358185 42.692200 -8.848400 0.000000
-248.874893 42.692200 -8.848400 0.000000
-235.391602 42.692200 -8.848400 0.000000
-221.908295 42.692200 -8.848400 0.000000
-208.424988 42.692200 -8.848400 0.000000
-194.941696 42.692200 -8.848400 0.000000
-181.458389 42.692200 -8.848400 0.000000
-167.975098 42.692200 -8.848400 0.000000
-154.491791 42.692200 -8.848400 0.000000
-141.008499 42.692200 -8.848400 0.062170
-127.525192 42.692200 -8.848400 0.681500
-114.041885 42.692200 -8.848400 0.548444
-100.558594 42.692200 -8.848400 1.131530
-87.075287 42.692200 -8.848400 1.445371
-73.591980 42.692200 -8.848400 1.244962
-60.108704 42.692200 -8.848400 1.416577
-46.625397 42.692200 -8.848400 1.361694
-33.142090 42.692200 -8.848400 1.026623
-19.658783 42.692200 -8.848400 0.770204
-6.175476 42.692200 -8.848400 0.435795
7.307800 42.692200 -8.848400 0.020463
20.791107 42.692200 -8.848400 -0.462412
34.274414 42.692200 -8.848400 -1.076625
47.757721 42.692200 -8.848400 -1.244142
61.240997 42.692200 -8.848400 -1.032673
74.724304 42.692200 -8.848400 -0.780876
88.207611 42.692200 -8.848400 -0.789668
101.690918 42.692200 -8.848400 -0.453594
115.174225 42.692200 -8.848400 0.000000
128.657501 42.692200 -8.848400 0.000000
142.140808 42.692200 -8.848400 0.000000
155.624115 42.692200 -8.848400 0.000000
169.107422 42.692200 -8.848400 0.000000
182.590698 42.692200 -8.848400 0.000000
196.074036 42.692200 -8.848400 0.000000
209.557312 42.692200 -8.848400 0.000000
223.040588 42.692200 -8.848400 0.000000
236.523926 42.692200 -8.848400 0.000000
250.007202 42.692200 -8.848400 0.000000
263.490540 42.692200 -8.848400 0.000000
276.973816 42.692200 -8.848400 0.000000
290.457092 42.692200 -8.848400 0.000000
303.940430 42.692200 -8.848400 0.000000
317.423706 42.692200 -8.848400 0.000000
330.907043 42.692200 -8.848400 0.000000
344.390320 42.692200 -8.848400 0.000000
-343.257996 29.208893 -8.848400 0.000000
-329.774689 29.208893 -8.848400 0.000000
-316.291382 29.208893 -8.848400 0.000000
-302.808105 29.208893 -8.848400 0.000000
-289.324799 29.208893 -8.848400 0.000000
-275.841492 29.208893 -8.848400 0.000000
-262.358185 29.208893 -8.848400 0.000000
-248.874893 29.208893 -8.848400 0.000000
-235.391602 29.208893 -8.848400 0.000000
-221.908295 29.208893 -8.848400 0.000000
-208.424988 29.208893 -8.848400 0.000000
-194.941696 29.208893 -8.848400 0.000000
-181.458389 29.208893 -8.848400 0.000000
-167.975098 29.208893 -8.848400 0.000000
-154.491791 29.208893 -8.848400 0.000000
-141.008499 29.208893 -8.848400 0.000000
-127.525192 29.208893 -8.848400 0.601937
-114.041885 29.208893 -8.848400 0.675605
-100.558594 29.208893 -8.848400 0.651367
-87.075287 29.208893 -8.848400 0.791501
-73.591980 29.208893 -8.848400 1.090579
-60.108704 29.208893 -8.848400 1.170651
-46.625397 29.208893 -8.848400 1.422577
-33.142090 29.208893 -8.848400 1.102631
-19.658783 29.208893 -8.848400 0.647429
-6.175476 29.208893 -8.848400 0.815981
7.307800 29.208893 -8.848400 0.342200
20.791107 29.208893 -8.848400 -0.428203
34.274414 29.208893 -8.848400 -0.972636
47.757721 29.208893 -8.848400 -1.223948
61.240997 29.208893 -8.848400 -1.039252
74.724304 29.208893 -8.848400 -0.888263
88.207611 29.208893 -8.848400 -0.567382
101.690918 29.208893 -8.848400 -0.476500
115.174225 29.208893 -8.848400 -0.060130
128.657501 29.208893 -8.848400 0.000000
142.140808 29.208893 -8.848400 0.000000
155.624115 29.208893 -8.848400 0.000000
169.107422 29.208893 -8.848400 0.000000
182.590698 29.208893 -8.848400 0.000000
196.074036 29.208893 -8.848400 0.000000
209.557312 29.208893 -8.848400 0.000000
223.040588 29.208893 -8.848400 0.000000
236.523926 29.208893 -8.848400 0.000000
250.007202 29.208893 -8.848400 0.000000
263.490540 29.208893 -8.848400 0.000000
276.973816 29.208893 -8.848400 0.000000
290.457092 29.208893 -8.848400 0.000000
303.940430 29.208893 -8.848400 0.000000
317.423706 29.208893 -8.848400 0.000000
330.907043 29.208893 -8.848400 0.000000
344.390320 29.208893 -8.848400 0.000000
-343.257996 15.725586 -8.848400 0.000000
-329.774689 15.725586 -8.848400 0.000000
-316.291382 15.725586 -8.848400 0.000000
-302.808105 15.725586 -8.848400 0.000000
-289.324799 15.725586 -8.848400 0.000000
-275.841492 15.725586 -8.848400 0.000000
-262.358185 15.725586 -8.848400 0.000000
-248.874893 15.725586 -8.848400 0.000000
-235.391602 15.725586 -8.848400 0.000000
-221.908295 15.725586 -8.848400 0.000000
-208.424988 15.725586 -8.848400 0.000000
-194.941696 15.725586 -8.848400 0.000000
-181.458389 15.725586 -8.848400 0.000000
-167.975098 15.725586 -8.848400 0.000000
-154.491791 15.725586 -8.848400 0.000000
-141.008499 15.725586 -8.848400 0.000000
-127.525192 15.725586 -8.848400 0.359454
-114.041885 15.725586 -8.848400 0.619237
-100.558594 15.725586 -8.848400 0.670344
-87.075287 15.725586 -8.848400 0.832878
-73.591980 15.725586 -8.848400 0.469473
-60.108704 15.725586 -8.848400 0.907422
-46.625397 15.725586 -8.848400 1.070355
-33.142090 15.725586 -8.848400 0.770668
-19.658783 15.725586 -8.848400 0.656033
-6.175476 15.725586 -8.848400 0.282207
7.307800 15.725586 -8.848400 0.179117
20.791107 15.725586 -8.848400 -0.557000
34.274414 15.725586 -8.848400 -1.048077
47.757721 15.725586 -8.848400 -1.383693
61.240997 15.725586 -8.848400 -1.279111
74.724304 15.725586 -8.848400 -0.762587
88.207611 15.725586 -8.848400 -0.639202
101.690918 15.725586 -8.848400 -0.301221
115.174225 15.725586 -8.848400 -0.045196
128.657501 15.725586 -8.848400 0.000000
142.140808 15.725586 -8.848400 0.000000
155.624115 15.725586 -8.848400 0.000000
169.107422 15.725586 -8.848400 0.000000
182.590698 15.725586 -8.848400 0.000000
196.074036 15.725586 -8.848400 0.000000
209.557312 15.725586 -8.848400 0.000000
223.040588 15.725586 -8.848400 0.000000
236.523926 15.725586 -8.848400 0.000000
250.007202 15.725586 -8.848400 0.000000
263.490540 15.725586 -8.848400 0.000000
276.973816 15.725586 -8.848400 0.000000
290.457092 15.725586 -8.848400 0.000000
303.940430 15.725586 -8.848400 0.000000
317.423706 15.725586 -8.848400 0.000000
330.907043 15.725586 -8.848400 0.000000
344.390320 15.725586 -8.848400 0.000000
-343.257996 2.242279 -8.848400 0.000000
-329.774689 2.242279 -8.848400 0.000000
-316.291382 2.242279 -8.848400 0.000000
-302.808105 2.242279 -8.848400 0.000000
-289.324799 2.242279 -8.848400 0.000000
-275.841492 2.242279 -8.848400 0.000000
-262.358185 2.242279 -8.848400 0.000000
-248.874893 2.242279 -8.848400 0.000000
-235.391602 2.242279 -8.848400 0.000000
-221.908295 2.242279 -8.848400 0.000000
-208.424988 2.242279 -8.848400 0.000000
-194.941696 2.242279 -8.848400 0.000000
-181.458389 2.242279 -8.848400 0.000000
-167.975098 2.242279 -8.848400 0.000000
-154.491791 2.242279 -8.848400 0.000000
-141.008499 2.242279 -8.848400 0.000000
-127.525192 2.242279 -8.848400 0.000000
-114.041885 2.242279 -8.848400 0.393200
-100.558594 2.242279 -8.848400 0.437549
-87.075287 2.242279 -8.848400 0.760799
-73.591980 2.242279 -8.848400 -0.014250
-60.108704 2.242279 -8.848400 0.222782
-46.625397 2.242279 -8.848400 0.362034
-33.142090 2.242279 -8.848400 0.076521
-19.658783 2.242279 -8.848400 -0.020156
-6.175476 2.242279 -8.848400 -0.114980
7.307800 2.242279 -8.848400 -0.152917
20.791107 2.242279 -8.848400 -0.543431
34.274414 2.242279 -8.848400 -0.963907
47.757721 2.242279 -8.848400 -0.868380
61.240997 2.242279 -8.848400 -1.008297
74.724304 2.242279 -8.848400 -0.953209
88.207611 2.242279 -8.848400 -0.598103
101.690918 2.242279 -8.848400 -0.365186
115.174225 2.242279 -8.848400 -0.064740
128.657501 2.242279 -8.848400 0.000000
142.140808 2.242279 -8.848400 0.000000
155.624115 2.242279 -8.848400 0.000000
169.107422 2.242279 -8.848400 0.000000
182.590698 2.242279 -8.848400 0.000000
196.074036 2.242279 -8.848400 0.000000
209.557312 2.242279 -8.848400 0.000000
223.040588 2.242279 -8.848400 0.000000
236.523926 2.242279 -8.848400 0.000000
250.007202 2.242279 -8.848400 0.000000
263.490540 2.242279 -8.848400 0.000000
276.973816 2.242279 -8.848400 0.000000
290.457092 2.242279 -8.848400 0.000000
303.940430 2.242279 -8.848400 0.000000
317.423706 2.242279 -8.848400 0.000000
330.907043 2.242279 -8.848400 0.000000
344.390320 2.242279 -8.848400 0.000000
-343.257996 -11.240997 -8.848400 0.000000
-329.774689 -11.240997 -8.848400 0.000000
-316.291382 -11.240997 -8.848400 0.000000
-302.808105 -11.240997 -8.848400 0.000000
-289.324799 -11.240997 -8.848400 0.000000
-275.841492 -11.240997 -8.848400 0.000000
-262.358185 -11.240997 -8.848400 0.000000
-248.874893 -11.240997 -8.848400 0.000000
-235.391602 -11.240997 -8.848400 0.000000
-221.908295 -11.240997 -8.848400 0.000000
-208.424988 -11.240997 -8.848400 0.000000
-194.941696 -11.240997 -8.848400 0.000000
-181.458389 -11.240997 -8.848400 0.000000
-167.975098 -11.240997 -8.848400 0.000000
-154.491791 -11.240997 -8.848400 0.000000
-141.008499 -11.240997 -8.848400 0.000000
-127.525192 -11.240997 -8.848400 0.000000
-114.041885 -11.240997 -8.848400 0.000000
-100.558594 -11.240997 -8.848400 -0.088738
-87.075287 -11.240997 -8.848400 0.193864
-73.591980 -11.240997 -8.848400 0.399442
-60.108704 -11.240997 -8.848400 0.379490
-46.625397 -11.240997 -8.848400 0.361076
-33.142090 -11.240997 -8.848400 -0.229679
-19.658783 -11.240997 -8.848400 -0.284779
-6.175476 -11.240997 -8.848400 -0.513351
7.307800 -11.240997 -8.848400 -0.867117
20.791107 -11.240997 -8.848400 -0.819595
34.274414 -11.240997 -8.848400 -0.931908
47.757721 -11.240997 -8.848400 -0.942387
61.240997 -11.240997 -8.848400 -0.948912
74.724304 -11.240997 -8.848400 -0.861681
88.207611 -11.240997 -8.848400 -0.456946
101.690918 -11.240997 -8.848400 -0.383362
115.174225 -11.240997 -8.848400 0.000000
128.657501 -11.240997 -8.848400 0.000000
142.140808 -11.240997 -8.848400 0.000000
155.624115 -11.240997 -8.848400 0.000000
169.107422 -11.240997 -8.848400 0.000000
182.590698 -11.240997 -8.848400 0.000000
196.074036 -11.240997 -8.848400 0.000000
209.557312 -11.240997 -8.848400 0.000000
223.040588 -11.240997 -8.848400 0.000000
236.523926 -11.240997 -8.848400 0.000000
250.007202 -11.240997 -8.848400 0.000000
263.490540 -11.240997 -8.848400 0.000000
276.973816 -11.240997 -8.848400 0.000000
290.457092 -11.240997 -8.848400 0.000000
303.940430 -11.240997 -8.848400 0.000000
317.423706 -11.240997 -8.848400 0.000000
330.907043 -11.240997 -8.848400 0.000000
344.390320 -11.240997 -8.848400 0.000000
-343.257996 -24.724304 -8.848400 0.000000
-329.774689 -24.724304 -8.848400 0.000000
-316.291382 -24.724304 -8.848400 0.000000
-302.808105 -24.724304 -8.848400 0.000000
-289.324799 -24.724304 -8.848400 0.000000
-275.841492 -24.724304 -8.848400 0.000000
-262.358185 -24.724304 -8.848400 0.000000
-248.874893 -24.724304 -8.848400 0.000000
-235.391602 -24.724304 -8.848400 0.000000
-221.908295 -24.724304 -8.848400 0.000000
-208.424988 -24.724304 -8.848400 0.000000
-194.941696 -24.724304 -8.848400 0.000000
-181.458389 -24.724304 -8.848400 0.000000
-167.975098 -24.724304 -8.848400 0.000000
-154.491791 -24.724304 -8.848400 0.000000
-141.008499 -24.724304 -8.848400 0.000000
-127.525192 -24.724304 -8.848400 0.000000
-114.041885 -24.724304 -8.848400 0.000000
-100.558594 -24.724304 -8.848400 -0.275381
-87.075287 -24.724304 -8.848400 -0.037959
-73.591980 -24.724304 -8.848400 0.208817
-60.108704 -24.724304 -8.848400 -0.049182
-46.625397 -24.724304 -8.848400 0.021166
-33.142090 -24.724304 -8.848400 -0.796018
-19.658783 -24.724304 -8.848400 -0.995696
-6.175476 -24.724304 -8.848400 -0.911436
7.307800 -24.724304 -8.848400 -0.945061
20.791107 -24.724304 -8.848400 -1.156980
34.274414 -24.724304 -8.848400 -1.251464
47.757721 -24.724304 -8.848400 -1.116235
61.240997 -24.724304 -8.848400 -1.039607
74.724304 -24.724304 -8.848400 -0.723593
88.207611 -24.724304 -8.848400 -0.337931
101.690918 -24.724304 -8.848400 -0.133582
115.174225 -24.724304 -8.848400 0.000000
128.657501 -24.724304 -8.848400 0.000000
142.140808 -24.724304 -8.848400 0.000000
155.624115 -24.724304 -8.848400 0.000000
169.107422 -24.724304 -8.848400 0.000000
182.590698 -24.724304 -8.848400 0.000000
196.074036 -24.724304 -8.848400 0.000000
209.557312 -24.724304 -8.848400 0.000000
223.040588 -24.724304 -8.848400 0.000000
236.523926 -24.724304 -8.848400 0.000000
250.007202 -24.724304 -8.848400 0.000000
263.490540 -24.724304 -8.848400 0.000000
276.973816 -24.724304 -8.848400 0.000000
290.457092 -24.724304 -8.848400 0.000000
303.940430 -24.724304 -8.848400 0.000000
317.423706 -24.724304 -8.848400 0.000000
330.907043 -24.724304 -8.848400 0.000000
344.390320 -24.724304 -8.848400 0.000000
-343.257996 -38.207611 -8.848400 0.000000
-329.774689 -38.207611 -8.848400 0.000000
-316.291382 -38.207611 -8.848400 0.000000
-302.808105 -38.207611 -8.848400 0.000000
-289.324799 -38.207611 -8.848400 0.000000
-275.841492 -38.207611 -8.848400 0.000000
-262.358185 -38.207611 -8.848400 0.000000
-248.874893 -38.207611 -8.848400 0.000000
-235.391602 -38.207611 -8.848400 0.000000
-221.908295 -38.207611 -8.848400 0.000000
-208.424988 -38.207611 -8.848400 0.000000
-194.941696 -38.207611 -8.848400 0.000000
-181.458389 -38.207611 -8.848400 0.000000
-167.975098 -38.207611 -8.848400 0.000000
-154.491791 -38.207611 -8.848400 0.000000
-141.008499 -38.207611 -8.848400 0.000000
-127.525192 -38.207611 -8.848400 0.000000
-114.041885 -38.207611 -8.848400 0.000000
-100.558594 -38.207611 -8.848400 -0.039664
-87.075287 -38.207611 -8.848400 -0.350063
-73.591980 -38.207611 -8.848400 -0.237558
-60.108704 -38.207611 -8.848400 -0.128331
-46.625397 -38.207611 -8.848400 -0.125511
-33.142090 -38.207611 -8.848400 -0.554566
-19.658783 -38.207611 -8.848400 -0.715343
-6.175476 -38.207611 -8.848400 -0.880852
7.307800 -38.207611 -8.848400 -0.981960
20.791107 -38.207611 -8.848400 -1.231827
34.274414 -38.207611 -8.848400 -1.126417
47.757721 -38.207611 -8.848400 -1.081818
61.240997 -38.207611 -8.848400 -0.533706
74.724304 -38.207611 -8.848400 -0.435034
88.207611 -38.207611 -8.848400 -0.254766
101.690918 -38.207611 -8.848400 0.000000
115.174225 -38.207611 -8.848400 0.000000
128.657501 -38.207611 -8.848400 0.000000
142.140808 -38.207611 -8.848400 0.000000
155.624115 -38.207611 -8.848400 0.000000
169.107422 -38.207611 -8.848400 0.000000
182.590698 -38.207611 -8.848400 0.000000
196.074036 -38.207611 -8.848400 0.000000
209.557312 -38.207611 -8.848400 0.000000
223.040588 -38.207611 -8.848400 0.000000
236.523926 -38.207611 -8.848400 0.000000
250.007202 -38.207611 -8.848400 0.000000
263.490540 -38.207611 -8.848400 0.000000
276.973816 -38.207611 -8.848400 0.000000
290.457092 -38.207611 -8.848400 0.000000
303.940430 -38.207611 -8.848400 0.000000
317.423706 -38.207611 -8.848400 0.000000
330.907043 -38.207611 -8.848400 0.000000
344.390320 -38.207611 -8.848400 0.000000
-343.257996 -51.690918 -8.848400 0.000000
-329.774689 -51.690918 -8.848400 0.000000
-316.291382 -51.690918 -8.848400 0.000000
-302.808105 -51.690918 -8.848400 0.000000
-289.324799 -51.690918 -8.848400 0.000000
-275.841492 -51.690918 -8.848400 0.000000
-262.358185 -51.690918 -8.848400 0.000000
-248.874893 -51.690918 -8.848400 0.000000
-235.391602 -51.690918 -8.848400 0.000000
-221.908295 -51.690918 -8.848400 0.000000
-208.424988 -51.690918 -8.848400 0.000000
-194.941696 -51.690918 -8.848400 0.000000
-181.458389 -51.690918 -8.848400 0.000000
-167.975098 -51.690918 -8.848400 0.000000
-154.491791 -51.690918 -8.848400 0.000000
-141.008499 -51.690918 -8.848400 0.000000
-127.525192 -51.690918 -8.848400 0.000000
-114.041885 -51.690918 -8.848400 0.000000
-100.558594 -51.690918 -8.848400 0.000000
-87.075287 -51.690918 -8.848400 -0.027229
-73.591980 -51.690918 -8.848400 0.269877
-60.108704 -51.690918 -8.848400 -0.152078
-46.625397 -51.690918 -8.848400 -0.363996
-33.142090 -51.690918 -8.848400 -0.625222
-19.658783 -51.690918 -8.848400 -0.757441
-6.175476 -51.690918 -8.848400 -0.903279
7.307800 -51.690918 -8.848400 -1.086791
20.791107 -51.690918 -8.848400 -1.078183
34.274414 -51.690918 -8.848400 -1.052729
47.757721 -51.690918 -8.848400 -1.007338
61.240997 -51.690918 -8.848400 -0.547724
74.724304 -51.690918 -8.848400 -0.207711
88.207611 -51.690918 -8.848400 0.000000
101.690918 -51.690918 -8.848400 0.000000
115.174225 -51.690918 -8.848400 0.000000
128.657501 -51.690918 -8.848400 0.000000
142.140808 -51.690918 -8.848400 0.000000
155.624115 -51.690918 -8.848400 0.000000
169.107422 -51.690918 -8.848400 0.000000
182.590698 -51.690918 -8.848400 0.000000
196.074036 -51.690918 -8.848400 0.000000
209.557312 -51.690918 -8.848400 0.000000
223.040588 -51.690918 -8.848400 0.000000
236.523926 -51.690918 -8.848400 0.000000
250.007202 -51.690918 -8.848400 0.000000
263.490540 -51.690918 -8.848400 0.000000
276.973816 -51.690918 -8.848400 0.000000
290.457092 -51.690918 -8.848400 0.000000
303.940430 -51.690918 -8.848400 0.000000
317.423706 -51.690918 -8.848400 0.000000
330.907043 -51.690918 -8.848400 0.000000
344.390320 -51.690918 -8.848400 0.000000
-343.257996 -65.174225 -8.848400 0.000000
-329.774689 -65.174225 -8.848400 0.000000
-316.291382 -65.174225 -8.848400 0.000000
-302.808105 -65.174225 -8.848400 0.000000
-289.324799 -65.174225 -8.848400 0.000000
-275.841492 -65.174225 -8.848400 0.000000
-262.358185 -65.174225 -8.848400 0.000000
-248.874893 -65.174225 -8.848400 0.000000
-235.391602 -65.174225 -8.848400 0.000000
-221.908295 -65.174225 -8.848400 0.000000
-208.424988 -65.174225 -8.848400 0.000000
-194.941696 -65.174225 -8.848400 0.000000
-181.458389 -65.174225 -8.848400 0.000000
-167.975098 -65.174225 -8.848400 0.000000
-154.491791 -65.174225 -8.848400 0.000000
-141.008499 -65.174225 -8.848400 0.000000
-127.525192 -65.174225 -8.848400 0.000000
-114.041885 -65.174225 -8.848400 0.000000
-100.558594 -65.174225 -8.848400 0.000000
-87.075287 -65.174225 -8.848400 -0.161014
-73.591980 -65.174225 -8.848400 -0.012795
-60.108704 -65.174225 -8.848400 -0.193772
-46.625397 -65.174225 -8.848400 -0.299586
-33.142090 -65.174225 -8.848400 -0.522624
-19.658783 -65.174225 -8.848400 -0.689003
-6.175476 -65.174225 -8.848400 -0.887414
7.307800 -65.174225 -8.848400 -1.112167
20.791107 -65.174225 -8.848400 -1.172153
34.274414 -65.174225 -8.848400 -0.996534
47.757721 -65.174225 -8.848400 -0.745305
61.240997 -65.174225 -8.848400 0.000000
74.724304 -65.174225 -8.848400 0.000000
88.207611 -65.174225 -8.848400 0.000000
101.690918 -65.174225 -8.848400 0.000000
115.174225 -65.174225 -8.848400 0.000000
128.657501 -65.174225 -8.848400 0.000000
142.140808 -65.174225 -8.848400 0.000000
155.624115 -65.174225 -8.848400 0.000000
169.107422 -65.174225 -8.848400 0.000000
182.590698 -65.174225 -8.848400 0.000000
196.074036 -65.174225 -8.848400 0.000000
209.557312 -65.174225 -8.848400 0.000000
223.040588 -65.174225 -8.848400 0.000000
236.523926 -65.174225 -8.848400 0.000000
250.007202 -65.174225 -8.848400 0.000000
263.490540 -65.174225 -8.848400 0.000000
276.973816 -65.174225 -8.848400 0.000000
290.457092 -65.174225 -8.848400 0.000000
303.940430 -65.174225 -8.848400 0.000000
317.423706 -65.174225 -8.848400 0.000000
330.907043 -65.174225 -8.848400 0.000000
344.390320 -65.174225 -8.848400 0.000000
-343.257996 -78.657501 -8.848400 0.000000
-329.774689 -78.657501 -8.848400 0.000000
-316.291382 -78.657501 -8.848400 0.000000
-302.808105 -78.657501 -8.848400 0.000000
-289.324799 -78.657501 -8.848400 0.000000
-275.841492 -78.657501 -8.848400 0.000000
-262.358185 -78.657501 -8.848400 0.000000
-248.874893 -78.657501 -8.848400 0.000000
-235.391602 -78.657501 -8.848400 0.000000
-221.908295 -78.657501 -8.848400 0.000000
-208.424988 -78.657501 -8.848400 0.000000
-194.941696 -78.657501 -8.848400 0.000000
-181.458389 -78.657501 -8.848400 0.000000
-167.975098 -78.657501 -8.848400 0.000000
-154.491791 -78.657501 -8.848400 0.000000
-141.008499 -78.657501 -8.848400 0.000000
-127.525192 -78.657501 -8.848400 0.000000
-114.041885 -78.657501 -8.848400 0.000000
-100.558594 -78.657501 -8.848400 0.000000
-87.075287 -78.657501 -8.848400 0.000000
-73.591980 -78.657501 -8.848400 -0.061347
-60.108704 -78.657501 -8.848400 0.169987
-46.625397 -78.657501 -8.848400 0.037945
-33.142090 -78.657501 -8.848400 -0.222218
-19.658783 -78.657501 -8.848400 -0.310021
-6.175476 -78.657501 -8.848400 -0.696683
7.307800 -78.657501 -8.848400 -0.722398
20.791107 -78.657501 -8.848400 -0.909277
34.274414 -78.657501 -8.848400 -0.489010
47.757721 -78.657501 -8.848400 0.000000
61.240997 -78.657501 -8.848400 0.000000
74.724304 -78.657501 -8.848400 0.000000
88.207611 -78.657501 -8.848400 0.000000
101.690918 -78.657501 -8.848400 0.000000
115.174225 -78.657501 -8.848400 0.000000
128.657501 -78.657501 -8.848400 0.000000
142.140808 -78.657501 -8.848400 0.000000
155.624115 -78.657501 -8.848400 0.000000
169.107422 -78.657501 -8.848400 0.000000
182.590698 -78.657501 -8.848400 0.000000
196.074036 -78.657501 -8.848400 0.000000
209.557312 -78.657501 -8.848400 0.000000
223.040588 -78.657501 -8.848400 0.000000
236.523926 -78.657501 -8.848400 0.000000
250.007202 -78.657501 -8.848400 0.000000
263.490540 -78.657501 -8.848400 0.000000
276.973816 -78.657501 -8.848400 0.000000
290.457092 -78.657501 -8.848400 0.000000
303.940430 -78.657501 -8.848400 0.000000
317.423706 -78.657501 -8.848400 0.000000
330.907043 -78.657501 -8.848400 0.000000
344.390320 -78.657501 -8.848400 0.000000
-343.257996 -92.140808 -8.848400 0.000000
-329.774689 -92.140808 -8.848400 0.000000
-316.291382 -92.140808 -8.848400 0.000000
-302.808105 -92.140808 -8.848400 0.000000
-289.324799 -92.140808 -8.848400 0.000000
-275.841492 -92.140808 -8.848400 0.000000
-262.358185 -92.140808 -8.848400 0.000000
-248.874893 -92.140808 -8.848400 0.000000
-235.391602 -92.140808 -8.848400 0.000000
-221.908295 -92.140808 -8.848400 0.000000
-208.424988 -92.140808 -8.848400 0.000000
-194.941696 -92.140808 -8.848400 0.000000
-181.458389 -92.140808 -8.848400 0.000000
-167.975098 -92.140808 -8.848400 0.000000
-154.491791 -92.140808 -8.848400 0.000000
-141.008499 -92.140808 -8.848400 0.000000
-127.525192 -92.140808 -8.848400 0.000000
-114.041885 -92.140808 -8.848400 0.000000
-100.558594 -92.140808 -8.848400 0.000000
-87.075287 -92.140808 -8.848400 0.000000
-73.591980 -92.140808 -8.848400 -0.420297
-60.108704 -92.140808 -8.848400 -0.264866
-46.625397 -92.140808 -8.848400 0.167479
-33.142090 -92.140808 -8.848400 -0.035539
-19.658783 -92.140808 -8.848400 -0.159081
-6.175476 -92.140808 -8.848400 -0.275801
7.307800 -92.140808 -8.848400 0.000000
20.791107 -92.140808 -8.848400 0.000000
34.274414 -92.140808 -8.848400 0.000000
47.757721 -92.140808 -8.848400 0.000000
61.240997 -92.140808 -8.848400 0.000000
74.724304 -92.140808 -8.848400 0.000000
88.207611 -92.140808 -8.848400 0.000000
101.690918 -92.140808 -8.848400 0.000000
115.174225 -92.140808 -8.848400 0.000000
128.657501 -92.140808 -8.848400 0.000000
142.140808 -92.140808 -8.848400 0.000000
155.624115 -92.140808 -8.848400 0.000000
169.107422 -92.140808 -8.848400 0.000000
182.590698 -92.140808 -8.848400 0.000000
196.074036 -92.140808 -8.848400 0.000000
209.557312 -92.140808 -8.848400 0.000000
223.040588 -92.140808 -8.848400 0.000000
236.523926 -92.140808 -8.848400 0.000000
250.007202 -92.140808 -8.848400 0.000000
263.490540 -92.140808 -8.848400 0.000000
276.973816 -92.140808 -8.848400 0.000000
290.457092 -92.140808 -8.848400 0.000000
303.940430 -92.140808 -8.848400 0.000000
317.423706 -92.140808 -8.848400 0.000000
330.907043 -92.140808 -8.848400 0.000000
344.390320 -92.140808 -8.848400 0.000000
-343.257996 -105.624115 -8.848400 0.000000
-329.774689 -105.624115 -8.848400 0.000000
-316.291382 -105.624115 -8.848400 0.000000
-302.808105 -105.624115 -8.848400 0.000000
-289.324799 -105.624115 -8.848400 0.000000
-275.841492 -105.624115 -8.848400 0.000000
-262.358185 -105.624115 -8.848400 0.000000
-248.874893 -105.624115 -8.848400 0.000000
-235.391602 -105.624115 -8.848400 0.000000
-221.908295 -105.624115 -8.848400 0.000000
-208.424988 -105.624115 -8.848400 0.000000
-194.941696 -105.624115 -8.848400 0.000000
-181.458389 -105.624115 -8.848400 0.000000
-167.975098 -105.624115 -8.848400 0.000000
-154.491791 -105.624115 -8.848400 0.000000
-141.008499 -105.624115 -8.848400 0.000000
-127.525192 -105.624115 -8.848400 0.000000
-114.041885 -105.624115 -8.848400 0.000000
-100.558594 -105.624115 -8.848400 0.000000
-87.075287 -105.624115 -8.848400 0.000000
-73.591980 -105.624115 -8.848400 0.000000
-60.108704 -105.624115 -8.848400 0.000000
-46.625397 -105.624115 -8.848400 0.000000
-33.142090 -105.624115 -8.848400 0.000000
-19.658783 -105.624115 -8.848400 0.000000
-6.175476 -105.624115 -8.848400 0.000000
7.307800 -105.624115 -8.848400 0.000000
20.791107 -105.624115 -8.848400 0.000000
34.274414 -105.624115 -8.848400 0.000000
47.757721 -105.624115 -8.848400 0.000000
61.240997 -105.624115 -8.848400 0.000000
74.724304 -105.624115 -8.848400 0.000000
88.207611 -105.624115 -8.848400 0.000000
101.690918 -105.624115 -8.848400 0.000000
115.174225 -105.624115 -8.848400 0.000000
128.657501 -105.624115 -8.848400 0.000000
142.140808 -105.624115 -8.848400 0.000000
155.624115 -105.624115 -8.848400 0.000000
169.107422 -105.624115 -8.848400 0.000000
182.590698 -105.624115 -8.848400 0.000000
196.074036 -105.624115 -8.848400 0.000000
209.557312 -105.624115 -8.848400 0.000000
223.040588 -105.624115 -8.848400 0.000000
236.523926 -105.624115 -8.848400 0.000000
250.007202 -105.624115 -8.848400 0.000000
263.490540 -105.624115 -8.848400 0.000000
276.973816 -105.624115 -8.848400 0.000000
290.457092 -105.624115 -8.848400 0.000000
303.940430 -105.624115 -8.848400 0.000000
317.423706 -105.624115 -8.848400 0.000000
330.907043 -105.624115 -8.848400 0.000000
344.390320 -105.624115 -8.848400 0.000000
-343.257996 -119.107422 -8.848400 0.000000
-329.774689 -119.107422 -8.848400 0.000000
-316.291382 -119.107422 -8.848400 0.000000
-302.808105 -119.107422 -8.848400 0.000000
-289.324799 -119.107422 -8.848400 0.000000
-275.841492 -119.107422 -8.848400 0.000000
-262.358185 -119.107422 -8.848400 0.000000
-248.874893 -119.107422 -8.848400 0.000000
-235.391602 -119.107422 -8.848400 0.000000
-221.908295 -119.107422 -8.848400 0.000000
-208.424988 -119.107422 -8.848400 0.000000
-194.941696 -119.107422 -8.848400 0.000000
-181.458389 -119.107422 -8.848400 0.000000
-167.975098 -119.107422 -8.848400 0.000000
-154.491791 -119.107422 -8.848400 0.000000
-141.008499 -119.107422 -8.848400 0.000000
-127.525192 -119.107422 -8.848400 0.000000
-114.041885 -119.107422 -8.848400 0.000000
-100.558594 -119.107422 -8.848400 0.000000
-87.075287 -119.107422 -8.848400 0.000000
-73.591980 -119.107422 -8.848400 0.000000
-60.108704 -119.107422 -8.848400 0.000000
-46.625397 -119.107422 -8.848400 0.000000
-33.142090 -119.107422 -8.848400 0.000000
-19.658783 -119.107422 -8.848400 0.000000
-6.175476 -119.107422 -8.848400 0.000000
7.307800 -119.107422 -8.848400 0.000000
20.791107 -119.107422 -8.848400 0.000000
34.274414 -119.107422 -8.848400 0.000000
47.757721 -119.107422 -8.848400 0.000000
61.240997 -119.107422 -8.848400 0.000000
74.724304 -119.107422 -8.848400 0.000000
88.207611 -119.107422 -8.848400 0.000000
101.690918 -119.107422 -8.848400 0.000000
115.174225 -119.107422 -8.848400 0.000000
128.657501 -119.107422 -8.848400 0.000000
142.140808 -119.107422 -8.848400 0.000000
155.624115 -119.107422 -8.848400 0.000000
169.107422 -119.107422 -8.848400 0.000000
182.590698 -119.107422 -8.848400 0.000000
196.074036 -119.107422 -8.848400 0.000000
209.557312 -119.107422 -8.848400 0.000000
223.040588 -119.107422 -8.848400 0.000000
236.523926 -119.107422 -8.848400 0.000000
250.007202 -119.107422 -8.848400 0.000000
263.490540 -119.107422 -8.848400 0.000000
276.973816 -119.107422 -8.848400 0.000000
290.457092 -119.107422 -8.848400 0.000000
303.940430 -119.107422 -8.848400 0.000000
317.423706 -119.107422 -8.848400 0.000000
330.907043 -119.107422 -8.848400 0.000000
344.390320 -119.107422 -8.848400 0.000000
-343.257996 -132.590698 -8.848400 0.000000
-329.774689 -132.590698 -8.848400 0.000000
-316.291382 -132.590698 -8.848400 0.000000
-302.808105 -132.590698 -8.848400 0.000000
-289.324799 -132.590698 -8.848400 0.000000
-275.841492 -132.590698 -8.848400 0.000000
-262.358185 -132.590698 -8.848400 0.000000
-248.874893 -132.590698 -8.848400 0.000000
-235.391602 -132.590698 -8.848400 0.000000
-221.908295 -132.590698 -8.848400 0.000000
-208.424988 -132.590698 -8.848400 0.000000
-194.941696 -132.590698 -8.848400 0.000000
-181.458389 -132.590698 -8.848400 0.000000
-167.975098 -132.590698 -8.848400 0.000000
-154.491791 -132.590698 -8.848400 0.000000
-141.008499 -132.590698 -8.848400 0.000000
-127.525192 -132.590698 -8.848400 0.000000
-114.041885 -132.590698 -8.848400 0.000000
-100.558594 -132.590698 -8.848400 0.000000
-87.075287 -132.590698 -8.848400 0.000000
-73.591980 -132.590698 -8.848400 0.000000
-60.108704 -132.590698 -8.848400 0.000000
-46.625397 -132.590698 -8.848400 0.000000
-33.142090 -132.590698 -8.848400 0.000000
-19.658783 -132.590698 -8.848400 0.000000
-6.175476 -132.590698 -8.848400 0.000000
7.307800 -132.590698 -8.848400 0.000000
20.791107 -132.590698 -8.848400 0.000000
34.274414 -132.590698 -8.848400 0.000000
47.757721 -132.590698 -8.848400 0.000000
61.240997 -132.590698 -8.848400 0.000000
74.724304 -132.590698 -8.848400 0.000000
88.207611 -132.590698 -8.848400 0.000000
101.690918 -132.590698 -8.848400 0.000000
115.174225 -132.590698 -8.848400 0.000000
128.657501 -132.590698 -8.848400 0.000000
142.140808 -132.590698 -8.848400 0.000000
155.624115 -132.590698 -8.848400 0.000000
169.107422 -132.590698 -8.848400 0.000000
182.590698 -132.590698 -8.848400 0.000000
196.074036 -132.590698 -8.848400 0.000000
209.557312 -132.590698 -8.848400 0.000000
223.040588 -132.590698 -8.848400 0.000000
236.523926 -132.590698 -8.848400 0.000000
250.007202 -132.590698 -8.848400 0.000000
263.490540 -132.590698 -8.848400 0.000000
276.973816 -132.590698 -8.848400 0.000000
290.457092 -132.590698 -8.848400 0.000000
303.940430 -132.590698 -8.848400 0.000000
317.423706 -132.590698 -8.848400 0.000000
330.907043 -132.590698 -8.848400 0.000000
344.390320 -132.590698 -8.848400 0.000000
-343.257996 -146.074036 -8.848400 0.000000
-329.774689 -146.074036 -8.848400 0.000000
-316.291382 -146.074036 -8.848400 0.000000
-302.808105 -146.074036 -8.848400 0.000000
-289.324799 -146.074036 -8.848400 0.000000
-275.841492 -146.074036 -8.848400 0.000000
-262.358185 -146.074036 -8.848400 0.000000
-248.874893 -146.074036 -8.848400 0.000000
-235.391602 -146.074036 -8.848400 0.000000
-221.908295 -146.074036 -8.848400 0.000000
-208.424988 -146.074036 -8.848400 0.000000
-194.941696 -146.074036 -8.848400 0.000000
-181.458389 -146.074036 -8.848400 0.000000
-167.975098 -146.074036 -8.848400 0.000000
-154.491791 -146.074036 -8.848400 0.000000
-141.008499 -146.074036 -8.848400 0.000000
-127.525192 -146.074036 -8.848400 0.000000
-114.041885 -146.074036 -8.848400 0.000000
-100.558594 -146.074036 -8.848400 0.000000
-87.075287 -146.074036 -8.848400 0.000000
-73.591980 -146.074036 -8.848400 0.000000
-60.108704 -146.074036 -8.848400 0.000000
-46.625397 -146.074036 -8.848400 0.000000
-33.142090 -146.074036 -8.848400 0.000000
-19.658783 -146.074036 -8.848400 0.000000
-6.175476 -146.074036 -8.848400 0.000000
7.307800 -146.074036 -8.848400 0.000000
20.791107 -146.074036 -8.848400 0.000000
34.274414 -146.074036 -8.848400 0.000000
47.757721 -146.074036 -8.848400 0.000000
61.240997 -146.074036 -8.848400 0.000000
74.724304 -146.074036 -8.848400 0.000000
88.207611 -146.074036 -8.848400 0.000000
101.690918 -146.074036 -8.848400 0.000000
115.174225 -146.074036 -8.848400 0.000000
128.657501 -146.074036 -8.848400 0.000000
142.140808 -146.074036 -8.848400 0.000000
155.624115 -146.074036 -8.848400 0.000000
169.107422 -146.074036 -8.848400 0.000000
182.590698 -146.074036 -8.848400 0.000000
196.074036 -146.074036 -8.848400 0.000000
209.557312 -146.074036 -8.848400 0.000000
223.040588 -146.074036 -8.848400 0.000000
236.523926 -146.074036 -8.848400 0.000000
250.007202 -146.074036 -8.848400 0.000000
263.490540 -146.074036 -8.848400 0.000000
276.973816 -146.074036 -8.848400 0.000000
290.457092 -146.074036 -8.848400 0.000000
303.940430 -146.074036 -8.848400 0.000000
317.423706 -146.074036 -8.848400 0.000000
330.907043 -146.074036 -8.848400 0.000000
344.390320 -146.074036 -8.848400 0.000000
-343.257996 -159.557312 -8.848400 0.000000
-329.774689 -159.557312 -8.848400 0.000000
-316.291382 -159.557312 -8.848400 0.000000
-302.808105 -159.557312 -8.848400 0.000000
-289.324799 -159.557312 -8.848400 0.000000
-275.841492 -159.557312 -8.848400 0.000000
-262.358185 -159.557312 -8.848400 0.000000
-248.874893 -159.557312 -8.848400 0.000000
-235.391602 -159.557312 -8.848400 0.000000
-221.908295 -159.557312 -8.848400 0.000000
-208.424988 -159.557312 -8.848400 0.000000
-194.941696 -159.557312 -8.848400 0.000000
-181.458389 -159.557312 -8.848400 0.000000
-167.975098 -159.557312 -8.848400 0.000000
-154.491791 -159.557312 -8.848400 0.000000
-141.008499 -159.557312 -8.848400 0.000000
-127.525192 -159.557312 -8.848400 0.000000
-114.041885 -159.557312 -8.848400 0.000000
-100.558594 -159.557312 -8.848400 0.000000
-87.075287 -159.557312 -8.848400 0.000000
-73.591980 -159.557312 -8.848400 0.000000
-60.108704 -159.557312 -8.848400 0.000000
-46.625397 -159.557312 -8.848400 0.000000
-33.142090 -159.557312 -8.848400 0.000000
-19.658783 -159.557312 -8.848400 0.000000
-6.175476 -159.557312 -8.848400 0.000000
7.307800 -159.557312 -8.848400 0.000000
20.791107 -159.557312 -8.848400 0.000000
34.274414 -159.557312 -8.848400 0.000000
47.757721 -159.557312 -8.848400 0.000000
61.240997 -159.557312 -8.848400 0.000000
74.724304 -159.557312 -8.848400 0.000000
88.207611 -159.557312 -8.848400 0.000000
101.690918 -159.557312 -8.848400 0.000000
115.174225 -159.557312 -8.848400 0.000000
128.657501 -159.557312 -8.848400 0.000000
142.140808 -159.557312 -8.848400 0.000000
155.624115 -159.557312 -8.848400 0.000000
169.107422 -159.557312 -8.848400 0.000000
182.590698 -159.557312 -8.848400 0.000000
196.074036 -159.557312 -8.848400 0.000000
209.557312 -159.557312 -8.848400 0.000000
223.040588 -159.557312 -8.848400 0.000000
236.523926 -159.557312 -8.848400 0.000000
250.007202 -159.557312 -8.848400 0.000000
263.490540 -159.557312 -8.848400 0.000000
276.973816 -159.557312 -8.848400 0.000000
290.457092 -159.557312 -8.848400 0.000000
303.940430 -159.557312 -8.848400 0.000000
317.423706 -159.557312 -8.848400 0.000000
330.907043 -159.557312 -8.848400 0.000000
344.390320 -159.557312 -8.848400 0.000000
-343.257996 -173.040588 -8.848400 0.000000
-329.774689 -173.040588 -8.848400 0.000000
-316.291382 -173.040588 -8.848400 0.000000
-302.808105 -173.040588 -8.848400 0.000000
-289.324799 -173.040588 -8.848400 0.000000
-275.841492 -173.040588 -8.848400 0.000000
-262.358185 -173.040588 -8.848400 0.000000
-248.874893 -173.040588 -8.848400 0.000000
-235.391602 -173.040588 -8.848400 0.000000
-221.908295 -173.040588 -8.848400 0.000000
-208.424988 -173.040588 -8.848400 0.000000
-194.941696 -173.040588 -8.848400 0.000000
-181.458389 -173.040588 -8.848400 0.000000
-167.975098 -173.040588 -8.848400 0.000000
-154.491791 -173.040588 -8.848400 0.000000
-141.008499 -173.040588 -8.848400 0.000000
-127.525192 -173.040588 -8.848400 0.000000
-114.041885 -173.040588 -8.848400 0.000000
-100.558594 -173.040588 -8.848400 0.000000
-87.075287 -173.040588 -8.848400 0.000000
-73.591980 -173.040588 -8.848400 0.000000
-60.108704 -173.040588 -8.848400 0.000000
-46.625397 -173.040588 -8.848400 0.000000
-33.142090 -173.040588 -8.848400 0.000000
-19.658783 -173.040588 -8.848400 0.000000
-6.175476 -173.040588 -8.848400 0.000000
7.307800 -173.040588 -8.848400 0.000000
20.791107 -173.040588 -8.848400 0.000000
34.274414 -173.040588 -8.848400 0.000000
47.757721 -173.040588 -8.848400 0.000000
61.240997 -173.040588 -8.848400 0.000000
74.724304 -173.040588 -8.848400 0.000000
88.207611 -173.040588 -8.848400 0.000000
101.690918 -173.040588 -8.848400 0.000000
115.174225 -173.040588 -8.848400 0.000000
128.657501 -173.040588 -8.848400 0.000000
142.140808 -173.040588 -8.848400 0.000000
155.624115 -173.040588 -8.848400 0.000000
169.107422 -173.040588 -8.848400 0.000000
182.590698 -173.040588 -8.848400 0.000000
196.074036 -173.040588 -8.848400 0.000000
209.557312 -173.040588 -8.848400 0.000000
223.040588 -173.040588 -8.848400 0.000000
236.523926 -173.040588 -8.848400 0.000000
250.007202 -173.040588 -8.848400 0.000000
263.490540 -173.040588 -8.848400 0.000000
276.973816 -173.040588 -8.848400 0.000000
290.457092 -173.040588 -8.848400 0.000000
303.940430 -173.040588 -8.848400 0.000000
317.423706 -173.040588 -8.848400 0.000000
330.907043 -173.040588 -8.848400 0.000000
344.390320 -173.040588 -8.848400 0.000000
-343.257996 -186.523926 -8.848400 0.000000
-329.774689 -186.523926 -8.848400 0.000000
-316.291382 -186.523926 -8.848400 0.000000
-302.808105 -186.523926 -8.848400 0.000000
-289.324799 -186.523926 -8.848400 0.000000
-275.841492 -186.523926 -8.848400 0.000000
-262.358185 -186.523926 -8.848400 0.000000
-248.874893 -186.523926 -8.848400 0.000000
-235.391602 -186.523926 -8.848400 0.000000
-221.908295 -186.523926 -8.848400 0.000000
-208.424988 -186.523926 -8.848400 0.000000
-194.941696 -186.523926 -8.848400 0.000000
-181.458389 -186.523926 -8.848400 0.000000
-167.975098 -186.523926 -8.848400 0.000000
-154.491791 -186.523926 -8.848400 0.000000
-141.008499 -186.523926 -8.848400 0.000000
-127.525192 -186.523926 -8.848400 0.000000
-114.041885 -186.523926 -8.848400 0.000000
-100.558594 -186.523926 -8.848400 0.000000
-87.075287 -186.523926 -8.848400 0.000000
-73.591980 -186.523926 -8.848400 0.000000
-60.108704 -186.523926 -8.848400 0.000000
-46.625397 -186.523926 -8.848400 0.000000
-33.142090 -186.523926 -8.848400 0.000000
-19.658783 -186.523926 -8.848400 0.000000
-6.175476 -186.523926 -8.848400 0.000000
7.307800 -186.523926 -8.848400 0.000000
20.791107 -186.523926 -8.848400 0.000000
34.274414 -186.523926 -8.848400 0.000000
47.757721 -186.523926 -8.848400 0.000000
61.240997 -186.523926 -8.848400 0.000000
74.724304 -186.523926 -8.848400 0.000000
88.207611 -186.523926 -8.848400 0.000000
101.690918 -186.523926 -8.848400 0.000000
115.174225 -186.523926 -8.848400 0.000000
128.657501 -186.523926 -8.848400 0.000000
142.140808 -186.523926 -8.848400 0.000000
155.624115 -186.523926 -8.848400 0.000000
169.107422 -186.523926 -8.848400 0.000000
182.590698 -186.523926 -8.848400 0.000000
196.074036 -186.523926 -8.848400 0.000000
209.557312 -186.523926 -8.848400 0.000000
223.040588 -186.523926 -8.848400 0.000000
236.523926 -186.523926 -8.848400 0.000000
250.007202 -186.523926 -8.848400 0.000000
263.490540 -186.523926 -8.848400 0.000000
276.973816 -186.523926 -8.848400 0.000000
290.457092 -186.523926 -8.848400 0.000000
303.940430 -186.523926 -8.848400 0.000000
317.423706 -186.523926 -8.848400 0.000000
330.907043 -186.523926 -8.848400 0.000000
344.390320 -186.523926 -8.848400 0.000000
-343.257996 -200.007202 -8.848400 0.000000
-329.774689 -200.007202 -8.848400 0.000000
-316.291382 -200.007202 -8.848400 0.000000
-302.808105 -200.007202 -8.848400 0.000000
-289.324799 -200.007202 -8.848400 0.000000
-275.841492 -200.007202 -8.848400 0.000000
-262.358185 -200.007202 -8.848400 0.000000
-248.874893 -200.007202 -8.848400 0.000000
-235.391602 -200.007202 -8.848400 0.000000
-221.908295 -200.007202 -8.848400 0.000000
-208.424988 -200.007202 -8.848400 0.000000
-194.941696 -200.007202 -8.848400 0.000000
-181.458389 -200.007202 -8.848400 0.000000
-167.975098 -200.007202 -8.848400 0.000000
-154.491791 -200.007202 -8.848400 0.000000
-141.008499 -200.007202 -8.848400 0.000000
-127.525192 -200.007202 -8.848400 0.000000
-114.041885 -200.007202 -8.848400 0.000000
-100.558594 -200.007202 -8.848400 0.000000
-87.075287 -200.007202 -8.848400 0.000000
-73.591980 -200.007202 -8.848400 0.000000
-60.108704 -200.007202 -8.848400 0.000000
-46.625397 -200.007202 -8.848400 0.000000
-33.142090 -200.007202 -8.848400 0.000000
-19.658783 -200.007202 -8.848400 0.000000
-6.175476 -200.007202 -8.848400 0.000000
7.307800 -200.007202 -8.848400 0.000000
20.791107 -200.007202 -8.848400 0.000000
34.274414 -200.007202 -8.848400 0.000000
47.757721 -200.007202 -8.848400 0.000000
61.240997 -200.007202 -8.848400 0.000000
74.724304 -200.007202 -8.848400 0.000000
88.207611 -200.007202 -8.848400 0.000000
101.690918 -200.007202 -8.848400 0.000000
115.174225 -200.007202 -8.848400 0.000000
128.657501 -200.007202 -8.848400 0.000000
142.140808 -200.007202 -8.848400 0.000000
155.624115 -200.007202 -8.848400 0.000000
169.107422 -200.007202 -8.848400 0.000000
182.590698 -200.007202 -8.848400 0.000000
196.074036 -200.007202 -8.848400 0.000000
209.557312 -200.007202 -8.848400 0.000000
223.040588 -200.007202 -8.848400 0.000000
236.523926 -200.007202 -8.848400 0.000000
250.007202 -200.007202 -8.848400 0.000000
263.490540 -200.007202 -8.848400 0.000000
276.973816 -200.007202 -8.848400 0.000000
290.457092 -200.007202 -8.848400 0.000000
303.940430 -200.007202 -8.848400 0.000000
317.423706 -200.007202 -8.848400 0.000000
330.907043 -200.007202 -8.848400 0.000000
344.390320 -200.007202 -8.848400 0.000000
