TITLE = "B00004"
VARIABLES = "X", "Y", "Z", "Reynold stress XX"
ZONE T="Frame 1" I=52, J=45, K=4, F=POINT
-343.257996 393.257996 -49.298302 0.000000
-329.774689 393.257996 -49.298302 0.000000
-316.291382 393.257996 -49.298302 0.000000
-302.808105 393.257996 -49.298302 0.000000
-289.324799 393.257996 -49.298302 0.000000
-275.841492 393.257996 -49.298302 0.000000
-262.358185 393.257996 -49.298302 0.000000
-248.874893 393.257996 -49.298302 0.000000
-235.391602 393.257996 -49.298302 0.000000
-221.908295 393.257996 -49.298302 0.000000
-208.424988 393.257996 -49.298302 0.000000
-194.941696 393.257996 -49.298302 0.000000
-181.458389 393.257996 -49.298302 0.000000
-167.975098 393.257996 -49.298302 0.000000
-154.491791 393.257996 -49.298302 0.000000
-141.008499 393.257996 -49.298302 0.000000
-127.525192 393.257996 -49.298302 0.000000
-114.041885 393.257996 -49.298302 0.000000
-100.558594 393.257996 -49.298302 0.000000
-87.075287 393.257996 -49.298302 0.000000
-73.591980 393.257996 -49.298302 0.000000
-60.108704 393.257996 -49.298302 0.000000
-46.625397 393.257996 -49.298302 0.000000
-33.142090 393.257996 -49.298302 0.000000
-19.658783 393.257996 -49.298302 0.000000
-6.175476 393.257996 -49.298302 0.000000
7.307800 393.257996 -49.298302 0.000000
20.791107 393.257996 -49.298302 0.000000
34.274414 393.257996 -49.298302 0.000000
47.757721 393.257996 -49.298302 0.000000
61.240997 393.257996 -49.298302 0.000000
74.724304 393.257996 -49.298302 0.000000
88.207611 393.257996 -49.298302 0.000000
101.690918 393.257996 -49.298302 0.000000
115.174225 393.257996 -49.298302 0.000000
128.657501 393.257996 -49.298302 0.000000
142.140808 393.257996 -49.298302 0.000000
155.624115 393.257996 -49.298302 0.000000
169.107422 393.257996 -49.298302 0.000000
182.590698 393.257996 -49.298302 0.000000
196.074036 393.257996 -49.298302 0.000000
209.557312 393.257996 -49.298302 0.000000
223.040588 393.257996 -49.298302 0.000000
236.523926 393.257996 -49.298302 0.000000
250.007202 393.257996 -49.298302 0.000000
263.490540 393.257996 -49.298302 0.000000
276.973816 393.257996 -49.298302 0.000000
290.457092 393.257996 -49.298302 0.000000
303.940430 393.257996 -49.298302 0.000000
317.423706 393.257996 -49.298302 0.000000
330.907043 393.257996 -49.298302 0.000000
344.390320 393.257996 -49.298302 0.000000
-343.257996 379.774689 -49.298302 0.000000
-329.774689 379.774689 -49.298302 0.000000
-316.291382 379.774689 -49.298302 0.000000
-302.808105 379.774689 -49.298302 0.000000
-289.324799 379.774689 -49.298302 0.000000
-275.841492 379.774689 -49.298302 0.000000
-262.358185 379.774689 -49.298302 0.000000
-248.874893 379.774689 -49.298302 0.000000
-235.391602 379.774689 -49.298302 0.000000
-221.908295 379.774689 -49.298302 0.000000
-208.424988 379.774689 -49.298302 0.000000
-194.941696 379.774689 -49.298302 0.000000
-181.458389 379.774689 -49.298302 0.000000
-167.975098 379.774689 -49.298302 0.000000
-154.491791 379.774689 -49.298302 0.000000
-141.008499 379.774689 -49.298302 0.000000
-127.525192 379.774689 -49.298302 0.000000
-114.041885 379.774689 -49.298302 0.000000
-100.558594 379.774689 -49.298302 0.000000
-87.075287 379.774689 -49.298302 0.000000
-73.591980 379.774689 -49.298302 0.000000
-60.108704 379.774689 -49.298302 0.000000
-46.625397 379.774689 -49.298302 0.000000
-33.142090 379.774689 -49.298302 0.000000
-19.658783 379.774689 -49.298302 0.000000
-6.175476 379.774689 -49.298302 0.000000
7.307800 379.774689 -49.298302 0.000000
20.791107 379.774689 -49.298302 0.000000
34.274414 379.774689 -49.298302 0.000000
47.757721 379.774689 -49.298302 0.000000
61.240997 379.774689 -49.298302 0.000000
74.724304 379.774689 -49.298302 0.000000
88.207611 379.774689 -49.298302 0.000000
101.690918 379.774689 -49.298302 0.000000
115.174225 379.774689 -49.298302 0.000000
128.657501 379.774689 -49.298302 0.000000
142.140808 379.774689 -49.298302 0.000000
155.624115 379.774689 -49.298302 0.000000
169.107422 379.774689 -49.298302 0.000000
182.590698 379.774689 -49.298302 0.000000
196.074036 379.774689 -49.298302 0.000000
209.557312 379.774689 -49.298302 0.000000
223.040588 379.774689 -49.298302 0.000000
236.523926 379.774689 -49.298302 0.000000
250.007202 379.774689 -49.298302 0.000000
263.490540 379.774689 -49.298302 0.000000
276.973816 379.774689 -49.298302 0.000000
290.457092 379.774689 -49.298302 0.000000
303.940430 379.774689 -49.298302 0.000000
317.423706 379.774689 -49.298302 0.000000
330.907043 379.774689 -49.298302 0.000000
344.390320 379.774689 -49.298302 0.000000
-343.257996 366.291382 -49.298302 0.000000
-329.774689 366.291382 -49.298302 0.000000
-316.291382 366.291382 -49.298302 0.000000
-302.808105 366.291382 -49.298302 0.000000
-289.324799 366.291382 -49.298302 0.000000
-275.841492 366.291382 -49.298302 0.000000
-262.358185 366.291382 -49.298302 0.000000
-248.874893 366.291382 -49.298302 0.000000
-235.391602 366.291382 -49.298302 0.000000
-221.908295 366.291382 -49.298302 0.000000
-208.424988 366.291382 -49.298302 0.000000
-194.941696 366.291382 -49.298302 0.000000
-181.458389 366.291382 -49.298302 0.000000
-167.975098 366.291382 -49.298302 0.000000
-154.491791 366.291382 -49.298302 0.000000
-141.008499 366.291382 -49.298302 0.000000
-127.525192 366.291382 -49.298302 0.000000
-114.041885 366.291382 -49.298302 0.000000
-100.558594 366.291382 -49.298302 0.000000
-87.075287 366.291382 -49.298302 0.000000
-73.591980 366.291382 -49.298302 0.000000
-60.108704 366.291382 -49.298302 0.000000
-46.625397 366.291382 -49.298302 0.000000
-33.142090 366.291382 -49.298302 0.000000
-19.658783 366.291382 -49.298302 0.000000
-6.175476 366.291382 -49.298302 0.000000
7.307800 366.291382 -49.298302 0.000000
20.791107 366.291382 -49.298302 0.000000
34.274414 366.291382 -49.298302 0.000000
47.757721 366.291382 -49.298302 0.000000
61.240997 366.291382 -49.298302 0.000000
74.724304 366.291382 -49.298302 0.000000
88.207611 366.291382 -49.298302 0.000000
101.690918 366.291382 -49.298302 0.000000
115.174225 366.291382 -49.298302 0.000000
128.657501 366.291382 -49.298302 0.000000
142.140808 366.291382 -49.298302 0.000000
155.624115 366.291382 -49.298302 0.000000
169.107422 366.291382 -49.298302 0.000000
182.590698 366.291382 -49.298302 0.000000
196.074036 366.291382 -49.298302 0.000000
209.557312 366.291382 -49.298302 0.000000
223.040588 366.291382 -49.298302 0.000000
236.523926 366.291382 -49.298302 0.000000
250.007202 366.291382 -49.298302 0.000000
263.490540 366.291382 -49.298302 0.000000
276.973816 366.291382 -49.298302 0.000000
290.457092 366.291382 -49.298302 0.000000
303.940430 366.291382 -49.298302 0.000000
317.423706 366.291382 -49.298302 0.000000
330.907043 366.291382 -49.298302 0.000000
344.390320 366.291382 -49.298302 0.000000
-343.257996 352.808105 -49.298302 0.000000
-329.774689 352.808105 -49.298302 0.000000
-316.291382 352.808105 -49.298302 0.000000
-302.808105 352.808105 -49.298302 0.000000
-289.324799 352.808105 -49.298302 0.000000
-275.841492 352.808105 -49.298302 0.000000
-262.358185 352.808105 -49.298302 0.000000
-248.874893 352.808105 -49.298302 0.000000
-235.391602 352.808105 -49.298302 0.000000
-221.908295 352.808105 -49.298302 0.000000
-208.424988 352.808105 -49.298302 0.000000
-194.941696 352.808105 -49.298302 0.000000
-181.458389 352.808105 -49.298302 3.440328
-167.975098 352.808105 -49.298302 2.888037
-154.491791 352.808105 -49.298302 2.713984
-141.008499 352.808105 -49.298302 2.890366
-127.525192 352.808105 -49.298302 2.703075
-114.041885 352.808105 -49.298302 2.863287
-100.558594 352.808105 -49.298302 2.941947
-87.075287 352.808105 -49.298302 3.014359
-73.591980 352.808105 -49.298302 3.097741
-60.108704 352.808105 -49.298302 3.209353
-46.625397 352.808105 -49.298302 3.448070
-33.142090 352.808105 -49.298302 3.494099
-19.658783 352.808105 -49.298302 3.372987
-6.175476 352.808105 -49.298302 2.786967
7.307800 352.808105 -49.298302 2.920460
20.791107 352.808105 -49.298302 2.767554
34.274414 352.808105 -49.298302 2.556620
47.757721 352.808105 -49.298302 2.357703
61.240997 352.808105 -49.298302 2.208779
74.724304 352.808105 -49.298302 2.166174
88.207611 352.808105 -49.298302 1.935625
101.690918 352.808105 -49.298302 2.216691
115.174225 352.808105 -49.298302 2.203522
128.657501 352.808105 -49.298302 2.490947
142.140808 352.808105 -49.298302 0.000000
155.624115 352.808105 -49.298302 0.000000
169.107422 352.808105 -49.298302 0.000000
182.590698 352.808105 -49.298302 0.000000
196.074036 352.808105 -49.298302 0.000000
209.557312 352.808105 -49.298302 0.000000
223.040588 352.808105 -49.298302 0.000000
236.523926 352.808105 -49.298302 0.000000
250.007202 352.808105 -49.298302 0.000000
263.490540 352.808105 -49.298302 0.000000
276.973816 352.808105 -49.298302 0.000000
290.457092 352.808105 -49.298302 0.000000
303.940430 352.808105 -49.298302 0.000000
317.423706 352.808105 -49.298302 0.000000
330.907043 352.808105 -49.298302 0.000000
344.390320 352.808105 -49.298302 0.000000
-343.257996 339.324799 -49.298302 0.000000
-329.774689 339.324799 -49.298302 0.000000
-316.291382 339.324799 -49.298302 0.000000
-302.808105 339.324799 -49.298302 0.000000
-289.324799 339.324799 -49.298302 0.000000
-275.841492 339.324799 -49.298302 0.000000
-262.358185 339.324799 -49.298302 4.057774
-248.874893 339.324799 -49.298302 3.845809
-235.391602 339.324799 -49.298302 3.474111
-221.908295 339.324799 -49.298302 3.386795
-208.424988 339.324799 -49.298302 3.292700
-194.941696 339.324799 -49.298302 3.485981
-181.458389 339.324799 -49.298302 3.344504
-167.975098 339.324799 -49.298302 3.092778
-154.491791 339.324799 -49.298302 2.946887
-141.008499 339.324799 -49.298302 3.028854
-127.525192 339.324799 -49.298302 2.857178
-114.041885 339.324799 -49.298302 2.891491
-100.558594 339.324799 -49.298302 2.997624
-87.075287 339.324799 -49.298302 3.214965
-73.591980 339.324799 -49.298302 3.507490
-60.108704 339.324799 -49.298302 3.793821
-46.625397 339.324799 -49.298302 3.778680
-33.142090 339.324799 -49.298302 3.729877
-19.658783 339.324799 -49.298302 3.423095
-6.175476 339.324799 -49.298302 3.298778
7.307800 339.324799 -49.298302 3.122692
20.791107 339.324799 -49.298302 2.979903
34.274414 339.324799 -49.298302 2.874426
47.757721 339.324799 -49.298302 2.647427
61.240997 339.324799 -49.298302 2.502754
74.724304 339.324799 -49.298302 2.184044
88.207611 339.324799 -49.298302 1.992304
101.690918 339.324799 -49.298302 2.202451
115.174225 339.324799 -49.298302 2.295239
128.657501 339.324799 -49.298302 2.433641
142.140808 339.324799 -49.298302 2.834991
155.624115 339.324799 -49.298302 2.694192
169.107422 339.324799 -49.298302 2.523511
182.590698 339.324799 -49.298302 2.641732
196.074036 339.324799 -49.298302 2.507438
209.557312 339.324799 -49.298302 2.526351
223.040588 339.324799 -49.298302 2.462858
236.523926 339.324799 -49.298302 3.062956
250.007202 339.324799 -49.298302 3.197685
263.490540 339.324799 -49.298302 3.744650
276.973816 339.324799 -49.298302 0.000000
290.457092 339.324799 -49.298302 0.000000
303.940430 339.324799 -49.298302 0.000000
317.423706 339.324799 -49.298302 0.000000
330.907043 339.324799 -49.298302 0.000000
344.390320 339.324799 -49.298302 0.000000
-343.257996 325.841492 -49.298302 0.000000
-329.774689 325.841492 -49.298302 0.000000
-316.291382 325.841492 -49.298302 0.000000
-302.808105 325.841492 -49.298302 0.000000
-289.324799 325.841492 -49.298302 3.313751
-275.841492 325.841492 -49.298302 3.299853
-262.358185 325.841492 -49.298302 3.219024
-248.874893 325.841492 -49.298302 3.027070
-235.391602 325.841492 -49.298302 2.899621
-221.908295 325.841492 -49.298302 2.883688
-208.424988 325.841492 -49.298302 3.214156
-194.941696 325.841492 -49.298302 3.272338
-181.458389 325.841492 -49.298302 3.114658
-167.975098 325.841492 -49.298302 3.159269
-154.491791 325.841492 -49.298302 3.256365
-141.008499 325.841492 -49.298302 3.147171
-127.525192 325.841492 -49.298302 3.033842
-114.041885 325.841492 -49.298302 3.124862
-100.558594 325.841492 -49.298302 3.476886
-87.075287 325.841492 -49.298302 3.632157
-73.591980 325.841492 -49.298302 4.178669
-60.108704 325.841492 -49.298302 4.317771
-46.625397 325.841492 -49.298302 4.205448
-33.142090 325.841492 -49.298302 4.449420
-19.658783 325.841492 -49.298302 4.142720
-6.175476 325.841492 -49.298302 3.870246
7.307800 325.841492 -49.298302 3.743228
20.791107 325.841492 -49.298302 3.347575
34.274414 325.841492 -49.298302 3.104339
47.757721 325.841492 -49.298302 2.904145
61.240997 325.841492 -49.298302 2.531922
74.724304 325.841492 -49.298302 2.559233
88.207611 325.841492 -49.298302 2.567339
101.690918 325.841492 -49.298302 2.665660
115.174225 325.841492 -49.298302 2.643633
128.657501 325.841492 -49.298302 2.656056
142.140808 325.841492 -49.298302 3.008993
155.624115 325.841492 -49.298302 3.021656
169.107422 325.841492 -49.298302 2.817173
182.590698 325.841492 -49.298302 2.581548
196.074036 325.841492 -49.298302 2.435587
209.557312 325.841492 -49.298302 2.636425
223.040588 325.841492 -49.298302 2.678684
236.523926 325.841492 -49.298302 2.644962
250.007202 325.841492 -49.298302 2.658047
263.490540 325.841492 -49.298302 2.929597
276.973816 325.841492 -49.298302 3.203467
290.457092 325.841492 -49.298302 0.000000
303.940430 325.841492 -49.298302 0.000000
317.423706 325.841492 -49.298302 0.000000
330.907043 325.841492 -49.298302 0.000000
344.390320 325.841492 -49.298302 0.000000
-343.257996 312.358185 -49.298302 0.000000
-329.774689 312.358185 -49.298302 0.000000
-316.291382 312.358185 -49.298302 0.000000
-302.808105 312.358185 -49.298302 0.000000
-289.324799 312.358185 -49.298302 2.205608
-275.841492 312.358185 -49.298302 2.362128
-262.358185 312.358185 -49.298302 2.376403
-248.874893 312.358185 -49.298302 2.292072
-235.391602 312.358185 -49.298302 2.291038
-221.908295 312.358185 -49.298302 2.418704
-208.424988 312.358185 -49.298302 2.889992
-194.941696 312.358185 -49.298302 2.883497
-181.458389 312.358185 -49.298302 3.160116
-167.975098 312.358185 -49.298302 3.320921
-154.491791 312.358185 -49.298302 3.536933
-141.008499 312.358185 -49.298302 3.374553
-127.525192 312.358185 -49.298302 3.165093
-114.041885 312.358185 -49.298302 3.255559
-100.558594 312.358185 -49.298302 3.726901
-87.075287 312.358185 -49.298302 3.699867
-73.591980 312.358185 -49.298302 4.154086
-60.108704 312.358185 -49.298302 4.767939
-46.625397 312.358185 -49.298302 4.732009
-33.142090 312.358185 -49.298302 4.876839
-19.658783 312.358185 -49.298302 4.778801
-6.175476 312.358185 -49.298302 4.540770
7.307800 312.358185 -49.298302 4.354329
20.791107 312.358185 -49.298302 3.820742
34.274414 312.358185 -49.298302 3.412168
47.757721 312.358185 -49.298302 3.414306
61.240997 312.358185 -49.298302 3.198302
74.724304 312.358185 -49.298302 3.020803
88.207611 312.358185 -49.298302 2.872540
101.690918 312.358185 -49.298302 2.969777
115.174225 312.358185 -49.298302 3.435089
128.657501 312.358185 -49.298302 3.329302
142.140808 312.358185 -49.298302 2.970154
155.624115 312.358185 -49.298302 3.160072
169.107422 312.358185 -49.298302 2.973099
182.590698 312.358185 -49.298302 2.730623
196.074036 312.358185 -49.298302 2.534403
209.557312 312.358185 -49.298302 2.444194
223.040588 312.358185 -49.298302 2.438042
236.523926 312.358185 -49.298302 2.278651
250.007202 312.358185 -49.298302 2.071250
263.490540 312.358185 -49.298302 2.032451
276.973816 312.358185 -49.298302 2.210392
290.457092 312.358185 -49.298302 2.099017
303.940430 312.358185 -49.298302 0.000000
317.423706 312.358185 -49.298302 0.000000
330.907043 312.358185 -49.298302 0.000000
344.390320 312.358185 -49.298302 0.000000
-343.257996 298.874878 -49.298302 0.000000
-329.774689 298.874878 -49.298302 0.000000
-316.291382 298.874878 -49.298302 0.000000
-302.808105 298.874878 -49.298302 0.000000
-289.324799 298.874878 -49.298302 1.880216
-275.841492 298.874878 -49.298302 1.775196
-262.358185 298.874878 -49.298302 1.661128
-248.874893 298.874878 -49.298302 1.767058
-235.391602 298.874878 -49.298302 1.859311
-221.908295 298.874878 -49.298302 2.250128
-208.424988 298.874878 -49.298302 2.412698
-194.941696 298.874878 -49.298302 2.753608
-181.458389 298.874878 -49.298302 2.832605
-167.975098 298.874878 -49.298302 3.229730
-154.491791 298.874878 -49.298302 3.292714
-141.008499 298.874878 -49.298302 3.319805
-127.525192 298.874878 -49.298302 3.553934
-114.041885 298.874878 -49.298302 3.679952
-100.558594 298.874878 -49.298302 3.925249
-87.075287 298.874878 -49.298302 4.061810
-73.591980 298.874878 -49.298302 4.649043
-60.108704 298.874878 -49.298302 5.195014
-46.625397 298.874878 -49.298302 5.031883
-33.142090 298.874878 -49.298302 5.469743
-19.658783 298.874878 -49.298302 5.578514
-6.175476 298.874878 -49.298302 5.133507
7.307800 298.874878 -49.298302 4.549135
20.791107 298.874878 -49.298302 4.305946
34.274414 298.874878 -49.298302 4.132032
47.757721 298.874878 -49.298302 4.012251
61.240997 298.874878 -49.298302 3.892915
74.724304 298.874878 -49.298302 3.774631
88.207611 298.874878 -49.298302 3.768729
101.690918 298.874878 -49.298302 3.488266
115.174225 298.874878 -49.298302 3.576820
128.657501 298.874878 -49.298302 3.539341
142.140808 298.874878 -49.298302 3.414018
155.624115 298.874878 -49.298302 3.381565
169.107422 298.874878 -49.298302 2.952518
182.590698 298.874878 -49.298302 2.675498
196.074036 298.874878 -49.298302 2.445047
209.557312 298.874878 -49.298302 2.418419
223.040588 298.874878 -49.298302 2.190109
236.523926 298.874878 -49.298302 1.986351
250.007202 298.874878 -49.298302 1.900361
263.490540 298.874878 -49.298302 1.708552
276.973816 298.874878 -49.298302 1.617921
290.457092 298.874878 -49.298302 1.427633
303.940430 298.874878 -49.298302 0.000000
317.423706 298.874878 -49.298302 0.000000
330.907043 298.874878 -49.298302 0.000000
344.390320 298.874878 -49.298302 0.000000
-343.257996 285.391602 -49.298302 0.000000
-329.774689 285.391602 -49.298302 0.000000
-316.291382 285.391602 -49.298302 0.000000
-302.808105 285.391602 -49.298302 1.503365
-289.324799 285.391602 -49.298302 1.392112
-275.841492 285.391602 -49.298302 1.315246
-262.358185 285.391602 -49.298302 1.417283
-248.874893 285.391602 -49.298302 1.551414
-235.391602 285.391602 -49.298302 1.644352
-221.908295 285.391602 -49.298302 1.922265
-208.424988 285.391602 -49.298302 2.085988
-194.941696 285.391602 -49.298302 2.369706
-181.458389 285.391602 -49.298302 2.691204
-167.975098 285.391602 -49.298302 3.167010
-154.491791 285.391602 -49.298302 3.289876
-141.008499 285.391602 -49.298302 3.411502
-127.525192 285.391602 -49.298302 3.597244
-114.041885 285.391602 -49.298302 3.941958
-100.558594 285.391602 -49.298302 3.895533
-87.075287 285.391602 -49.298302 4.367898
-73.591980 285.391602 -49.298302 5.284201
-60.108704 285.391602 -49.298302 5.765348
-46.625397 285.391602 -49.298302 5.522836
-33.142090 285.391602 -49.298302 5.556868
-19.658783 285.391602 -49.298302 5.785530
-6.175476 285.391602 -49.298302 5.582614
7.307800 285.391602 -49.298302 5.023788
20.791107 285.391602 -49.298302 4.727464
34.274414 285.391602 -49.298302 4.407428
47.757721 285.391602 -49.298302 4.425553
61.240997 285.391602 -49.298302 4.159461
74.724304 285.391602 -49.298302 3.946547
88.207611 285.391602 -49.298302 3.880202
101.690918 285.391602 -49.298302 4.011079
115.174225 285.391602 -49.298302 3.871319
128.657501 285.391602 -49.298302 3.981788
142.140808 285.391602 -49.298302 4.003482
155.624115 285.391602 -49.298302 3.669744
169.107422 285.391602 -49.298302 3.189325
182.590698 285.391602 -49.298302 2.539524
196.074036 285.391602 -49.298302 2.445996
209.557312 285.391602 -49.298302 2.258075
223.040588 285.391602 -49.298302 2.048437
236.523926 285.391602 -49.298302 1.960948
250.007202 285.391602 -49.298302 1.650129
263.490540 285.391602 -49.298302 1.498330
276.973816 285.391602 -49.298302 1.283063
290.457092 285.391602 -49.298302 1.309585
303.940430 285.391602 -49.298302 0.000000
317.423706 285.391602 -49.298302 0.000000
330.907043 285.391602 -49.298302 0.000000
344.390320 285.391602 -49.298302 0.000000
-343.257996 271.908295 -49.298302 0.000000
-329.774689 271.908295 -49.298302 0.000000
-316.291382 271.908295 -49.298302 0.000000
-302.808105 271.908295 -49.298302 1.220115
-289.324799 271.908295 -49.298302 1.107396
-275.841492 271.908295 -49.298302 1.095718
-262.358185 271.908295 -49.298302 1.177284
-248.874893 271.908295 -49.298302 1.294417
-235.391602 271.908295 -49.298302 1.516469
-221.908295 271.908295 -49.298302 1.664154
-208.424988 271.908295 -49.298302 1.872849
-194.941696 271.908295 -49.298302 2.084365
-181.458389 271.908295 -49.298302 2.456656
-167.975098 271.908295 -49.298302 2.765405
-154.491791 271.908295 -49.298302 2.995245
-141.008499 271.908295 -49.298302 3.120224
-127.525192 271.908295 -49.298302 3.468109
-114.041885 271.908295 -49.298302 3.760338
-100.558594 271.908295 -49.298302 3.895005
-87.075287 271.908295 -49.298302 4.812807
-73.591980 271.908295 -49.298302 5.508326
-60.108704 271.908295 -49.298302 6.096799
-46.625397 271.908295 -49.298302 5.921908
-33.142090 271.908295 -49.298302 5.971417
-19.658783 271.908295 -49.298302 5.948087
-6.175476 271.908295 -49.298302 5.830695
7.307800 271.908295 -49.298302 5.453100
20.791107 271.908295 -49.298302 5.538589
34.274414 271.908295 -49.298302 4.932501
47.757721 271.908295 -49.298302 4.757784
61.240997 271.908295 -49.298302 4.378592
74.724304 271.908295 -49.298302 4.051434
88.207611 271.908295 -49.298302 4.323177
101.690918 271.908295 -49.298302 4.076128
115.174225 271.908295 -49.298302 4.196956
128.657501 271.908295 -49.298302 4.572526
142.140808 271.908295 -49.298302 4.060579
155.624115 271.908295 -49.298302 3.623030
169.107422 271.908295 -49.298302 3.356720
182.590698 271.908295 -49.298302 2.814880
196.074036 271.908295 -49.298302 2.522613
209.557312 271.908295 -49.298302 2.227600
223.040588 271.908295 -49.298302 2.128086
236.523926 271.908295 -49.298302 1.879152
250.007202 271.908295 -49.298302 1.685686
263.490540 271.908295 -49.298302 1.397768
276.973816 271.908295 -49.298302 1.242182
290.457092 271.908295 -49.298302 1.100423
303.940430 271.908295 -49.298302 0.000000
317.423706 271.908295 -49.298302 0.000000
330.907043 271.908295 -49.298302 0.000000
344.390320 271.908295 -49.298302 0.000000
-343.257996 258.424988 -49.298302 0.000000
-329.774689 258.424988 -49.298302 0.000000
-316.291382 258.424988 -49.298302 0.000000
-302.808105 258.424988 -49.298302 1.009198
-289.324799 258.424988 -49.298302 1.004564
-275.841492 258.424988 -49.298302 1.071357
-262.358185 258.424988 -49.298302 1.127197
-248.874893 258.424988 -49.298302 1.190724
-235.391602 258.424988 -49.298302 1.318793
-221.908295 258.424988 -49.298302 1.412780
-208.424988 258.424988 -49.298302 1.736917
-194.941696 258.424988 -49.298302 1.925127
-181.458389 258.424988 -49.298302 2.055472
-167.975098 258.424988 -49.298302 2.341693
-154.491791 258.424988 -49.298302 2.765378
-141.008499 258.424988 -49.298302 3.089367
-127.525192 258.424988 -49.298302 3.445676
-114.041885 258.424988 -49.298302 3.993968
-100.558594 258.424988 -49.298302 4.539648
-87.075287 258.424988 -49.298302 5.138875
-73.591980 258.424988 -49.298302 5.661793
-60.108704 258.424988 -49.298302 5.861568
-46.625397 258.424988 -49.298302 6.244508
-33.142090 258.424988 -49.298302 6.351893
-19.658783 258.424988 -49.298302 6.173845
-6.175476 258.424988 -49.298302 5.964854
7.307800 258.424988 -49.298302 5.708770
20.791107 258.424988 -49.298302 5.484649
34.274414 258.424988 -49.298302 5.366601
47.757721 258.424988 -49.298302 4.981301
61.240997 258.424988 -49.298302 4.635200
74.724304 258.424988 -49.298302 4.287026
88.207611 258.424988 -49.298302 3.994791
101.690918 258.424988 -49.298302 4.126891
115.174225 258.424988 -49.298302 4.322958
128.657501 258.424988 -49.298302 4.419954
142.140808 258.424988 -49.298302 4.015743
155.624115 258.424988 -49.298302 3.662780
169.107422 258.424988 -49.298302 3.371371
182.590698 258.424988 -49.298302 2.984341
196.074036 258.424988 -49.298302 2.721362
209.557312 258.424988 -49.298302 2.450068
223.040588 258.424988 -49.298302 2.164663
236.523926 258.424988 -49.298302 2.047528
250.007202 258.424988 -49.298302 1.765969
263.490540 258.424988 -49.298302 1.402481
276.973816 258.424988 -49.298302 1.128365
290.457092 258.424988 -49.298302 1.087961
303.940430 258.424988 -49.298302 0.000000
317.423706 258.424988 -49.298302 0.000000
330.907043 258.424988 -49.298302 0.000000
344.390320 258.424988 -49.298302 0.000000
-343.257996 244.941696 -49.298302 0.000000
-329.774689 244.941696 -49.298302 0.000000
-316.291382 244.941696 -49.298302 0.000000
-302.808105 244.941696 -49.298302 0.895599
-289.324799 244.941696 -49.298302 0.961287
-275.841492 244.941696 -49.298302 1.013232
-262.358185 244.941696 -49.298302 1.066679
-248.874893 244.941696 -49.298302 1.120885
-235.391602 244.941696 -49.298302 1.219636
-221.908295 244.941696 -49.298302 1.310958
-208.424988 244.941696 -49.298302 1.591585
-194.941696 244.941696 -49.298302 1.756570
-181.458389 244.941696 -49.298302 2.010997
-167.975098 244.941696 -49.298302 2.273800
-154.491791 244.941696 -49.298302 2.532134
-141.008499 244.941696 -49.298302 2.824277
-127.525192 244.941696 -49.298302 3.360797
-114.041885 244.941696 -49.298302 3.863183
-100.558594 244.941696 -49.298302 4.680907
-87.075287 244.941696 -49.298302 5.077292
-73.591980 244.941696 -49.298302 5.554685
-60.108704 244.941696 -49.298302 6.058892
-46.625397 244.941696 -49.298302 6.574120
-33.142090 244.941696 -49.298302 6.827806
-19.658783 244.941696 -49.298302 6.514151
-6.175476 244.941696 -49.298302 6.191341
7.307800 244.941696 -49.298302 6.013585
20.791107 244.941696 -49.298302 5.576667
34.274414 244.941696 -49.298302 5.021069
47.757721 244.941696 -49.298302 4.836983
61.240997 244.941696 -49.298302 4.937811
74.724304 244.941696 -49.298302 4.582555
88.207611 244.941696 -49.298302 3.910036
101.690918 244.941696 -49.298302 3.945195
115.174225 244.941696 -49.298302 4.235993
128.657501 244.941696 -49.298302 4.259522
142.140808 244.941696 -49.298302 3.707714
155.624115 244.941696 -49.298302 3.611708
169.107422 244.941696 -49.298302 3.455884
182.590698 244.941696 -49.298302 2.952106
196.074036 244.941696 -49.298302 2.871225
209.557312 244.941696 -49.298302 2.641253
223.040588 244.941696 -49.298302 2.237627
236.523926 244.941696 -49.298302 1.994229
250.007202 244.941696 -49.298302 1.710284
263.490540 244.941696 -49.298302 1.497507
276.973816 244.941696 -49.298302 1.217473
290.457092 244.941696 -49.298302 0.981020
303.940430 244.941696 -49.298302 0.000000
317.423706 244.941696 -49.298302 0.000000
330.907043 244.941696 -49.298302 0.000000
344.390320 244.941696 -49.298302 0.000000
-343.257996 231.458389 -49.298302 0.000000
-329.774689 231.458389 -49.298302 0.000000
-316.291382 231.458389 -49.298302 0.000000
-302.808105 231.458389 -49.298302 0.866398
-289.324799 231.458389 -49.298302 0.955825
-275.841492 231.458389 -49.298302 1.007807
-262.358185 231.458389 -49.298302 1.010927
-248.874893 231.458389 -49.298302 1.103268
-235.391602 231.458389 -49.298302 1.214908
-221.908295 231.458389 -49.298302 1.289912
-208.424988 231.458389 -49.298302 1.512982
-194.941696 231.458389 -49.298302 1.742633
-181.458389 231.458389 -49.298302 1.960306
-167.975098 231.458389 -49.298302 2.125481
-154.491791 231.458389 -49.298302 2.347585
-141.008499 231.458389 -49.298302 2.583737
-127.525192 231.458389 -49.298302 3.117056
-114.041885 231.458389 -49.298302 3.753897
-100.558594 231.458389 -49.298302 4.710999
-87.075287 231.458389 -49.298302 5.623904
-73.591980 231.458389 -49.298302 5.646855
-60.108704 231.458389 -49.298302 6.120958
-46.625397 231.458389 -49.298302 7.196211
-33.142090 231.458389 -49.298302 7.438383
-19.658783 231.458389 -49.298302 7.629647
-6.175476 231.458389 -49.298302 7.187737
7.307800 231.458389 -49.298302 6.959534
20.791107 231.458389 -49.298302 5.956926
34.274414 231.458389 -49.298302 5.776207
47.757721 231.458389 -49.298302 5.292190
61.240997 231.458389 -49.298302 5.093414
74.724304 231.458389 -49.298302 4.625766
88.207611 231.458389 -49.298302 4.544630
101.690918 231.458389 -49.298302 4.377482
115.174225 231.458389 -49.298302 4.485926
128.657501 231.458389 -49.298302 4.130403
142.140808 231.458389 -49.298302 3.882275
155.624115 231.458389 -49.298302 3.646619
169.107422 231.458389 -49.298302 3.198276
182.590698 231.458389 -49.298302 2.834738
196.074036 231.458389 -49.298302 2.671189
209.557312 231.458389 -49.298302 2.422453
223.040588 231.458389 -49.298302 2.082732
236.523926 231.458389 -49.298302 1.901519
250.007202 231.458389 -49.298302 1.519314
263.490540 231.458389 -49.298302 1.337651
276.973816 231.458389 -49.298302 1.033524
290.457092 231.458389 -49.298302 0.935639
303.940430 231.458389 -49.298302 0.000000
317.423706 231.458389 -49.298302 0.000000
330.907043 231.458389 -49.298302 0.000000
344.390320 231.458389 -49.298302 0.000000
-343.257996 217.975098 -49.298302 0.000000
-329.774689 217.975098 -49.298302 0.000000
-316.291382 217.975098 -49.298302 0.000000
-302.808105 217.975098 -49.298302 0.930205
-289.324799 217.975098 -49.298302 0.976274
-275.841492 217.975098 -49.298302 1.003758
-262.358185 217.975098 -49.298302 1.160068
-248.874893 217.975098 -49.298302 1.241688
-235.391602 217.975098 -49.298302 1.358466
-221.908295 217.975098 -49.298302 1.478812
-208.424988 217.975098 -49.298302 1.516697
-194.941696 217.975098 -49.298302 1.846105
-181.458389 217.975098 -49.298302 1.959119
-167.975098 217.975098 -49.298302 2.318294
-154.491791 217.975098 -49.298302 2.464340
-141.008499 217.975098 -49.298302 2.703114
-127.525192 217.975098 -49.298302 3.220615
-114.041885 217.975098 -49.298302 3.824014
-100.558594 217.975098 -49.298302 4.738215
-87.075287 217.975098 -49.298302 5.613227
-73.591980 217.975098 -49.298302 5.985384
-60.108704 217.975098 -49.298302 6.311480
-46.625397 217.975098 -49.298302 7.156733
-33.142090 217.975098 -49.298302 7.819871
-19.658783 217.975098 -49.298302 8.279202
-6.175476 217.975098 -49.298302 8.109505
7.307800 217.975098 -49.298302 7.337656
20.791107 217.975098 -49.298302 6.506404
34.274414 217.975098 -49.298302 6.327458
47.757721 217.975098 -49.298302 6.129865
61.240997 217.975098 -49.298302 5.713344
74.724304 217.975098 -49.298302 5.304127
88.207611 217.975098 -49.298302 4.774377
101.690918 217.975098 -49.298302 4.889980
115.174225 217.975098 -49.298302 4.597935
128.657501 217.975098 -49.298302 4.183002
142.140808 217.975098 -49.298302 3.685756
155.624115 217.975098 -49.298302 3.168532
169.107422 217.975098 -49.298302 2.802849
182.590698 217.975098 -49.298302 2.634316
196.074036 217.975098 -49.298302 2.392464
209.557312 217.975098 -49.298302 2.142994
223.040588 217.975098 -49.298302 1.873930
236.523926 217.975098 -49.298302 1.646683
250.007202 217.975098 -49.298302 1.311314
263.490540 217.975098 -49.298302 1.113041
276.973816 217.975098 -49.298302 0.988869
290.457092 217.975098 -49.298302 0.820023
303.940430 217.975098 -49.298302 0.000000
317.423706 217.975098 -49.298302 0.000000
330.907043 217.975098 -49.298302 0.000000
344.390320 217.975098 -49.298302 0.000000
-343.257996 204.491791 -49.298302 0.000000
-329.774689 204.491791 -49.298302 0.000000
-316.291382 204.491791 -49.298302 0.000000
-302.808105 204.491791 -49.298302 0.976010
-289.324799 204.491791 -49.298302 1.067273
-275.841492 204.491791 -49.298302 1.129146
-262.358185 204.491791 -49.298302 1.263073
-248.874893 204.491791 -49.298302 1.380912
-235.391602 204.491791 -49.298302 1.510489
-221.908295 204.491791 -49.298302 1.570698
-208.424988 204.491791 -49.298302 1.584232
-194.941696 204.491791 -49.298302 1.909954
-181.458389 204.491791 -49.298302 2.033748
-167.975098 204.491791 -49.298302 2.482190
-154.491791 204.491791 -49.298302 2.750295
-141.008499 204.491791 -49.298302 2.989204
-127.525192 204.491791 -49.298302 3.424871
-114.041885 204.491791 -49.298302 3.978093
-100.558594 204.491791 -49.298302 4.616223
-87.075287 204.491791 -49.298302 5.482786
-73.591980 204.491791 -49.298302 6.508253
-60.108704 204.491791 -49.298302 7.161739
-46.625397 204.491791 -49.298302 7.588932
-33.142090 204.491791 -49.298302 8.314066
-19.658783 204.491791 -49.298302 8.647373
-6.175476 204.491791 -49.298302 8.245482
7.307800 204.491791 -49.298302 7.446280
20.791107 204.491791 -49.298302 7.195944
34.274414 204.491791 -49.298302 6.809665
47.757721 204.491791 -49.298302 6.542749
61.240997 204.491791 -49.298302 6.205172
74.724304 204.491791 -49.298302 5.578720
88.207611 204.491791 -49.298302 5.551467
101.690918 204.491791 -49.298302 5.293301
115.174225 204.491791 -49.298302 4.963713
128.657501 204.491791 -49.298302 4.205737
142.140808 204.491791 -49.298302 3.495457
155.624115 204.491791 -49.298302 3.123413
169.107422 204.491791 -49.298302 2.649746
182.590698 204.491791 -49.298302 2.374770
196.074036 204.491791 -49.298302 2.117912
209.557312 204.491791 -49.298302 1.895394
223.040588 204.491791 -49.298302 1.588752
236.523926 204.491791 -49.298302 1.375745
250.007202 204.491791 -49.298302 1.166422
263.490540 204.491791 -49.298302 1.028847
276.973816 204.491791 -49.298302 0.833088
290.457092 204.491791 -49.298302 0.699091
303.940430 204.491791 -49.298302 0.000000
317.423706 204.491791 -49.298302 0.000000
330.907043 204.491791 -49.298302 0.000000
344.390320 204.491791 -49.298302 0.000000
-343.257996 191.008499 -49.298302 0.000000
-329.774689 191.008499 -49.298302 0.000000
-316.291382 191.008499 -49.298302 0.000000
-302.808105 191.008499 -49.298302 1.056728
-289.324799 191.008499 -49.298302 1.124443
-275.841492 191.008499 -49.298302 1.249058
-262.358185 191.008499 -49.298302 1.306830
-248.874893 191.008499 -49.298302 1.454247
-235.391602 191.008499 -49.298302 1.565323
-221.908295 191.008499 -49.298302 1.645361
-208.424988 191.008499 -49.298302 1.721151
-194.941696 191.008499 -49.298302 2.063411
-181.458389 191.008499 -49.298302 2.237545
-167.975098 191.008499 -49.298302 2.458260
-154.491791 191.008499 -49.298302 2.902306
-141.008499 191.008499 -49.298302 3.118797
-127.525192 191.008499 -49.298302 3.452810
-114.041885 191.008499 -49.298302 4.056217
-100.558594 191.008499 -49.298302 5.218903
-87.075287 191.008499 -49.298302 5.883562
-73.591980 191.008499 -49.298302 6.593162
-60.108704 191.008499 -49.298302 7.224041
-46.625397 191.008499 -49.298302 8.023037
-33.142090 191.008499 -49.298302 8.585040
-19.658783 191.008499 -49.298302 8.197047
-6.175476 191.008499 -49.298302 7.780227
7.307800 191.008499 -49.298302 7.026915
20.791107 191.008499 -49.298302 7.215374
34.274414 191.008499 -49.298302 7.464177
47.757721 191.008499 -49.298302 6.445551
61.240997 191.008499 -49.298302 6.008896
74.724304 191.008499 -49.298302 5.931673
88.207611 191.008499 -49.298302 5.661168
101.690918 191.008499 -49.298302 5.000233
115.174225 191.008499 -49.298302 4.255809
128.657501 191.008499 -49.298302 3.596149
142.140808 191.008499 -49.298302 2.987788
155.624115 191.008499 -49.298302 2.688219
169.107422 191.008499 -49.298302 2.344156
182.590698 191.008499 -49.298302 2.021118
196.074036 191.008499 -49.298302 1.824528
209.557312 191.008499 -49.298302 1.595035
223.040588 191.008499 -49.298302 1.340019
236.523926 191.008499 -49.298302 1.159770
250.007202 191.008499 -49.298302 1.015669
263.490540 191.008499 -49.298302 0.876067
276.973816 191.008499 -49.298302 0.689862
290.457092 191.008499 -49.298302 0.562112
303.940430 191.008499 -49.298302 0.000000
317.423706 191.008499 -49.298302 0.000000
330.907043 191.008499 -49.298302 0.000000
344.390320 191.008499 -49.298302 0.000000
-343.257996 177.525192 -49.298302 0.000000
-329.774689 177.525192 -49.298302 0.000000
-316.291382 177.525192 -49.298302 0.000000
-302.808105 177.525192 -49.298302 1.213603
-289.324799 177.525192 -49.298302 1.316822
-275.841492 177.525192 -49.298302 1.411353
-262.358185 177.525192 -49.298302 1.562502
-248.874893 177.525192 -49.298302 1.645136
-235.391602 177.525192 -49.298302 1.680035
-221.908295 177.525192 -49.298302 1.661297
-208.424988 177.525192 -49.298302 1.920451
-194.941696 177.525192 -49.298302 2.100565
-181.458389 177.525192 -49.298302 2.303821
-167.975098 177.525192 -49.298302 2.631150
-154.491791 177.525192 -49.298302 3.075529
-141.008499 177.525192 -49.298302 3.268100
-127.525192 177.525192 -49.298302 3.617327
-114.041885 177.525192 -49.298302 4.345198
-100.558594 177.525192 -49.298302 5.469291
-87.075287 177.525192 -49.298302 5.871311
-73.591980 177.525192 -49.298302 6.168622
-60.108704 177.525192 -49.298302 7.303991
-46.625397 177.525192 -49.298302 7.929348
-33.142090 177.525192 -49.298302 8.250010
-19.658783 177.525192 -49.298302 7.629230
-6.175476 177.525192 -49.298302 7.642996
7.307800 177.525192 -49.298302 7.025665
20.791107 177.525192 -49.298302 7.105153
34.274414 177.525192 -49.298302 7.482793
47.757721 177.525192 -49.298302 6.901415
61.240997 177.525192 -49.298302 6.804190
74.724304 177.525192 -49.298302 6.033955
88.207611 177.525192 -49.298302 5.272337
101.690918 177.525192 -49.298302 4.907341
115.174225 177.525192 -49.298302 3.825251
128.657501 177.525192 -49.298302 3.134549
142.140808 177.525192 -49.298302 2.470373
155.624115 177.525192 -49.298302 2.162245
169.107422 177.525192 -49.298302 1.820616
182.590698 177.525192 -49.298302 1.508045
196.074036 177.525192 -49.298302 1.334393
209.557312 177.525192 -49.298302 1.254620
223.040588 177.525192 -49.298302 1.176087
236.523926 177.525192 -49.298302 1.000000
250.007202 177.525192 -49.298302 0.822344
263.490540 177.525192 -49.298302 0.716803
276.973816 177.525192 -49.298302 0.577564
290.457092 177.525192 -49.298302 0.480700
303.940430 177.525192 -49.298302 0.000000
317.423706 177.525192 -49.298302 0.000000
330.907043 177.525192 -49.298302 0.000000
344.390320 177.525192 -49.298302 0.000000
-343.257996 164.041885 -49.298302 0.000000
-329.774689 164.041885 -49.298302 0.000000
-316.291382 164.041885 -49.298302 0.000000
-302.808105 164.041885 -49.298302 1.454128
-289.324799 164.041885 -49.298302 1.531826
-275.841492 164.041885 -49.298302 1.580724
-262.358185 164.041885 -49.298302 1.716816
-248.874893 164.041885 -49.298302 1.840463
-235.391602 164.041885 -49.298302 1.794391
-221.908295 164.041885 -49.298302 1.771030
-208.424988 164.041885 -49.298302 1.938168
-194.941696 164.041885 -49.298302 2.140928
-181.458389 164.041885 -49.298302 2.480025
-167.975098 164.041885 -49.298302 2.821186
-154.491791 164.041885 -49.298302 3.239482
-141.008499 164.041885 -49.298302 3.774116
-127.525192 164.041885 -49.298302 4.028390
-114.041885 164.041885 -49.298302 4.545841
-100.558594 164.041885 -49.298302 5.402166
-87.075287 164.041885 -49.298302 6.296785
-73.591980 164.041885 -49.298302 7.003099
-60.108704 164.041885 -49.298302 7.910411
-46.625397 164.041885 -49.298302 8.706911
-33.142090 164.041885 -49.298302 8.691289
-19.658783 164.041885 -49.298302 8.007583
-6.175476 164.041885 -49.298302 7.323762
7.307800 164.041885 -49.298302 7.380626
20.791107 164.041885 -49.298302 7.604954
34.274414 164.041885 -49.298302 7.225740
47.757721 164.041885 -49.298302 6.867620
61.240997 164.041885 -49.298302 6.996691
74.724304 164.041885 -49.298302 6.091627
88.207611 164.041885 -49.298302 4.676836
101.690918 164.041885 -49.298302 4.085243
115.174225 164.041885 -49.298302 3.233804
128.657501 164.041885 -49.298302 2.583123
142.140808 164.041885 -49.298302 2.096054
155.624115 164.041885 -49.298302 1.766632
169.107422 164.041885 -49.298302 1.464774
182.590698 164.041885 -49.298302 1.246671
196.074036 164.041885 -49.298302 1.046196
209.557312 164.041885 -49.298302 1.040024
223.040588 164.041885 -49.298302 0.970424
236.523926 164.041885 -49.298302 0.831580
250.007202 164.041885 -49.298302 0.681917
263.490540 164.041885 -49.298302 0.605754
276.973816 164.041885 -49.298302 0.450749
290.457092 164.041885 -49.298302 0.383948
303.940430 164.041885 -49.298302 0.000000
317.423706 164.041885 -49.298302 0.000000
330.907043 164.041885 -49.298302 0.000000
344.390320 164.041885 -49.298302 0.000000
-343.257996 150.558594 -49.298302 0.000000
-329.774689 150.558594 -49.298302 0.000000
-316.291382 150.558594 -49.298302 0.000000
-302.808105 150.558594 -49.298302 1.649426
-289.324799 150.558594 -49.298302 1.783275
-275.841492 150.558594 -49.298302 1.860597
-262.358185 150.558594 -49.298302 1.932717
-248.874893 150.558594 -49.298302 1.936286
-235.391602 150.558594 -49.298302 1.901619
-221.908295 150.558594 -49.298302 1.963175
-208.424988 150.558594 -49.298302 2.185419
-194.941696 150.558594 -49.298302 2.367031
-181.458389 150.558594 -49.298302 2.632025
-167.975098 150.558594 -49.298302 2.963840
-154.491791 150.558594 -49.298302 3.305477
-141.008499 150.558594 -49.298302 3.808679
-127.525192 150.558594 -49.298302 4.190324
-114.041885 150.558594 -49.298302 4.546906
-100.558594 150.558594 -49.298302 5.495572
-87.075287 150.558594 -49.298302 6.630289
-73.591980 150.558594 -49.298302 7.629205
-60.108704 150.558594 -49.298302 8.297705
-46.625397 150.558594 -49.298302 8.901370
-33.142090 150.558594 -49.298302 9.152349
-19.658783 150.558594 -49.298302 8.737471
-6.175476 150.558594 -49.298302 8.283275
7.307800 150.558594 -49.298302 7.914737
20.791107 150.558594 -49.298302 8.145632
34.274414 150.558594 -49.298302 8.020212
47.757721 150.558594 -49.298302 6.978971
61.240997 150.558594 -49.298302 6.655150
74.724304 150.558594 -49.298302 5.798422
88.207611 150.558594 -49.298302 4.504188
101.690918 150.558594 -49.298302 3.700639
115.174225 150.558594 -49.298302 2.993897
128.657501 150.558594 -49.298302 2.268200
142.140808 150.558594 -49.298302 1.826968
155.624115 150.558594 -49.298302 1.572449
169.107422 150.558594 -49.298302 1.271371
182.590698 150.558594 -49.298302 1.031139
196.074036 150.558594 -49.298302 0.930123
209.557312 150.558594 -49.298302 0.892410
223.040588 150.558594 -49.298302 0.801120
236.523926 150.558594 -49.298302 0.634204
250.007202 150.558594 -49.298302 0.553715
263.490540 150.558594 -49.298302 0.464070
276.973816 150.558594 -49.298302 0.393691
290.457092 150.558594 -49.298302 0.315262
303.940430 150.558594 -49.298302 0.000000
317.423706 150.558594 -49.298302 0.000000
330.907043 150.558594 -49.298302 0.000000
344.390320 150.558594 -49.298302 0.000000
-343.257996 137.075287 -49.298302 0.000000
-329.774689 137.075287 -49.298302 0.000000
-316.291382 137.075287 -49.298302 0.000000
-302.808105 137.075287 -49.298302 1.909201
-289.324799 137.075287 -49.298302 2.059908
-275.841492 137.075287 -49.298302 2.016469
-262.358185 137.075287 -49.298302 2.081532
-248.874893 137.075287 -49.298302 2.177005
-235.391602 137.075287 -49.298302 2.126584
-221.908295 137.075287 -49.298302 2.400980
-208.424988 137.075287 -49.298302 2.475608
-194.941696 137.075287 -49.298302 2.616614
-181.458389 137.075287 -49.298302 2.990698
-167.975098 137.075287 -49.298302 3.111858
-154.491791 137.075287 -49.298302 3.187242
-141.008499 137.075287 -49.298302 3.886155
-127.525192 137.075287 -49.298302 4.382344
-114.041885 137.075287 -49.298302 5.009375
-100.558594 137.075287 -49.298302 5.753797
-87.075287 137.075287 -49.298302 6.585781
-73.591980 137.075287 -49.298302 8.055789
-60.108704 137.075287 -49.298302 8.762730
-46.625397 137.075287 -49.298302 9.198604
-33.142090 137.075287 -49.298302 9.729790
-19.658783 137.075287 -49.298302 9.665822
-6.175476 137.075287 -49.298302 9.243505
7.307800 137.075287 -49.298302 8.675973
20.791107 137.075287 -49.298302 8.532385
34.274414 137.075287 -49.298302 7.918847
47.757721 137.075287 -49.298302 6.921530
61.240997 137.075287 -49.298302 5.856558
74.724304 137.075287 -49.298302 5.524589
88.207611 137.075287 -49.298302 4.533312
101.690918 137.075287 -49.298302 3.405703
115.174225 137.075287 -49.298302 2.735937
128.657501 137.075287 -49.298302 2.045197
142.140808 137.075287 -49.298302 1.831980
155.624115 137.075287 -49.298302 1.411409
169.107422 137.075287 -49.298302 1.117998
182.590698 137.075287 -49.298302 0.915929
196.074036 137.075287 -49.298302 0.769365
209.557312 137.075287 -49.298302 0.766235
223.040588 137.075287 -49.298302 0.656839
236.523926 137.075287 -49.298302 0.574727
250.007202 137.075287 -49.298302 0.469016
263.490540 137.075287 -49.298302 0.367429
276.973816 137.075287 -49.298302 0.305780
290.457092 137.075287 -49.298302 0.283514
303.940430 137.075287 -49.298302 0.000000
317.423706 137.075287 -49.298302 0.000000
330.907043 137.075287 -49.298302 0.000000
344.390320 137.075287 -49.298302 0.000000
-343.257996 123.591980 -49.298302 0.000000
-329.774689 123.591980 -49.298302 0.000000
-316.291382 123.591980 -49.298302 0.000000
-302.808105 123.591980 -49.298302 0.000000
-289.324799 123.591980 -49.298302 2.242030
-275.841492 123.591980 -49.298302 2.335549
-262.358185 123.591980 -49.298302 2.390413
-248.874893 123.591980 -49.298302 2.257801
-235.391602 123.591980 -49.298302 2.384391
-221.908295 123.591980 -49.298302 2.519745
-208.424988 123.591980 -49.298302 2.581260
-194.941696 123.591980 -49.298302 3.002261
-181.458389 123.591980 -49.298302 3.118981
-167.975098 123.591980 -49.298302 3.369552
-154.491791 123.591980 -49.298302 3.479078
-141.008499 123.591980 -49.298302 4.105226
-127.525192 123.591980 -49.298302 4.960620
-114.041885 123.591980 -49.298302 5.559787
-100.558594 123.591980 -49.298302 5.982100
-87.075287 123.591980 -49.298302 6.815708
-73.591980 123.591980 -49.298302 8.171658
-60.108704 123.591980 -49.298302 8.973913
-46.625397 123.591980 -49.298302 9.377129
-33.142090 123.591980 -49.298302 9.621963
-19.658783 123.591980 -49.298302 8.567739
-6.175476 123.591980 -49.298302 8.883554
7.307800 123.591980 -49.298302 8.873678
20.791107 123.591980 -49.298302 8.723586
34.274414 123.591980 -49.298302 7.897080
47.757721 123.591980 -49.298302 6.655610
61.240997 123.591980 -49.298302 5.805076
74.724304 123.591980 -49.298302 5.143263
88.207611 123.591980 -49.298302 4.521651
101.690918 123.591980 -49.298302 3.472402
115.174225 123.591980 -49.298302 2.595170
128.657501 123.591980 -49.298302 1.968851
142.140808 123.591980 -49.298302 1.700100
155.624115 123.591980 -49.298302 1.397865
169.107422 123.591980 -49.298302 1.085538
182.590698 123.591980 -49.298302 0.848221
196.074036 123.591980 -49.298302 0.747254
209.557312 123.591980 -49.298302 0.708779
223.040588 123.591980 -49.298302 0.590577
236.523926 123.591980 -49.298302 0.528313
250.007202 123.591980 -49.298302 0.450530
263.490540 123.591980 -49.298302 0.328041
276.973816 123.591980 -49.298302 0.266671
290.457092 123.591980 -49.298302 0.249289
303.940430 123.591980 -49.298302 0.000000
317.423706 123.591980 -49.298302 0.000000
330.907043 123.591980 -49.298302 0.000000
344.390320 123.591980 -49.298302 0.000000
-343.257996 110.108704 -49.298302 0.000000
-329.774689 110.108704 -49.298302 0.000000
-316.291382 110.108704 -49.298302 0.000000
-302.808105 110.108704 -49.298302 0.000000
-289.324799 110.108704 -49.298302 2.369997
-275.841492 110.108704 -49.298302 2.629253
-262.358185 110.108704 -49.298302 2.532956
-248.874893 110.108704 -49.298302 2.489589
-235.391602 110.108704 -49.298302 2.505713
-221.908295 110.108704 -49.298302 2.791909
-208.424988 110.108704 -49.298302 2.929296
-194.941696 110.108704 -49.298302 3.505671
-181.458389 110.108704 -49.298302 3.536008
-167.975098 110.108704 -49.298302 3.847474
-154.491791 110.108704 -49.298302 4.226487
-141.008499 110.108704 -49.298302 4.293105
-127.525192 110.108704 -49.298302 5.516230
-114.041885 110.108704 -49.298302 6.049677
-100.558594 110.108704 -49.298302 7.025158
-87.075287 110.108704 -49.298302 7.318750
-73.591980 110.108704 -49.298302 7.796390
-60.108704 110.108704 -49.298302 8.430938
-46.625397 110.108704 -49.298302 9.187079
-33.142090 110.108704 -49.298302 9.236827
-19.658783 110.108704 -49.298302 8.961143
-6.175476 110.108704 -49.298302 8.318822
7.307800 110.108704 -49.298302 8.699593
20.791107 110.108704 -49.298302 8.159725
34.274414 110.108704 -49.298302 7.520074
47.757721 110.108704 -49.298302 6.657431
61.240997 110.108704 -49.298302 5.886764
74.724304 110.108704 -49.298302 5.340029
88.207611 110.108704 -49.298302 4.912973
101.690918 110.108704 -49.298302 3.684266
115.174225 110.108704 -49.298302 2.953057
128.657501 110.108704 -49.298302 2.181211
142.140808 110.108704 -49.298302 1.701371
155.624115 110.108704 -49.298302 1.390470
169.107422 110.108704 -49.298302 0.994623
182.590698 110.108704 -49.298302 0.890596
196.074036 110.108704 -49.298302 0.784694
209.557312 110.108704 -49.298302 0.672866
223.040588 110.108704 -49.298302 0.555367
236.523926 110.108704 -49.298302 0.482301
250.007202 110.108704 -49.298302 0.403935
263.490540 110.108704 -49.298302 0.304859
276.973816 110.108704 -49.298302 0.242458
290.457092 110.108704 -49.298302 0.221151
303.940430 110.108704 -49.298302 0.000000
317.423706 110.108704 -49.298302 0.000000
330.907043 110.108704 -49.298302 0.000000
344.390320 110.108704 -49.298302 0.000000
-343.257996 96.625397 -49.298302 0.000000
-329.774689 96.625397 -49.298302 0.000000
-316.291382 96.625397 -49.298302 0.000000
-302.808105 96.625397 -49.298302 0.000000
-289.324799 96.625397 -49.298302 2.276015
-275.841492 96.625397 -49.298302 2.403489
-262.358185 96.625397 -49.298302 2.705170
-248.874893 96.625397 -49.298302 2.676786
-235.391602 96.625397 -49.298302 2.660633
-221.908295 96.625397 -49.298302 2.853804
-208.424988 96.625397 -49.298302 3.225741
-194.941696 96.625397 -49.298302 3.636696
-181.458389 96.625397 -49.298302 3.858693
-167.975098 96.625397 -49.298302 4.079086
-154.491791 96.625397 -49.298302 4.556797
-141.008499 96.625397 -49.298302 4.968791
-127.525192 96.625397 -49.298302 5.854838
-114.041885 96.625397 -49.298302 6.267934
-100.558594 96.625397 -49.298302 7.329716
-87.075287 96.625397 -49.298302 7.631372
-73.591980 96.625397 -49.298302 7.354018
-60.108704 96.625397 -49.298302 8.303077
-46.625397 96.625397 -49.298302 8.442306
-33.142090 96.625397 -49.298302 8.262628
-19.658783 96.625397 -49.298302 8.380335
-6.175476 96.625397 -49.298302 8.159451
7.307800 96.625397 -49.298302 7.894396
20.791107 96.625397 -49.298302 7.454203
34.274414 96.625397 -49.298302 7.338514
47.757721 96.625397 -49.298302 7.008158
61.240997 96.625397 -49.298302 6.577483
74.724304 96.625397 -49.298302 5.942707
88.207611 96.625397 -49.298302 5.576181
101.690918 96.625397 -49.298302 4.381588
115.174225 96.625397 -49.298302 3.717611
128.657501 96.625397 -49.298302 2.646434
142.140808 96.625397 -49.298302 2.069920
155.624115 96.625397 -49.298302 1.566937
169.107422 96.625397 -49.298302 1.179078
182.590698 96.625397 -49.298302 0.991913
196.074036 96.625397 -49.298302 0.854540
209.557312 96.625397 -49.298302 0.711223
223.040588 96.625397 -49.298302 0.581263
236.523926 96.625397 -49.298302 0.477451
250.007202 96.625397 -49.298302 0.383359
263.490540 96.625397 -49.298302 0.289460
276.973816 96.625397 -49.298302 0.241389
290.457092 96.625397 -49.298302 0.201772
303.940430 96.625397 -49.298302 0.000000
317.423706 96.625397 -49.298302 0.000000
330.907043 96.625397 -49.298302 0.000000
344.390320 96.625397 -49.298302 0.000000
-343.257996 83.142090 -49.298302 0.000000
-329.774689 83.142090 -49.298302 0.000000
-316.291382 83.142090 -49.298302 0.000000
-302.808105 83.142090 -49.298302 0.000000
-289.324799 83.142090 -49.298302 2.302033
-275.841492 83.142090 -49.298302 2.579987
-262.358185 83.142090 -49.298302 2.708136
-248.874893 83.142090 -49.298302 2.680697
-235.391602 83.142090 -49.298302 2.911146
-221.908295 83.142090 -49.298302 3.054471
-208.424988 83.142090 -49.298302 3.307334
-194.941696 83.142090 -49.298302 3.628071
-181.458389 83.142090 -49.298302 4.051457
-167.975098 83.142090 -49.298302 4.355364
-154.491791 83.142090 -49.298302 5.006377
-141.008499 83.142090 -49.298302 5.657144
-127.525192 83.142090 -49.298302 6.393935
-114.041885 83.142090 -49.298302 6.853209
-100.558594 83.142090 -49.298302 6.998199
-87.075287 83.142090 -49.298302 7.347027
-73.591980 83.142090 -49.298302 7.558466
-60.108704 83.142090 -49.298302 7.683569
-46.625397 83.142090 -49.298302 7.813211
-33.142090 83.142090 -49.298302 8.087711
-19.658783 83.142090 -49.298302 7.638914
-6.175476 83.142090 -49.298302 7.064864
7.307800 83.142090 -49.298302 6.984149
20.791107 83.142090 -49.298302 7.081662
34.274414 83.142090 -49.298302 7.734451
47.757721 83.142090 -49.298302 7.013577
61.240997 83.142090 -49.298302 6.707014
74.724304 83.142090 -49.298302 6.054317
88.207611 83.142090 -49.298302 5.647109
101.690918 83.142090 -49.298302 4.578984
115.174225 83.142090 -49.298302 4.009519
128.657501 83.142090 -49.298302 2.905550
142.140808 83.142090 -49.298302 2.458655
155.624115 83.142090 -49.298302 1.927554
169.107422 83.142090 -49.298302 1.561034
182.590698 83.142090 -49.298302 1.475872
196.074036 83.142090 -49.298302 1.067540
209.557312 83.142090 -49.298302 0.838860
223.040588 83.142090 -49.298302 0.680508
236.523926 83.142090 -49.298302 0.505293
250.007202 83.142090 -49.298302 0.412036
263.490540 83.142090 -49.298302 0.325111
276.973816 83.142090 -49.298302 0.265549
290.457092 83.142090 -49.298302 0.210676
303.940430 83.142090 -49.298302 0.000000
317.423706 83.142090 -49.298302 0.000000
330.907043 83.142090 -49.298302 0.000000
344.390320 83.142090 -49.298302 0.000000
-343.257996 69.658783 -49.298302 0.000000
-329.774689 69.658783 -49.298302 0.000000
-316.291382 69.658783 -49.298302 0.000000
-302.808105 69.658783 -49.298302 0.000000
-289.324799 69.658783 -49.298302 2.327088
-275.841492 69.658783 -49.298302 2.697206
-262.358185 69.658783 -49.298302 2.528965
-248.874893 69.658783 -49.298302 2.583505
-235.391602 69.658783 -49.298302 2.758415
-221.908295 69.658783 -49.298302 2.938015
-208.424988 69.658783 -49.298302 3.356893
-194.941696 69.658783 -49.298302 3.734480
-181.458389 69.658783 -49.298302 4.207710
-167.975098 69.658783 -49.298302 4.961903
-154.491791 69.658783 -49.298302 5.630227
-141.008499 69.658783 -49.298302 6.405780
-127.525192 69.658783 -49.298302 7.060920
-114.041885 69.658783 -49.298302 7.520329
-100.558594 69.658783 -49.298302 7.187757
-87.075287 69.658783 -49.298302 7.382180
-73.591980 69.658783 -49.298302 7.752726
-60.108704 69.658783 -49.298302 7.667930
-46.625397 69.658783 -49.298302 7.009072
-33.142090 69.658783 -49.298302 7.546824
-19.658783 69.658783 -49.298302 8.062043
-6.175476 69.658783 -49.298302 7.482841
7.307800 69.658783 -49.298302 7.073954
20.791107 69.658783 -49.298302 6.765740
34.274414 69.658783 -49.298302 7.701354
47.757721 69.658783 -49.298302 7.252392
61.240997 69.658783 -49.298302 7.166867
74.724304 69.658783 -49.298302 6.542948
88.207611 69.658783 -49.298302 6.035273
101.690918 69.658783 -49.298302 4.867877
115.174225 69.658783 -49.298302 3.862424
128.657501 69.658783 -49.298302 3.520797
142.140808 69.658783 -49.298302 2.908687
155.624115 69.658783 -49.298302 2.507238
169.107422 69.658783 -49.298302 2.162953
182.590698 69.658783 -49.298302 1.932777
196.074036 69.658783 -49.298302 1.427469
209.557312 69.658783 -49.298302 0.994563
223.040588 69.658783 -49.298302 0.754553
236.523926 69.658783 -49.298302 0.621129
250.007202 69.658783 -49.298302 0.519202
263.490540 69.658783 -49.298302 0.374675
276.973816 69.658783 -49.298302 0.287145
290.457092 69.658783 -49.298302 0.252287
303.940430 69.658783 -49.298302 0.000000
317.423706 69.658783 -49.298302 0.000000
330.907043 69.658783 -49.298302 0.000000
344.390320 69.658783 -49.298302 0.000000
-343.257996 56.175476 -49.298302 0.000000
-329.774689 56.175476 -49.298302 0.000000
-316.291382 56.175476 -49.298302 0.000000
-302.808105 56.175476 -49.298302 0.000000
-289.324799 56.175476 -49.298302 2.122938
-275.841492 56.175476 -49.298302 2.496788
-262.358185 56.175476 -49.298302 2.339724
-248.874893 56.175476 -49.298302 2.308188
-235.391602 56.175476 -49.298302 2.630616
-221.908295 56.175476 -49.298302 2.861858
-208.424988 56.175476 -49.298302 3.523824
-194.941696 56.175476 -49.298302 4.015161
-181.458389 56.175476 -49.298302 4.639761
-167.975098 56.175476 -49.298302 5.544618
-154.491791 56.175476 -49.298302 6.018717
-141.008499 56.175476 -49.298302 6.988160
-127.525192 56.175476 -49.298302 7.302649
-114.041885 56.175476 -49.298302 7.454171
-100.558594 56.175476 -49.298302 7.470594
-87.075287 56.175476 -49.298302 8.050386
-73.591980 56.175476 -49.298302 7.747357
-60.108704 56.175476 -49.298302 7.574043
-46.625397 56.175476 -49.298302 7.005979
-33.142090 56.175476 -49.298302 7.336009
-19.658783 56.175476 -49.298302 7.329810
-6.175476 56.175476 -49.298302 7.016162
7.307800 56.175476 -49.298302 7.079731
20.791107 56.175476 -49.298302 7.470583
34.274414 56.175476 -49.298302 7.699406
47.757721 56.175476 -49.298302 7.223109
61.240997 56.175476 -49.298302 7.261453
74.724304 56.175476 -49.298302 6.743128
88.207611 56.175476 -49.298302 6.285315
101.690918 56.175476 -49.298302 5.087835
115.174225 56.175476 -49.298302 4.061861
128.657501 56.175476 -49.298302 3.462436
142.140808 56.175476 -49.298302 3.172249
155.624115 56.175476 -49.298302 2.981635
169.107422 56.175476 -49.298302 2.786999
182.590698 56.175476 -49.298302 2.376546
196.074036 56.175476 -49.298302 1.806657
209.557312 56.175476 -49.298302 1.420567
223.040588 56.175476 -49.298302 1.083542
236.523926 56.175476 -49.298302 0.823214
250.007202 56.175476 -49.298302 0.689538
263.490540 56.175476 -49.298302 0.463094
276.973816 56.175476 -49.298302 0.361129
290.457092 56.175476 -49.298302 0.330678
303.940430 56.175476 -49.298302 0.000000
317.423706 56.175476 -49.298302 0.000000
330.907043 56.175476 -49.298302 0.000000
344.390320 56.175476 -49.298302 0.000000
-343.257996 42.692200 -49.298302 0.000000
-329.774689 42.692200 -49.298302 0.000000
-316.291382 42.692200 -49.298302 0.000000
-302.808105 42.692200 -49.298302 0.000000
-289.324799 42.692200 -49.298302 1.853145
-275.841492 42.692200 -49.298302 2.114508
-262.358185 42.692200 -49.298302 1.969117
-248.874893 42.692200 -49.298302 2.060333
-235.391602 42.692200 -49.298302 2.371347
-221.908295 42.692200 -49.298302 2.749910
-208.424988 42.692200 -49.298302 3.510517
-194.941696 42.692200 -49.298302 4.246726
-181.458389 42.692200 -49.298302 5.024892
-167.975098 42.692200 -49.298302 5.845138
-154.491791 42.692200 -49.298302 6.658755
-141.008499 42.692200 -49.298302 7.174798
-127.525192 42.692200 -49.298302 7.642274
-114.041885 42.692200 -49.298302 7.865523
-100.558594 42.692200 -49.298302 7.828044
-87.075287 42.692200 -49.298302 7.951609
-73.591980 42.692200 -49.298302 7.644560
-60.108704 42.692200 -49.298302 7.662520
-46.625397 42.692200 -49.298302 7.156744
-33.142090 42.692200 -49.298302 7.251828
-19.658783 42.692200 -49.298302 7.279063
-6.175476 42.692200 -49.298302 7.158274
7.307800 42.692200 -49.298302 7.070197
20.791107 42.692200 -49.298302 7.280337
34.274414 42.692200 -49.298302 7.274375
47.757721 42.692200 -49.298302 6.710267
61.240997 42.692200 -49.298302 6.858350
74.724304 42.692200 -49.298302 6.410452
88.207611 42.692200 -49.298302 5.710657
101.690918 42.692200 -49.298302 4.604954
115.174225 42.692200 -49.298302 4.008536
128.657501 42.692200 -49.298302 3.679696
142.140808 42.692200 -49.298302 3.679708
155.624115 42.692200 -49.298302 3.424385
169.107422 42.692200 -49.298302 2.992133
182.590698 42.692200 -49.298302 2.832755
196.074036 42.692200 -49.298302 2.328476
209.557312 42.692200 -49.298302 1.886839
223.040588 42.692200 -49.298302 1.320093
236.523926 42.692200 -49.298302 1.189660
250.007202 42.692200 -49.298302 0.799727
263.490540 42.692200 -49.298302 0.651200
276.973816 42.692200 -49.298302 0.464782
290.457092 42.692200 -49.298302 0.406323
303.940430 42.692200 -49.298302 0.000000
317.423706 42.692200 -49.298302 0.000000
330.907043 42.692200 -49.298302 0.000000
344.390320 42.692200 -49.298302 0.000000
-343.257996 29.208893 -49.298302 0.000000
-329.774689 29.208893 -49.298302 0.000000
-316.291382 29.208893 -49.298302 0.000000
-302.808105 29.208893 -49.298302 0.000000
-289.324799 29.208893 -49.298302 1.591060
-275.841492 29.208893 -49.298302 1.718830
-262.358185 29.208893 -49.298302 1.681044
-248.874893 29.208893 -49.298302 2.022455
-235.391602 29.208893 -49.298302 2.346814
-221.908295 29.208893 -49.298302 2.951380
-208.424988 29.208893 -49.298302 3.692173
-194.941696 29.208893 -49.298302 4.718962
-181.458389 29.208893 -49.298302 5.358545
-167.975098 29.208893 -49.298302 6.296645
-154.491791 29.208893 -49.298302 7.005128
-141.008499 29.208893 -49.298302 7.492738
-127.525192 29.208893 -49.298302 8.154356
-114.041885 29.208893 -49.298302 8.225478
-100.558594 29.208893 -49.298302 8.425069
-87.075287 29.208893 -49.298302 7.886814
-73.591980 29.208893 -49.298302 7.164838
-60.108704 29.208893 -49.298302 7.522183
-46.625397 29.208893 -49.298302 7.346990
-33.142090 29.208893 -49.298302 7.025038
-19.658783 29.208893 -49.298302 6.709439
-6.175476 29.208893 -49.298302 6.503996
7.307800 29.208893 -49.298302 6.666376
20.791107 29.208893 -49.298302 6.800207
34.274414 29.208893 -49.298302 6.101309
47.757721 29.208893 -49.298302 5.712639
61.240997 29.208893 -49.298302 6.350426
74.724304 29.208893 -49.298302 5.767504
88.207611 29.208893 -49.298302 4.997792
101.690918 29.208893 -49.298302 4.378029
115.174225 29.208893 -49.298302 3.533769
128.657501 29.208893 -49.298302 3.396456
142.140808 29.208893 -49.298302 3.597845
155.624115 29.208893 -49.298302 3.467828
169.107422 29.208893 -49.298302 3.480634
182.590698 29.208893 -49.298302 3.216686
196.074036 29.208893 -49.298302 2.847965
209.557312 29.208893 -49.298302 2.299531
223.040588 29.208893 -49.298302 1.809439
236.523926 29.208893 -49.298302 1.452150
250.007202 29.208893 -49.298302 1.075068
263.490540 29.208893 -49.298302 0.868885
276.973816 29.208893 -49.298302 0.591206
290.457092 29.208893 -49.298302 0.485308
303.940430 29.208893 -49.298302 0.000000
317.423706 29.208893 -49.298302 0.000000
330.907043 29.208893 -49.298302 0.000000
344.390320 29.208893 -49.298302 0.000000
-343.257996 15.725586 -49.298302 0.000000
-329.774689 15.725586 -49.298302 0.000000
-316.291382 15.725586 -49.298302 0.000000
-302.808105 15.725586 -49.298302 0.000000
-289.324799 15.725586 -49.298302 1.212654
-275.841492 15.725586 -49.298302 1.348492
-262.358185 15.725586 -49.298302 1.552327
-248.874893 15.725586 -49.298302 1.967536
-235.391602 15.725586 -49.298302 2.172746
-221.908295 15.725586 -49.298302 2.903800
-208.424988 15.725586 -49.298302 3.735724
-194.941696 15.725586 -49.298302 4.907082
-181.458389 15.725586 -49.298302 5.651335
-167.975098 15.725586 -49.298302 6.345158
-154.491791 15.725586 -49.298302 7.498337
-141.008499 15.725586 -49.298302 7.779875
-127.525192 15.725586 -49.298302 8.359182
-114.041885 15.725586 -49.298302 8.034864
-100.558594 15.725586 -49.298302 8.268814
-87.075287 15.725586 -49.298302 7.749732
-73.591980 15.725586 -49.298302 7.288176
-60.108704 15.725586 -49.298302 7.259317
-46.625397 15.725586 -49.298302 6.974709
-33.142090 15.725586 -49.298302 6.512058
-19.658783 15.725586 -49.298302 6.611351
-6.175476 15.725586 -49.298302 6.018510
7.307800 15.725586 -49.298302 6.165108
20.791107 15.725586 -49.298302 5.804133
34.274414 15.725586 -49.298302 5.669954
47.757721 15.725586 -49.298302 5.476959
61.240997 15.725586 -49.298302 5.748002
74.724304 15.725586 -49.298302 5.287457
88.207611 15.725586 -49.298302 4.358355
101.690918 15.725586 -49.298302 3.704431
115.174225 15.725586 -49.298302 3.280836
128.657501 15.725586 -49.298302 3.243773
142.140808 15.725586 -49.298302 3.443990
155.624115 15.725586 -49.298302 3.353518
169.107422 15.725586 -49.298302 3.454353
182.590698 15.725586 -49.298302 3.399755
196.074036 15.725586 -49.298302 3.195275
209.557312 15.725586 -49.298302 2.642855
223.040588 15.725586 -49.298302 2.219356
236.523926 15.725586 -49.298302 1.704975
250.007202 15.725586 -49.298302 1.399416
263.490540 15.725586 -49.298302 1.123471
276.973816 15.725586 -49.298302 0.783099
290.457092 15.725586 -49.298302 0.584668
303.940430 15.725586 -49.298302 0.000000
317.423706 15.725586 -49.298302 0.000000
330.907043 15.725586 -49.298302 0.000000
344.390320 15.725586 -49.298302 0.000000
-343.257996 2.242279 -49.298302 0.000000
-329.774689 2.242279 -49.298302 0.000000
-316.291382 2.242279 -49.298302 0.000000
-302.808105 2.242279 -49.298302 0.000000
-289.324799 2.242279 -49.298302 1.107783
-275.841492 2.242279 -49.298302 1.192796
-262.358185 2.242279 -49.298302 1.406607
-248.874893 2.242279 -49.298302 1.796755
-235.391602 2.242279 -49.298302 2.219771
-221.908295 2.242279 -49.298302 3.069170
-208.424988 2.242279 -49.298302 3.783415
-194.941696 2.242279 -49.298302 4.627214
-181.458389 2.242279 -49.298302 5.511345
-167.975098 2.242279 -49.298302 6.480242
-154.491791 2.242279 -49.298302 6.960146
-141.008499 2.242279 -49.298302 8.267496
-127.525192 2.242279 -49.298302 8.762307
-114.041885 2.242279 -49.298302 8.249094
-100.558594 2.242279 -49.298302 7.656907
-87.075287 2.242279 -49.298302 7.547319
-73.591980 2.242279 -49.298302 7.027267
-60.108704 2.242279 -49.298302 7.314604
-46.625397 2.242279 -49.298302 6.861580
-33.142090 2.242279 -49.298302 6.176171
-19.658783 2.242279 -49.298302 5.984030
-6.175476 2.242279 -49.298302 5.556345
7.307800 2.242279 -49.298302 5.497694
20.791107 2.242279 -49.298302 5.330694
34.274414 2.242279 -49.298302 5.019655
47.757721 2.242279 -49.298302 4.521507
61.240997 2.242279 -49.298302 4.965867
74.724304 2.242279 -49.298302 4.747536
88.207611 2.242279 -49.298302 3.911469
101.690918 2.242279 -49.298302 3.268082
115.174225 2.242279 -49.298302 3.060362
128.657501 2.242279 -49.298302 3.051905
142.140808 2.242279 -49.298302 3.180275
155.624115 2.242279 -49.298302 3.214598
169.107422 2.242279 -49.298302 3.349372
182.590698 2.242279 -49.298302 3.456237
196.074036 2.242279 -49.298302 3.439963
209.557312 2.242279 -49.298302 3.033215
223.040588 2.242279 -49.298302 2.633951
236.523926 2.242279 -49.298302 2.093184
250.007202 2.242279 -49.298302 1.647274
263.490540 2.242279 -49.298302 1.410746
276.973816 2.242279 -49.298302 1.097082
290.457092 2.242279 -49.298302 0.787269
303.940430 2.242279 -49.298302 0.000000
317.423706 2.242279 -49.298302 0.000000
330.907043 2.242279 -49.298302 0.000000
344.390320 2.242279 -49.298302 0.000000
-343.257996 -11.240997 -49.298302 0.000000
-329.774689 -11.240997 -49.298302 0.000000
-316.291382 -11.240997 -49.298302 0.000000
-302.808105 -11.240997 -49.298302 0.000000
-289.324799 -11.240997 -49.298302 0.874789
-275.841492 -11.240997 -49.298302 0.935393
-262.358185 -11.240997 -49.298302 1.100215
-248.874893 -11.240997 -49.298302 1.582847
-235.391602 -11.240997 -49.298302 2.241815
-221.908295 -11.240997 -49.298302 2.998698
-208.424988 -11.240997 -49.298302 3.963430
-194.941696 -11.240997 -49.298302 5.201174
-181.458389 -11.240997 -49.298302 6.395326
-167.975098 -11.240997 -49.298302 6.954763
-154.491791 -11.240997 -49.298302 7.822907
-141.008499 -11.240997 -49.298302 8.132507
-127.525192 -11.240997 -49.298302 8.284317
-114.041885 -11.240997 -49.298302 8.825016
-100.558594 -11.240997 -49.298302 9.311750
-87.075287 -11.240997 -49.298302 7.934904
-73.591980 -11.240997 -49.298302 7.109221
-60.108704 -11.240997 -49.298302 6.753676
-46.625397 -11.240997 -49.298302 6.603569
-33.142090 -11.240997 -49.298302 6.571054
-19.658783 -11.240997 -49.298302 6.122741
-6.175476 -11.240997 -49.298302 5.929840
7.307800 -11.240997 -49.298302 5.467739
20.791107 -11.240997 -49.298302 5.262529
34.274414 -11.240997 -49.298302 4.593481
47.757721 -11.240997 -49.298302 4.116887
61.240997 -11.240997 -49.298302 4.594496
74.724304 -11.240997 -49.298302 4.094326
88.207611 -11.240997 -49.298302 3.706967
101.690918 -11.240997 -49.298302 3.350891
115.174225 -11.240997 -49.298302 2.938005
128.657501 -11.240997 -49.298302 2.967955
142.140808 -11.240997 -49.298302 3.002573
155.624115 -11.240997 -49.298302 3.072011
169.107422 -11.240997 -49.298302 3.215385
182.590698 -11.240997 -49.298302 3.568360
196.074036 -11.240997 -49.298302 3.651630
209.557312 -11.240997 -49.298302 3.338400
223.040588 -11.240997 -49.298302 2.959138
236.523926 -11.240997 -49.298302 2.369675
250.007202 -11.240997 -49.298302 1.781469
263.490540 -11.240997 -49.298302 1.360902
276.973816 -11.240997 -49.298302 1.268026
290.457092 -11.240997 -49.298302 0.923007
303.940430 -11.240997 -49.298302 0.000000
317.423706 -11.240997 -49.298302 0.000000
330.907043 -11.240997 -49.298302 0.000000
344.390320 -11.240997 -49.298302 0.000000
-343.257996 -24.724304 -49.298302 0.000000
-329.774689 -24.724304 -49.298302 0.000000
-316.291382 -24.724304 -49.298302 0.000000
-302.808105 -24.724304 -49.298302 0.000000
-289.324799 -24.724304 -49.298302 0.764122
-275.841492 -24.724304 -49.298302 0.883841
-262.358185 -24.724304 -49.298302 1.140749
-248.874893 -24.724304 -49.298302 1.530502
-235.391602 -24.724304 -49.298302 2.475331
-221.908295 -24.724304 -49.298302 3.017486
-208.424988 -24.724304 -49.298302 3.816043
-194.941696 -24.724304 -49.298302 5.612313
-181.458389 -24.724304 -49.298302 6.566074
-167.975098 -24.724304 -49.298302 7.293170
-154.491791 -24.724304 -49.298302 7.588109
-141.008499 -24.724304 -49.298302 8.506874
-127.525192 -24.724304 -49.298302 8.787087
-114.041885 -24.724304 -49.298302 9.326863
-100.558594 -24.724304 -49.298302 9.202060
-87.075287 -24.724304 -49.298302 8.616311
-73.591980 -24.724304 -49.298302 7.612246
-60.108704 -24.724304 -49.298302 6.417759
-46.625397 -24.724304 -49.298302 6.303684
-33.142090 -24.724304 -49.298302 6.344130
-19.658783 -24.724304 -49.298302 6.088873
-6.175476 -24.724304 -49.298302 5.766362
7.307800 -24.724304 -49.298302 5.760071
20.791107 -24.724304 -49.298302 5.169458
34.274414 -24.724304 -49.298302 4.900723
47.757721 -24.724304 -49.298302 4.427126
61.240997 -24.724304 -49.298302 4.410116
74.724304 -24.724304 -49.298302 3.945468
88.207611 -24.724304 -49.298302 3.337175
101.690918 -24.724304 -49.298302 3.051783
115.174225 -24.724304 -49.298302 2.739976
128.657501 -24.724304 -49.298302 2.879195
142.140808 -24.724304 -49.298302 3.017797
155.624115 -24.724304 -49.298302 2.893661
169.107422 -24.724304 -49.298302 3.077941
182.590698 -24.724304 -49.298302 3.555593
196.074036 -24.724304 -49.298302 3.605545
209.557312 -24.724304 -49.298302 3.410300
223.040588 -24.724304 -49.298302 2.987100
236.523926 -24.724304 -49.298302 2.406108
250.007202 -24.724304 -49.298302 1.724399
263.490540 -24.724304 -49.298302 1.415448
276.973816 -24.724304 -49.298302 1.297269
290.457092 -24.724304 -49.298302 1.042708
303.940430 -24.724304 -49.298302 0.000000
317.423706 -24.724304 -49.298302 0.000000
330.907043 -24.724304 -49.298302 0.000000
344.390320 -24.724304 -49.298302 0.000000
-343.257996 -38.207611 -49.298302 0.000000
-329.774689 -38.207611 -49.298302 0.000000
-316.291382 -38.207611 -49.298302 0.000000
-302.808105 -38.207611 -49.298302 0.000000
-289.324799 -38.207611 -49.298302 0.947950
-275.841492 -38.207611 -49.298302 1.071445
-262.358185 -38.207611 -49.298302 1.168854
-248.874893 -38.207611 -49.298302 1.768215
-235.391602 -38.207611 -49.298302 2.290680
-221.908295 -38.207611 -49.298302 2.807282
-208.424988 -38.207611 -49.298302 4.256963
-194.941696 -38.207611 -49.298302 5.288721
-181.458389 -38.207611 -49.298302 7.591451
-167.975098 -38.207611 -49.298302 7.753892
-154.491791 -38.207611 -49.298302 9.004327
-141.008499 -38.207611 -49.298302 9.073261
-127.525192 -38.207611 -49.298302 8.506544
-114.041885 -38.207611 -49.298302 9.099680
-100.558594 -38.207611 -49.298302 9.523599
-87.075287 -38.207611 -49.298302 8.912498
-73.591980 -38.207611 -49.298302 7.917089
-60.108704 -38.207611 -49.298302 6.845274
-46.625397 -38.207611 -49.298302 5.977924
-33.142090 -38.207611 -49.298302 5.675436
-19.658783 -38.207611 -49.298302 5.369564
-6.175476 -38.207611 -49.298302 5.489858
7.307800 -38.207611 -49.298302 5.128221
20.791107 -38.207611 -49.298302 4.749671
34.274414 -38.207611 -49.298302 4.549319
47.757721 -38.207611 -49.298302 4.161678
61.240997 -38.207611 -49.298302 3.866170
74.724304 -38.207611 -49.298302 3.471364
88.207611 -38.207611 -49.298302 3.018531
101.690918 -38.207611 -49.298302 3.017207
115.174225 -38.207611 -49.298302 2.832083
128.657501 -38.207611 -49.298302 2.967335
142.140808 -38.207611 -49.298302 2.886663
155.624115 -38.207611 -49.298302 2.894173
169.107422 -38.207611 -49.298302 2.985692
182.590698 -38.207611 -49.298302 3.453579
196.074036 -38.207611 -49.298302 3.470647
209.557312 -38.207611 -49.298302 3.288610
223.040588 -38.207611 -49.298302 2.927923
236.523926 -38.207611 -49.298302 2.292525
250.007202 -38.207611 -49.298302 1.809480
263.490540 -38.207611 -49.298302 1.587097
276.973816 -38.207611 -49.298302 1.229259
290.457092 -38.207611 -49.298302 1.028103
303.940430 -38.207611 -49.298302 0.000000
317.423706 -38.207611 -49.298302 0.000000
330.907043 -38.207611 -49.298302 0.000000
344.390320 -38.207611 -49.298302 0.000000
-343.257996 -51.690918 -49.298302 0.000000
-329.774689 -51.690918 -49.298302 0.000000
-316.291382 -51.690918 -49.298302 0.000000
-302.808105 -51.690918 -49.298302 0.000000
-289.324799 -51.690918 -49.298302 1.225543
-275.841492 -51.690918 -49.298302 1.329726
-262.358185 -51.690918 -49.298302 1.437534
-248.874893 -51.690918 -49.298302 1.599354
-235.391602 -51.690918 -49.298302 2.059348
-221.908295 -51.690918 -49.298302 3.182214
-208.424988 -51.690918 -49.298302 4.761403
-194.941696 -51.690918 -49.298302 6.231986
-181.458389 -51.690918 -49.298302 7.482952
-167.975098 -51.690918 -49.298302 8.407506
-154.491791 -51.690918 -49.298302 10.260442
-141.008499 -51.690918 -49.298302 10.439281
-127.525192 -51.690918 -49.298302 9.839375
-114.041885 -51.690918 -49.298302 8.915787
-100.558594 -51.690918 -49.298302 8.664632
-87.075287 -51.690918 -49.298302 8.097836
-73.591980 -51.690918 -49.298302 8.321516
-60.108704 -51.690918 -49.298302 7.330132
-46.625397 -51.690918 -49.298302 6.445292
-33.142090 -51.690918 -49.298302 5.528190
-19.658783 -51.690918 -49.298302 4.975886
-6.175476 -51.690918 -49.298302 5.000382
7.307800 -51.690918 -49.298302 4.781108
20.791107 -51.690918 -49.298302 4.395189
34.274414 -51.690918 -49.298302 4.209415
47.757721 -51.690918 -49.298302 3.640277
61.240997 -51.690918 -49.298302 3.205872
74.724304 -51.690918 -49.298302 3.073269
88.207611 -51.690918 -49.298302 3.019071
101.690918 -51.690918 -49.298302 2.733168
115.174225 -51.690918 -49.298302 2.579850
128.657501 -51.690918 -49.298302 2.674039
142.140808 -51.690918 -49.298302 2.730761
155.624115 -51.690918 -49.298302 2.828323
169.107422 -51.690918 -49.298302 2.985913
182.590698 -51.690918 -49.298302 3.299748
196.074036 -51.690918 -49.298302 3.446513
209.557312 -51.690918 -49.298302 3.277553
223.040588 -51.690918 -49.298302 2.831591
236.523926 -51.690918 -49.298302 2.348194
250.007202 -51.690918 -49.298302 1.765641
263.490540 -51.690918 -49.298302 1.532670
276.973816 -51.690918 -49.298302 1.080647
290.457092 -51.690918 -49.298302 1.041255
303.940430 -51.690918 -49.298302 0.000000
317.423706 -51.690918 -49.298302 0.000000
330.907043 -51.690918 -49.298302 0.000000
344.390320 -51.690918 -49.298302 0.000000
-343.257996 -65.174225 -49.298302 0.000000
-329.774689 -65.174225 -49.298302 0.000000
-316.291382 -65.174225 -49.298302 0.000000
-302.808105 -65.174225 -49.298302 0.000000
-289.324799 -65.174225 -49.298302 1.297624
-275.841492 -65.174225 -49.298302 1.306998
-262.358185 -65.174225 -49.298302 1.430867
-248.874893 -65.174225 -49.298302 2.208954
-235.391602 -65.174225 -49.298302 2.600390
-221.908295 -65.174225 -49.298302 4.368846
-208.424988 -65.174225 -49.298302 4.994175
-194.941696 -65.174225 -49.298302 7.022157
-181.458389 -65.174225 -49.298302 0.000000
-167.975098 -65.174225 -49.298302 0.000000
-154.491791 -65.174225 -49.298302 0.000000
-141.008499 -65.174225 -49.298302 11.529935
-127.525192 -65.174225 -49.298302 10.712495
-114.041885 -65.174225 -49.298302 9.613691
-100.558594 -65.174225 -49.298302 8.174811
-87.075287 -65.174225 -49.298302 7.944776
-73.591980 -65.174225 -49.298302 7.587688
-60.108704 -65.174225 -49.298302 6.538216
-46.625397 -65.174225 -49.298302 6.010363
-33.142090 -65.174225 -49.298302 5.367247
-19.658783 -65.174225 -49.298302 5.082391
-6.175476 -65.174225 -49.298302 5.002824
7.307800 -65.174225 -49.298302 4.525115
20.791107 -65.174225 -49.298302 4.155481
34.274414 -65.174225 -49.298302 3.696359
47.757721 -65.174225 -49.298302 3.224240
61.240997 -65.174225 -49.298302 2.819907
74.724304 -65.174225 -49.298302 2.711834
88.207611 -65.174225 -49.298302 2.739998
101.690918 -65.174225 -49.298302 2.547305
115.174225 -65.174225 -49.298302 2.268860
128.657501 -65.174225 -49.298302 2.467771
142.140808 -65.174225 -49.298302 2.659512
155.624115 -65.174225 -49.298302 2.859708
169.107422 -65.174225 -49.298302 3.092521
182.590698 -65.174225 -49.298302 3.243939
196.074036 -65.174225 -49.298302 3.243077
209.557312 -65.174225 -49.298302 3.103130
223.040588 -65.174225 -49.298302 2.679929
236.523926 -65.174225 -49.298302 2.323159
250.007202 -65.174225 -49.298302 1.798869
263.490540 -65.174225 -49.298302 1.476316
276.973816 -65.174225 -49.298302 1.311430
290.457092 -65.174225 -49.298302 1.142035
303.940430 -65.174225 -49.298302 0.000000
317.423706 -65.174225 -49.298302 0.000000
330.907043 -65.174225 -49.298302 0.000000
344.390320 -65.174225 -49.298302 0.000000
-343.257996 -78.657501 -49.298302 0.000000
-329.774689 -78.657501 -49.298302 0.000000
-316.291382 -78.657501 -49.298302 0.000000
-302.808105 -78.657501 -49.298302 0.000000
-289.324799 -78.657501 -49.298302 1.450901
-275.841492 -78.657501 -49.298302 1.693116
-262.358185 -78.657501 -49.298302 2.273616
-248.874893 -78.657501 -49.298302 3.104073
-235.391602 -78.657501 -49.298302 0.000000
-221.908295 -78.657501 -49.298302 0.000000
-208.424988 -78.657501 -49.298302 0.000000
-194.941696 -78.657501 -49.298302 0.000000
-181.458389 -78.657501 -49.298302 0.000000
-167.975098 -78.657501 -49.298302 0.000000
-154.491791 -78.657501 -49.298302 0.000000
-141.008499 -78.657501 -49.298302 11.686884
-127.525192 -78.657501 -49.298302 10.575747
-114.041885 -78.657501 -49.298302 9.650887
-100.558594 -78.657501 -49.298302 8.435029
-87.075287 -78.657501 -49.298302 7.329727
-73.591980 -78.657501 -49.298302 7.055160
-60.108704 -78.657501 -49.298302 5.969077
-46.625397 -78.657501 -49.298302 5.748306
-33.142090 -78.657501 -49.298302 5.478481
-19.658783 -78.657501 -49.298302 5.049966
-6.175476 -78.657501 -49.298302 4.853159
7.307800 -78.657501 -49.298302 4.480104
20.791107 -78.657501 -49.298302 4.013445
34.274414 -78.657501 -49.298302 3.458131
47.757721 -78.657501 -49.298302 2.927537
61.240997 -78.657501 -49.298302 2.667883
74.724304 -78.657501 -49.298302 2.295305
88.207611 -78.657501 -49.298302 2.342616
101.690918 -78.657501 -49.298302 2.166691
115.174225 -78.657501 -49.298302 2.050807
128.657501 -78.657501 -49.298302 2.252911
142.140808 -78.657501 -49.298302 2.630383
155.624115 -78.657501 -49.298302 2.957657
169.107422 -78.657501 -49.298302 3.230982
182.590698 -78.657501 -49.298302 3.212204
196.074036 -78.657501 -49.298302 3.108698
209.557312 -78.657501 -49.298302 3.034637
223.040588 -78.657501 -49.298302 2.764584
236.523926 -78.657501 -49.298302 2.389390
250.007202 -78.657501 -49.298302 1.869398
263.490540 -78.657501 -49.298302 1.712955
276.973816 -78.657501 -49.298302 1.390148
290.457092 -78.657501 -49.298302 1.051304
303.940430 -78.657501 -49.298302 0.000000
317.423706 -78.657501 -49.298302 0.000000
330.907043 -78.657501 -49.298302 0.000000
344.390320 -78.657501 -49.298302 0.000000
-343.257996 -92.140808 -49.298302 0.000000
-329.774689 -92.140808 -49.298302 0.000000
-316.291382 -92.140808 -49.298302 0.000000
-302.808105 -92.140808 -49.298302 0.000000
-289.324799 -92.140808 -49.298302 2.518686
-275.841492 -92.140808 -49.298302 2.948143
-262.358185 -92.140808 -49.298302 3.630611
-248.874893 -92.140808 -49.298302 0.000000
-235.391602 -92.140808 -49.298302 0.000000
-221.908295 -92.140808 -49.298302 0.000000
-208.424988 -92.140808 -49.298302 0.000000
-194.941696 -92.140808 -49.298302 0.000000
-181.458389 -92.140808 -49.298302 0.000000
-167.975098 -92.140808 -49.298302 0.000000
-154.491791 -92.140808 -49.298302 0.000000
-141.008499 -92.140808 -49.298302 0.000000
-127.525192 -92.140808 -49.298302 10.566856
-114.041885 -92.140808 -49.298302 9.829613
-100.558594 -92.140808 -49.298302 8.436357
-87.075287 -92.140808 -49.298302 7.377803
-73.591980 -92.140808 -49.298302 7.310591
-60.108704 -92.140808 -49.298302 5.650057
-46.625397 -92.140808 -49.298302 5.640418
-33.142090 -92.140808 -49.298302 5.224017
-19.658783 -92.140808 -49.298302 4.744728
-6.175476 -92.140808 -49.298302 4.467623
7.307800 -92.140808 -49.298302 3.971601
20.791107 -92.140808 -49.298302 3.667669
34.274414 -92.140808 -49.298302 3.385147
47.757721 -92.140808 -49.298302 2.611561
61.240997 -92.140808 -49.298302 2.316234
74.724304 -92.140808 -49.298302 2.122426
88.207611 -92.140808 -49.298302 2.026330
101.690918 -92.140808 -49.298302 1.994569
115.174225 -92.140808 -49.298302 2.065940
128.657501 -92.140808 -49.298302 2.463552
142.140808 -92.140808 -49.298302 2.640093
155.624115 -92.140808 -49.298302 3.093830
169.107422 -92.140808 -49.298302 3.404369
182.590698 -92.140808 -49.298302 3.464172
196.074036 -92.140808 -49.298302 3.416937
209.557312 -92.140808 -49.298302 3.219118
223.040588 -92.140808 -49.298302 2.987367
236.523926 -92.140808 -49.298302 2.331549
250.007202 -92.140808 -49.298302 1.884676
263.490540 -92.140808 -49.298302 1.652390
276.973816 -92.140808 -49.298302 1.515208
290.457092 -92.140808 -49.298302 1.508402
303.940430 -92.140808 -49.298302 0.000000
317.423706 -92.140808 -49.298302 0.000000
330.907043 -92.140808 -49.298302 0.000000
344.390320 -92.140808 -49.298302 0.000000
-343.257996 -105.624115 -49.298302 0.000000
-329.774689 -105.624115 -49.298302 0.000000
-316.291382 -105.624115 -49.298302 0.000000
-302.808105 -105.624115 -49.298302 0.000000
-289.324799 -105.624115 -49.298302 4.648619
-275.841492 -105.624115 -49.298302 5.828226
-262.358185 -105.624115 -49.298302 0.000000
-248.874893 -105.624115 -49.298302 0.000000
-235.391602 -105.624115 -49.298302 0.000000
-221.908295 -105.624115 -49.298302 0.000000
-208.424988 -105.624115 -49.298302 0.000000
-194.941696 -105.624115 -49.298302 0.000000
-181.458389 -105.624115 -49.298302 0.000000
-167.975098 -105.624115 -49.298302 0.000000
-154.491791 -105.624115 -49.298302 0.000000
-141.008499 -105.624115 -49.298302 0.000000
-127.525192 -105.624115 -49.298302 11.839636
-114.041885 -105.624115 -49.298302 11.488930
-100.558594 -105.624115 -49.298302 9.070995
-87.075287 -105.624115 -49.298302 8.453517
-73.591980 -105.624115 -49.298302 7.030371
-60.108704 -105.624115 -49.298302 5.970909
-46.625397 -105.624115 -49.298302 5.581841
-33.142090 -105.624115 -49.298302 5.335627
-19.658783 -105.624115 -49.298302 5.207978
-6.175476 -105.624115 -49.298302 4.492646
7.307800 -105.624115 -49.298302 3.959010
20.791107 -105.624115 -49.298302 3.323723
34.274414 -105.624115 -49.298302 3.178081
47.757721 -105.624115 -49.298302 2.723915
61.240997 -105.624115 -49.298302 2.246811
74.724304 -105.624115 -49.298302 2.130697
88.207611 -105.624115 -49.298302 1.974472
101.690918 -105.624115 -49.298302 2.168554
115.174225 -105.624115 -49.298302 2.249570
128.657501 -105.624115 -49.298302 2.584901
142.140808 -105.624115 -49.298302 2.810215
155.624115 -105.624115 -49.298302 3.401996
169.107422 -105.624115 -49.298302 3.716565
182.590698 -105.624115 -49.298302 3.960335
196.074036 -105.624115 -49.298302 3.613050
209.557312 -105.624115 -49.298302 3.623495
223.040588 -105.624115 -49.298302 3.265645
236.523926 -105.624115 -49.298302 2.596752
250.007202 -105.624115 -49.298302 2.357027
263.490540 -105.624115 -49.298302 2.017300
276.973816 -105.624115 -49.298302 2.137650
290.457092 -105.624115 -49.298302 2.419998
303.940430 -105.624115 -49.298302 0.000000
317.423706 -105.624115 -49.298302 0.000000
330.907043 -105.624115 -49.298302 0.000000
344.390320 -105.624115 -49.298302 0.000000
-343.257996 -119.107422 -49.298302 0.000000
-329.774689 -119.107422 -49.298302 0.000000
-316.291382 -119.107422 -49.298302 0.000000
-302.808105 -119.107422 -49.298302 0.000000
-289.324799 -119.107422 -49.298302 0.000000
-275.841492 -119.107422 -49.298302 0.000000
-262.358185 -119.107422 -49.298302 0.000000
-248.874893 -119.107422 -49.298302 0.000000
-235.391602 -119.107422 -49.298302 0.000000
-221.908295 -119.107422 -49.298302 0.000000
-208.424988 -119.107422 -49.298302 0.000000
-194.941696 -119.107422 -49.298302 0.000000
-181.458389 -119.107422 -49.298302 0.000000
-167.975098 -119.107422 -49.298302 0.000000
-154.491791 -119.107422 -49.298302 0.000000
-141.008499 -119.107422 -49.298302 0.000000
-127.525192 -119.107422 -49.298302 0.000000
-114.041885 -119.107422 -49.298302 0.000000
-100.558594 -119.107422 -49.298302 11.118617
-87.075287 -119.107422 -49.298302 9.155023
-73.591980 -119.107422 -49.298302 7.785328
-60.108704 -119.107422 -49.298302 6.254477
-46.625397 -119.107422 -49.298302 5.838852
-33.142090 -119.107422 -49.298302 5.568532
-19.658783 -119.107422 -49.298302 5.303385
-6.175476 -119.107422 -49.298302 4.887956
7.307800 -119.107422 -49.298302 4.254113
20.791107 -119.107422 -49.298302 3.762684
34.274414 -119.107422 -49.298302 3.214502
47.757721 -119.107422 -49.298302 2.756160
61.240997 -119.107422 -49.298302 2.460897
74.724304 -119.107422 -49.298302 2.576885
88.207611 -119.107422 -49.298302 2.527894
101.690918 -119.107422 -49.298302 2.843199
115.174225 -119.107422 -49.298302 2.696766
128.657501 -119.107422 -49.298302 2.840284
142.140808 -119.107422 -49.298302 3.184604
155.624115 -119.107422 -49.298302 3.734721
169.107422 -119.107422 -49.298302 4.287180
182.590698 -119.107422 -49.298302 4.464829
196.074036 -119.107422 -49.298302 4.548699
209.557312 -119.107422 -49.298302 4.435450
223.040588 -119.107422 -49.298302 4.058119
236.523926 -119.107422 -49.298302 3.152091
250.007202 -119.107422 -49.298302 3.209884
263.490540 -119.107422 -49.298302 3.555417
276.973816 -119.107422 -49.298302 3.194689
290.457092 -119.107422 -49.298302 3.410766
303.940430 -119.107422 -49.298302 0.000000
317.423706 -119.107422 -49.298302 0.000000
330.907043 -119.107422 -49.298302 0.000000
344.390320 -119.107422 -49.298302 0.000000
-343.257996 -132.590698 -49.298302 0.000000
-329.774689 -132.590698 -49.298302 0.000000
-316.291382 -132.590698 -49.298302 0.000000
-302.808105 -132.590698 -49.298302 0.000000
-289.324799 -132.590698 -49.298302 0.000000
-275.841492 -132.590698 -49.298302 0.000000
-262.358185 -132.590698 -49.298302 0.000000
-248.874893 -132.590698 -49.298302 0.000000
-235.391602 -132.590698 -49.298302 0.000000
-221.908295 -132.590698 -49.298302 0.000000
-208.424988 -132.590698 -49.298302 0.000000
-194.941696 -132.590698 -49.298302 0.000000
-181.458389 -132.590698 -49.298302 0.000000
-167.975098 -132.590698 -49.298302 0.000000
-154.491791 -132.590698 -49.298302 0.000000
-141.008499 -132.590698 -49.298302 0.000000
-127.525192 -132.590698 -49.298302 0.000000
-114.041885 -132.590698 -49.298302 0.000000
-100.558594 -132.590698 -49.298302 0.000000
-87.075287 -132.590698 -49.298302 0.000000
-73.591980 -132.590698 -49.298302 0.000000
-60.108704 -132.590698 -49.298302 7.136365
-46.625397 -132.590698 -49.298302 6.465295
-33.142090 -132.590698 -49.298302 6.613736
-19.658783 -132.590698 -49.298302 6.299927
-6.175476 -132.590698 -49.298302 5.777404
7.307800 -132.590698 -49.298302 4.985713
20.791107 -132.590698 -49.298302 4.123353
34.274414 -132.590698 -49.298302 3.622281
47.757721 -132.590698 -49.298302 3.438803
61.240997 -132.590698 -49.298302 3.286490
74.724304 -132.590698 -49.298302 3.325335
88.207611 -132.590698 -49.298302 3.265811
101.690918 -132.590698 -49.298302 3.549487
115.174225 -132.590698 -49.298302 3.443534
128.657501 -132.590698 -49.298302 3.519482
142.140808 -132.590698 -49.298302 3.822337
155.624115 -132.590698 -49.298302 4.225381
169.107422 -132.590698 -49.298302 5.069963
182.590698 -132.590698 -49.298302 5.441288
196.074036 -132.590698 -49.298302 5.316660
209.557312 -132.590698 -49.298302 0.000000
223.040588 -132.590698 -49.298302 5.143892
236.523926 -132.590698 -49.298302 4.864088
250.007202 -132.590698 -49.298302 4.460437
263.490540 -132.590698 -49.298302 4.493055
276.973816 -132.590698 -49.298302 0.000000
290.457092 -132.590698 -49.298302 0.000000
303.940430 -132.590698 -49.298302 0.000000
317.423706 -132.590698 -49.298302 0.000000
330.907043 -132.590698 -49.298302 0.000000
344.390320 -132.590698 -49.298302 0.000000
-343.257996 -146.074036 -49.298302 0.000000
-329.774689 -146.074036 -49.298302 0.000000
-316.291382 -146.074036 -49.298302 0.000000
-302.808105 -146.074036 -49.298302 0.000000
-289.324799 -146.074036 -49.298302 0.000000
-275.841492 -146.074036 -49.298302 0.000000
-262.358185 -146.074036 -49.298302 0.000000
-248.874893 -146.074036 -49.298302 0.000000
-235.391602 -146.074036 -49.298302 0.000000
-221.908295 -146.074036 -49.298302 0.000000
-208.424988 -146.074036 -49.298302 0.000000
-194.941696 -146.074036 -49.298302 0.000000
-181.458389 -146.074036 -49.298302 0.000000
-167.975098 -146.074036 -49.298302 0.000000
-154.491791 -146.074036 -49.298302 0.000000
-141.008499 -146.074036 -49.298302 0.000000
-127.525192 -146.074036 -49.298302 0.000000
-114.041885 -146.074036 -49.298302 0.000000
-100.558594 -146.074036 -49.298302 0.000000
-87.075287 -146.074036 -49.298302 0.000000
-73.591980 -146.074036 -49.298302 0.000000
-60.108704 -146.074036 -49.298302 0.000000
-46.625397 -146.074036 -49.298302 0.000000
-33.142090 -146.074036 -49.298302 7.234962
-19.658783 -146.074036 -49.298302 7.794023
-6.175476 -146.074036 -49.298302 6.375222
7.307800 -146.074036 -49.298302 5.852020
20.791107 -146.074036 -49.298302 0.000000
34.274414 -146.074036 -49.298302 0.000000
47.757721 -146.074036 -49.298302 0.000000
61.240997 -146.074036 -49.298302 0.000000
74.724304 -146.074036 -49.298302 0.000000
88.207611 -146.074036 -49.298302 0.000000
101.690918 -146.074036 -49.298302 0.000000
115.174225 -146.074036 -49.298302 0.000000
128.657501 -146.074036 -49.298302 0.000000
142.140808 -146.074036 -49.298302 0.000000
155.624115 -146.074036 -49.298302 0.000000
169.107422 -146.074036 -49.298302 0.000000
182.590698 -146.074036 -49.298302 0.000000
196.074036 -146.074036 -49.298302 0.000000
209.557312 -146.074036 -49.298302 0.000000
223.040588 -146.074036 -49.298302 0.000000
236.523926 -146.074036 -49.298302 0.000000
250.007202 -146.074036 -49.298302 0.000000
263.490540 -146.074036 -49.298302 0.000000
276.973816 -146.074036 -49.298302 0.000000
290.457092 -146.074036 -49.298302 0.000000
303.940430 -146.074036 -49.298302 0.000000
317.423706 -146.074036 -49.298302 0.000000
330.907043 -146.074036 -49.298302 0.000000
344.390320 -146.074036 -49.298302 0.000000
-343.257996 -159.557312 -49.298302 0.000000
-329.774689 -159.557312 -49.298302 0.000000
-316.291382 -159.557312 -49.298302 0.000000
-302.808105 -159.557312 -49.298302 0.000000
-289.324799 -159.557312 -49.298302 0.000000
-275.841492 -159.557312 -49.298302 0.000000
-262.358185 -159.557312 -49.298302 0.000000
-248.874893 -159.557312 -49.298302 0.000000
-235.391602 -159.557312 -49.298302 0.000000
-221.908295 -159.557312 -49.298302 0.000000
-208.424988 -159.557312 -49.298302 0.000000
-194.941696 -159.557312 -49.298302 0.000000
-181.458389 -159.557312 -49.298302 0.000000
-167.975098 -159.557312 -49.298302 0.000000
-154.491791 -159.557312 -49.298302 0.000000
-141.008499 -159.557312 -49.298302 0.000000
-127.525192 -159.557312 -49.298302 0.000000
-114.041885 -159.557312 -49.298302 0.000000
-100.558594 -159.557312 -49.298302 0.000000
-87.075287 -159.557312 -49.298302 0.000000
-73.591980 -159.557312 -49.298302 0.000000
-60.108704 -159.557312 -49.298302 0.000000
-46.625397 -159.557312 -49.298302 0.000000
-33.142090 -159.557312 -49.298302 0.000000
-19.658783 -159.557312 -49.298302 0.000000
-6.175476 -159.557312 -49.298302 0.000000
7.307800 -159.557312 -49.298302 0.000000
20.791107 -159.557312 -49.298302 0.000000
34.274414 -159.557312 -49.298302 0.000000
47.757721 -159.557312 -49.298302 0.000000
61.240997 -159.557312 -49.298302 0.000000
74.724304 -159.557312 -49.298302 0.000000
88.207611 -159.557312 -49.298302 0.000000
101.690918 -159.557312 -49.298302 0.000000
115.174225 -159.557312 -49.298302 0.000000
128.657501 -159.557312 -49.298302 0.000000
142.140808 -159.557312 -49.298302 0.000000
155.624115 -159.557312 -49.298302 0.000000
169.107422 -159.557312 -49.298302 0.000000
182.590698 -159.557312 -49.298302 0.000000
196.074036 -159.557312 -49.298302 0.000000
209.557312 -159.557312 -49.298302 0.000000
223.040588 -159.557312 -49.298302 0.000000
236.523926 -159.557312 -49.298302 0.000000
250.007202 -159.557312 -49.298302 0.000000
263.490540 -159.557312 -49.298302 0.000000
276.973816 -159.557312 -49.298302 0.000000
290.457092 -159.557312 -49.298302 0.000000
303.940430 -159.557312 -49.298302 0.000000
317.423706 -159.557312 -49.298302 0.000000
330.907043 -159.557312 -49.298302 0.000000
344.390320 -159.557312 -49.298302 0.000000
-343.257996 -173.040588 -49.298302 0.000000
-329.774689 -173.040588 -49.298302 0.000000
-316.291382 -173.040588 -49.298302 0.000000
-302.808105 -173.040588 -49.298302 0.000000
-289.324799 -173.040588 -49.298302 0.000000
-275.841492 -173.040588 -49.298302 0.000000
-262.358185 -173.040588 -49.298302 0.000000
-248.874893 -173.040588 -49.298302 0.000000
-235.391602 -173.040588 -49.298302 0.000000
-221.908295 -173.040588 -49.298302 0.000000
-208.424988 -173.040588 -49.298302 0.000000
-194.941696 -173.040588 -49.298302 0.000000
-181.458389 -173.040588 -49.298302 0.000000
-167.975098 -173.040588 -49.298302 0.000000
-154.491791 -173.040588 -49.298302 0.000000
-141.008499 -173.040588 -49.298302 0.000000
-127.525192 -173.040588 -49.298302 0.000000
-114.041885 -173.040588 -49.298302 0.000000
-100.558594 -173.040588 -49.298302 0.000000
-87.075287 -173.040588 -49.298302 0.000000
-73.591980 -173.040588 -49.298302 0.000000
-60.108704 -173.040588 -49.298302 0.000000
-46.625397 -173.040588 -49.298302 0.000000
-33.142090 -173.040588 -49.298302 0.000000
-19.658783 -173.040588 -49.298302 0.000000
-6.175476 -173.040588 -49.298302 0.000000
7.307800 -173.040588 -49.298302 0.000000
20.791107 -173.040588 -49.298302 0.000000
34.274414 -173.040588 -49.298302 0.000000
47.757721 -173.040588 -49.298302 0.000000
61.240997 -173.040588 -49.298302 0.000000
74.724304 -173.040588 -49.298302 0.000000
88.207611 -173.040588 -49.298302 0.000000
101.690918 -173.040588 -49.298302 0.000000
115.174225 -173.040588 -49.298302 0.000000
128.657501 -173.040588 -49.298302 0.000000
142.140808 -173.040588 -49.298302 0.000000
155.624115 -173.040588 -49.298302 0.000000
169.107422 -173.040588 -49.298302 0.000000
182.590698 -173.040588 -49.298302 0.000000
196.074036 -173.040588 -49.298302 0.000000
209.557312 -173.040588 -49.298302 0.000000
223.040588 -173.040588 -49.298302 0.000000
236.523926 -173.040588 -49.298302 0.000000
250.007202 -173.040588 -49.298302 0.000000
263.490540 -173.040588 -49.298302 0.000000
276.973816 -173.040588 -49.298302 0.000000
290.457092 -173.040588 -49.298302 0.000000
303.940430 -173.040588 -49.298302 0.000000
317.423706 -173.040588 -49.298302 0.000000
330.907043 -173.040588 -49.298302 0.000000
344.390320 -173.040588 -49.298302 0.000000
-343.257996 -186.523926 -49.298302 0.000000
-329.774689 -186.523926 -49.298302 0.000000
-316.291382 -186.523926 -49.298302 0.000000
-302.808105 -186.523926 -49.298302 0.000000
-289.324799 -186.523926 -49.298302 0.000000
-275.841492 -186.523926 -49.298302 0.000000
-262.358185 -186.523926 -49.298302 0.000000
-248.874893 -186.523926 -49.298302 0.000000
-235.391602 -186.523926 -49.298302 0.000000
-221.908295 -186.523926 -49.298302 0.000000
-208.424988 -186.523926 -49.298302 0.000000
-194.941696 -186.523926 -49.298302 0.000000
-181.458389 -186.523926 -49.298302 0.000000
-167.975098 -186.523926 -49.298302 0.000000
-154.491791 -186.523926 -49.298302 0.000000
-141.008499 -186.523926 -49.298302 0.000000
-127.525192 -186.523926 -49.298302 0.000000
-114.041885 -186.523926 -49.298302 0.000000
-100.558594 -186.523926 -49.298302 0.000000
-87.075287 -186.523926 -49.298302 0.000000
-73.591980 -186.523926 -49.298302 0.000000
-60.108704 -186.523926 -49.298302 0.000000
-46.625397 -186.523926 -49.298302 0.000000
-33.142090 -186.523926 -49.298302 0.000000
-19.658783 -186.523926 -49.298302 0.000000
-6.175476 -186.523926 -49.298302 0.000000
7.307800 -186.523926 -49.298302 0.000000
20.791107 -186.523926 -49.298302 0.000000
34.274414 -186.523926 -49.298302 0.000000
47.757721 -186.523926 -49.298302 0.000000
61.240997 -186.523926 -49.298302 0.000000
74.724304 -186.523926 -49.298302 0.000000
88.207611 -186.523926 -49.298302 0.000000
101.690918 -186.523926 -49.298302 0.000000
115.174225 -186.523926 -49.298302 0.000000
128.657501 -186.523926 -49.298302 0.000000
142.140808 -186.523926 -49.298302 0.000000
155.624115 -186.523926 -49.298302 0.000000
169.107422 -186.523926 -49.298302 0.000000
182.590698 -186.523926 -49.298302 0.000000
196.074036 -186.523926 -49.298302 0.000000
209.557312 -186.523926 -49.298302 0.000000
223.040588 -186.523926 -49.298302 0.000000
236.523926 -186.523926 -49.298302 0.000000
250.007202 -186.523926 -49.298302 0.000000
263.490540 -186.523926 -49.298302 0.000000
276.973816 -186.523926 -49.298302 0.000000
290.457092 -186.523926 -49.298302 0.000000
303.940430 -186.523926 -49.298302 0.000000
317.423706 -186.523926 -49.298302 0.000000
330.907043 -186.523926 -49.298302 0.000000
344.390320 -186.523926 -49.298302 0.000000
-343.257996 -200.007202 -49.298302 0.000000
-329.774689 -200.007202 -49.298302 0.000000
-316.291382 -200.007202 -49.298302 0.000000
-302.808105 -200.007202 -49.298302 0.000000
-289.324799 -200.007202 -49.298302 0.000000
-275.841492 -200.007202 -49.298302 0.000000
-262.358185 -200.007202 -49.298302 0.000000
-248.874893 -200.007202 -49.298302 0.000000
-235.391602 -200.007202 -49.298302 0.000000
-221.908295 -200.007202 -49.298302 0.000000
-208.424988 -200.007202 -49.298302 0.000000
-194.941696 -200.007202 -49.298302 0.000000
-181.458389 -200.007202 -49.298302 0.000000
-167.975098 -200.007202 -49.298302 0.000000
-154.491791 -200.007202 -49.298302 0.000000
-141.008499 -200.007202 -49.298302 0.000000
-127.525192 -200.007202 -49.298302 0.000000
-114.041885 -200.007202 -49.298302 0.000000
-100.558594 -200.007202 -49.298302 0.000000
-87.075287 -200.007202 -49.298302 0.000000
-73.591980 -200.007202 -49.298302 0.000000
-60.108704 -200.007202 -49.298302 0.000000
-46.625397 -200.007202 -49.298302 0.000000
-33.142090 -200.007202 -49.298302 0.000000
-19.658783 -200.007202 -49.298302 0.000000
-6.175476 -200.007202 -49.298302 0.000000
7.307800 -200.007202 -49.298302 0.000000
20.791107 -200.007202 -49.298302 0.000000
34.274414 -200.007202 -49.298302 0.000000
47.757721 -200.007202 -49.298302 0.000000
61.240997 -200.007202 -49.298302 0.000000
74.724304 -200.007202 -49.298302 0.000000
88.207611 -200.007202 -49.298302 0.000000
101.690918 -200.007202 -49.298302 0.000000
115.174225 -200.007202 -49.298302 0.000000
128.657501 -200.007202 -49.298302 0.000000
142.140808 -200.007202 -49.298302 0.000000
155.624115 -200.007202 -49.298302 0.000000
169.107422 -200.007202 -49.298302 0.000000
182.590698 -200.007202 -49.298302 0.000000
196.074036 -200.007202 -49.298302 0.000000
209.557312 -200.007202 -49.298302 0.000000
223.040588 -200.007202 -49.298302 0.000000
236.523926 -200.007202 -49.298302 0.000000
250.007202 -200.007202 -49.298302 0.000000
263.490540 -200.007202 -49.298302 0.000000
276.973816 -200.007202 -49.298302 0.000000
290.457092 -200.007202 -49.298302 0.000000
303.940430 -200.007202 -49.298302 0.000000
317.423706 -200.007202 -49.298302 0.000000
330.907043 -200.007202 -49.298302 0.000000
344.390320 -200.007202 -49.298302 0.000000
-343.257996 393.257996 -35.815002 0.000000
-329.774689 393.257996 -35.815002 0.000000
-316.291382 393.257996 -35.815002 0.000000
-302.808105 393.257996 -35.815002 0.000000
-289.324799 393.257996 -35.815002 0.000000
-275.841492 393.257996 -35.815002 0.000000
-262.358185 393.257996 -35.815002 0.000000
-248.874893 393.257996 -35.815002 0.000000
-235.391602 393.257996 -35.815002 0.000000
-221.908295 393.257996 -35.815002 0.000000
-208.424988 393.257996 -35.815002 0.000000
-194.941696 393.257996 -35.815002 0.000000
-181.458389 393.257996 -35.815002 0.000000
-167.975098 393.257996 -35.815002 0.000000
-154.491791 393.257996 -35.815002 0.000000
-141.008499 393.257996 -35.815002 0.000000
-127.525192 393.257996 -35.815002 0.000000
-114.041885 393.257996 -35.815002 0.000000
-100.558594 393.257996 -35.815002 0.000000
-87.075287 393.257996 -35.815002 0.000000
-73.591980 393.257996 -35.815002 0.000000
-60.108704 393.257996 -35.815002 0.000000
-46.625397 393.257996 -35.815002 0.000000
-33.142090 393.257996 -35.815002 0.000000
-19.658783 393.257996 -35.815002 0.000000
-6.175476 393.257996 -35.815002 0.000000
7.307800 393.257996 -35.815002 0.000000
20.791107 393.257996 -35.815002 0.000000
34.274414 393.257996 -35.815002 0.000000
47.757721 393.257996 -35.815002 0.000000
61.240997 393.257996 -35.815002 0.000000
74.724304 393.257996 -35.815002 0.000000
88.207611 393.257996 -35.815002 0.000000
101.690918 393.257996 -35.815002 0.000000
115.174225 393.257996 -35.815002 0.000000
128.657501 393.257996 -35.815002 0.000000
142.140808 393.257996 -35.815002 0.000000
155.624115 393.257996 -35.815002 0.000000
169.107422 393.257996 -35.815002 0.000000
182.590698 393.257996 -35.815002 0.000000
196.074036 393.257996 -35.815002 0.000000
209.557312 393.257996 -35.815002 0.000000
223.040588 393.257996 -35.815002 0.000000
236.523926 393.257996 -35.815002 0.000000
250.007202 393.257996 -35.815002 0.000000
263.490540 393.257996 -35.815002 0.000000
276.973816 393.257996 -35.815002 0.000000
290.457092 393.257996 -35.815002 0.000000
303.940430 393.257996 -35.815002 0.000000
317.423706 393.257996 -35.815002 0.000000
330.907043 393.257996 -35.815002 0.000000
344.390320 393.257996 -35.815002 0.000000
-343.257996 379.774689 -35.815002 0.000000
-329.774689 379.774689 -35.815002 0.000000
-316.291382 379.774689 -35.815002 0.000000
-302.808105 379.774689 -35.815002 0.000000
-289.324799 379.774689 -35.815002 0.000000
-275.841492 379.774689 -35.815002 0.000000
-262.358185 379.774689 -35.815002 0.000000
-248.874893 379.774689 -35.815002 0.000000
-235.391602 379.774689 -35.815002 0.000000
-221.908295 379.774689 -35.815002 0.000000
-208.424988 379.774689 -35.815002 0.000000
-194.941696 379.774689 -35.815002 0.000000
-181.458389 379.774689 -35.815002 0.000000
-167.975098 379.774689 -35.815002 0.000000
-154.491791 379.774689 -35.815002 0.000000
-141.008499 379.774689 -35.815002 0.000000
-127.525192 379.774689 -35.815002 0.000000
-114.041885 379.774689 -35.815002 0.000000
-100.558594 379.774689 -35.815002 0.000000
-87.075287 379.774689 -35.815002 0.000000
-73.591980 379.774689 -35.815002 0.000000
-60.108704 379.774689 -35.815002 0.000000
-46.625397 379.774689 -35.815002 0.000000
-33.142090 379.774689 -35.815002 0.000000
-19.658783 379.774689 -35.815002 0.000000
-6.175476 379.774689 -35.815002 0.000000
7.307800 379.774689 -35.815002 0.000000
20.791107 379.774689 -35.815002 0.000000
34.274414 379.774689 -35.815002 0.000000
47.757721 379.774689 -35.815002 0.000000
61.240997 379.774689 -35.815002 0.000000
74.724304 379.774689 -35.815002 0.000000
88.207611 379.774689 -35.815002 0.000000
101.690918 379.774689 -35.815002 0.000000
115.174225 379.774689 -35.815002 0.000000
128.657501 379.774689 -35.815002 0.000000
142.140808 379.774689 -35.815002 0.000000
155.624115 379.774689 -35.815002 0.000000
169.107422 379.774689 -35.815002 0.000000
182.590698 379.774689 -35.815002 0.000000
196.074036 379.774689 -35.815002 0.000000
209.557312 379.774689 -35.815002 0.000000
223.040588 379.774689 -35.815002 0.000000
236.523926 379.774689 -35.815002 0.000000
250.007202 379.774689 -35.815002 0.000000
263.490540 379.774689 -35.815002 0.000000
276.973816 379.774689 -35.815002 0.000000
290.457092 379.774689 -35.815002 0.000000
303.940430 379.774689 -35.815002 0.000000
317.423706 379.774689 -35.815002 0.000000
330.907043 379.774689 -35.815002 0.000000
344.390320 379.774689 -35.815002 0.000000
-343.257996 366.291382 -35.815002 0.000000
-329.774689 366.291382 -35.815002 0.000000
-316.291382 366.291382 -35.815002 0.000000
-302.808105 366.291382 -35.815002 0.000000
-289.324799 366.291382 -35.815002 0.000000
-275.841492 366.291382 -35.815002 0.000000
-262.358185 366.291382 -35.815002 0.000000
-248.874893 366.291382 -35.815002 0.000000
-235.391602 366.291382 -35.815002 0.000000
-221.908295 366.291382 -35.815002 0.000000
-208.424988 366.291382 -35.815002 0.000000
-194.941696 366.291382 -35.815002 0.000000
-181.458389 366.291382 -35.815002 0.000000
-167.975098 366.291382 -35.815002 0.000000
-154.491791 366.291382 -35.815002 0.000000
-141.008499 366.291382 -35.815002 0.000000
-127.525192 366.291382 -35.815002 0.000000
-114.041885 366.291382 -35.815002 0.000000
-100.558594 366.291382 -35.815002 0.000000
-87.075287 366.291382 -35.815002 0.000000
-73.591980 366.291382 -35.815002 0.000000
-60.108704 366.291382 -35.815002 0.000000
-46.625397 366.291382 -35.815002 0.000000
-33.142090 366.291382 -35.815002 0.000000
-19.658783 366.291382 -35.815002 0.000000
-6.175476 366.291382 -35.815002 2.354739
7.307800 366.291382 -35.815002 2.372404
20.791107 366.291382 -35.815002 2.341908
34.274414 366.291382 -35.815002 2.255757
47.757721 366.291382 -35.815002 2.296541
61.240997 366.291382 -35.815002 1.955429
74.724304 366.291382 -35.815002 1.734161
88.207611 366.291382 -35.815002 1.759816
101.690918 366.291382 -35.815002 1.735418
115.174225 366.291382 -35.815002 2.167875
128.657501 366.291382 -35.815002 0.000000
142.140808 366.291382 -35.815002 0.000000
155.624115 366.291382 -35.815002 0.000000
169.107422 366.291382 -35.815002 0.000000
182.590698 366.291382 -35.815002 0.000000
196.074036 366.291382 -35.815002 0.000000
209.557312 366.291382 -35.815002 0.000000
223.040588 366.291382 -35.815002 0.000000
236.523926 366.291382 -35.815002 0.000000
250.007202 366.291382 -35.815002 0.000000
263.490540 366.291382 -35.815002 0.000000
276.973816 366.291382 -35.815002 0.000000
290.457092 366.291382 -35.815002 0.000000
303.940430 366.291382 -35.815002 0.000000
317.423706 366.291382 -35.815002 0.000000
330.907043 366.291382 -35.815002 0.000000
344.390320 366.291382 -35.815002 0.000000
-343.257996 352.808105 -35.815002 0.000000
-329.774689 352.808105 -35.815002 0.000000
-316.291382 352.808105 -35.815002 0.000000
-302.808105 352.808105 -35.815002 0.000000
-289.324799 352.808105 -35.815002 0.000000
-275.841492 352.808105 -35.815002 0.000000
-262.358185 352.808105 -35.815002 0.000000
-248.874893 352.808105 -35.815002 0.000000
-235.391602 352.808105 -35.815002 0.000000
-221.908295 352.808105 -35.815002 3.648671
-208.424988 352.808105 -35.815002 3.360379
-194.941696 352.808105 -35.815002 3.288843
-181.458389 352.808105 -35.815002 3.353868
-167.975098 352.808105 -35.815002 2.872344
-154.491791 352.808105 -35.815002 2.799464
-141.008499 352.808105 -35.815002 2.756902
-127.525192 352.808105 -35.815002 2.712019
-114.041885 352.808105 -35.815002 2.640759
-100.558594 352.808105 -35.815002 2.884355
-87.075287 352.808105 -35.815002 2.927428
-73.591980 352.808105 -35.815002 3.073097
-60.108704 352.808105 -35.815002 2.942116
-46.625397 352.808105 -35.815002 3.255868
-33.142090 352.808105 -35.815002 3.423810
-19.658783 352.808105 -35.815002 3.298612
-6.175476 352.808105 -35.815002 2.738280
7.307800 352.808105 -35.815002 2.641560
20.791107 352.808105 -35.815002 2.586654
34.274414 352.808105 -35.815002 2.382370
47.757721 352.808105 -35.815002 2.380926
61.240997 352.808105 -35.815002 2.186352
74.724304 352.808105 -35.815002 2.067814
88.207611 352.808105 -35.815002 1.840001
101.690918 352.808105 -35.815002 2.112895
115.174225 352.808105 -35.815002 2.149060
128.657501 352.808105 -35.815002 2.468342
142.140808 352.808105 -35.815002 2.702706
155.624115 352.808105 -35.815002 2.776633
169.107422 352.808105 -35.815002 2.790278
182.590698 352.808105 -35.815002 2.907171
196.074036 352.808105 -35.815002 2.937557
209.557312 352.808105 -35.815002 0.000000
223.040588 352.808105 -35.815002 0.000000
236.523926 352.808105 -35.815002 0.000000
250.007202 352.808105 -35.815002 0.000000
263.490540 352.808105 -35.815002 0.000000
276.973816 352.808105 -35.815002 0.000000
290.457092 352.808105 -35.815002 0.000000
303.940430 352.808105 -35.815002 0.000000
317.423706 352.808105 -35.815002 0.000000
330.907043 352.808105 -35.815002 0.000000
344.390320 352.808105 -35.815002 0.000000
-343.257996 339.324799 -35.815002 0.000000
-329.774689 339.324799 -35.815002 0.000000
-316.291382 339.324799 -35.815002 0.000000
-302.808105 339.324799 -35.815002 0.000000
-289.324799 339.324799 -35.815002 0.000000
-275.841492 339.324799 -35.815002 4.530907
-262.358185 339.324799 -35.815002 3.934577
-248.874893 339.324799 -35.815002 3.851303
-235.391602 339.324799 -35.815002 3.483426
-221.908295 339.324799 -35.815002 3.317238
-208.424988 339.324799 -35.815002 3.241846
-194.941696 339.324799 -35.815002 3.320161
-181.458389 339.324799 -35.815002 3.369285
-167.975098 339.324799 -35.815002 3.121378
-154.491791 339.324799 -35.815002 3.046358
-141.008499 339.324799 -35.815002 3.085246
-127.525192 339.324799 -35.815002 2.849877
-114.041885 339.324799 -35.815002 2.906009
-100.558594 339.324799 -35.815002 2.968866
-87.075287 339.324799 -35.815002 3.202003
-73.591980 339.324799 -35.815002 3.520352
-60.108704 339.324799 -35.815002 3.683452
-46.625397 339.324799 -35.815002 3.700296
-33.142090 339.324799 -35.815002 3.541060
-19.658783 339.324799 -35.815002 3.571038
-6.175476 339.324799 -35.815002 3.314626
7.307800 339.324799 -35.815002 3.101413
20.791107 339.324799 -35.815002 2.919188
34.274414 339.324799 -35.815002 2.698952
47.757721 339.324799 -35.815002 2.457170
61.240997 339.324799 -35.815002 2.443146
74.724304 339.324799 -35.815002 2.054066
88.207611 339.324799 -35.815002 2.018620
101.690918 339.324799 -35.815002 2.267437
115.174225 339.324799 -35.815002 2.323942
128.657501 339.324799 -35.815002 2.465562
142.140808 339.324799 -35.815002 2.836631
155.624115 339.324799 -35.815002 2.579714
169.107422 339.324799 -35.815002 2.673137
182.590698 339.324799 -35.815002 2.696246
196.074036 339.324799 -35.815002 2.506475
209.557312 339.324799 -35.815002 2.554429
223.040588 339.324799 -35.815002 2.604241
236.523926 339.324799 -35.815002 3.101667
250.007202 339.324799 -35.815002 3.339255
263.490540 339.324799 -35.815002 3.658849
276.973816 339.324799 -35.815002 0.000000
290.457092 339.324799 -35.815002 0.000000
303.940430 339.324799 -35.815002 0.000000
317.423706 339.324799 -35.815002 0.000000
330.907043 339.324799 -35.815002 0.000000
344.390320 339.324799 -35.815002 0.000000
-343.257996 325.841492 -35.815002 0.000000
-329.774689 325.841492 -35.815002 0.000000
-316.291382 325.841492 -35.815002 0.000000
-302.808105 325.841492 -35.815002 0.000000
-289.324799 325.841492 -35.815002 3.392670
-275.841492 325.841492 -35.815002 3.590533
-262.358185 325.841492 -35.815002 3.087241
-248.874893 325.841492 -35.815002 3.079416
-235.391602 325.841492 -35.815002 2.978917
-221.908295 325.841492 -35.815002 2.940444
-208.424988 325.841492 -35.815002 3.216736
-194.941696 325.841492 -35.815002 3.315508
-181.458389 325.841492 -35.815002 3.224272
-167.975098 325.841492 -35.815002 3.333735
-154.491791 325.841492 -35.815002 3.277574
-141.008499 325.841492 -35.815002 3.160054
-127.525192 325.841492 -35.815002 3.038519
-114.041885 325.841492 -35.815002 3.138887
-100.558594 325.841492 -35.815002 3.497236
-87.075287 325.841492 -35.815002 3.506173
-73.591980 325.841492 -35.815002 4.086375
-60.108704 325.841492 -35.815002 4.428902
-46.625397 325.841492 -35.815002 4.248793
-33.142090 325.841492 -35.815002 4.061130
-19.658783 325.841492 -35.815002 3.942679
-6.175476 325.841492 -35.815002 3.822016
7.307800 325.841492 -35.815002 3.633127
20.791107 325.841492 -35.815002 3.148596
34.274414 325.841492 -35.815002 2.950251
47.757721 325.841492 -35.815002 2.874385
61.240997 325.841492 -35.815002 2.513444
74.724304 325.841492 -35.815002 2.492861
88.207611 325.841492 -35.815002 2.529056
101.690918 325.841492 -35.815002 2.697938
115.174225 325.841492 -35.815002 2.744848
128.657501 325.841492 -35.815002 2.746199
142.140808 325.841492 -35.815002 2.950201
155.624115 325.841492 -35.815002 2.934677
169.107422 325.841492 -35.815002 2.785896
182.590698 325.841492 -35.815002 2.594687
196.074036 325.841492 -35.815002 2.396319
209.557312 325.841492 -35.815002 2.443549
223.040588 325.841492 -35.815002 2.566385
236.523926 325.841492 -35.815002 2.725306
250.007202 325.841492 -35.815002 2.668981
263.490540 325.841492 -35.815002 2.870820
276.973816 325.841492 -35.815002 3.452010
290.457092 325.841492 -35.815002 3.864299
303.940430 325.841492 -35.815002 0.000000
317.423706 325.841492 -35.815002 0.000000
330.907043 325.841492 -35.815002 0.000000
344.390320 325.841492 -35.815002 0.000000
-343.257996 312.358185 -35.815002 0.000000
-329.774689 312.358185 -35.815002 0.000000
-316.291382 312.358185 -35.815002 0.000000
-302.808105 312.358185 -35.815002 2.504048
-289.324799 312.358185 -35.815002 2.237441
-275.841492 312.358185 -35.815002 2.394984
-262.358185 312.358185 -35.815002 2.327297
-248.874893 312.358185 -35.815002 2.282026
-235.391602 312.358185 -35.815002 2.291882
-221.908295 312.358185 -35.815002 2.458349
-208.424988 312.358185 -35.815002 2.877789
-194.941696 312.358185 -35.815002 2.889366
-181.458389 312.358185 -35.815002 3.139541
-167.975098 312.358185 -35.815002 3.370837
-154.491791 312.358185 -35.815002 3.537228
-141.008499 312.358185 -35.815002 3.322791
-127.525192 312.358185 -35.815002 3.190820
-114.041885 312.358185 -35.815002 3.440731
-100.558594 312.358185 -35.815002 3.724678
-87.075287 312.358185 -35.815002 3.694982
-73.591980 312.358185 -35.815002 4.205737
-60.108704 312.358185 -35.815002 4.649251
-46.625397 312.358185 -35.815002 4.593934
-33.142090 312.358185 -35.815002 4.610893
-19.658783 312.358185 -35.815002 4.725713
-6.175476 312.358185 -35.815002 4.466573
7.307800 312.358185 -35.815002 4.079082
20.791107 312.358185 -35.815002 3.582697
34.274414 312.358185 -35.815002 3.326768
47.757721 312.358185 -35.815002 3.392447
61.240997 312.358185 -35.815002 3.280962
74.724304 312.358185 -35.815002 2.993850
88.207611 312.358185 -35.815002 2.772676
101.690918 312.358185 -35.815002 2.928751
115.174225 312.358185 -35.815002 3.291996
128.657501 312.358185 -35.815002 3.335364
142.140808 312.358185 -35.815002 2.903747
155.624115 312.358185 -35.815002 3.268048
169.107422 312.358185 -35.815002 3.055523
182.590698 312.358185 -35.815002 2.681672
196.074036 312.358185 -35.815002 2.522160
209.557312 312.358185 -35.815002 2.318119
223.040588 312.358185 -35.815002 2.373386
236.523926 312.358185 -35.815002 2.410631
250.007202 312.358185 -35.815002 2.151187
263.490540 312.358185 -35.815002 1.934717
276.973816 312.358185 -35.815002 2.181689
290.457092 312.358185 -35.815002 2.203609
303.940430 312.358185 -35.815002 0.000000
317.423706 312.358185 -35.815002 0.000000
330.907043 312.358185 -35.815002 0.000000
344.390320 312.358185 -35.815002 0.000000
-343.257996 298.874878 -35.815002 0.000000
-329.774689 298.874878 -35.815002 0.000000
-316.291382 298.874878 -35.815002 2.021570
-302.808105 298.874878 -35.815002 1.805655
-289.324799 298.874878 -35.815002 1.843303
-275.841492 298.874878 -35.815002 1.711371
-262.358185 298.874878 -35.815002 1.642687
-248.874893 298.874878 -35.815002 1.807708
-235.391602 298.874878 -35.815002 1.888562
-221.908295 298.874878 -35.815002 2.140454
-208.424988 298.874878 -35.815002 2.398931
-194.941696 298.874878 -35.815002 2.755307
-181.458389 298.874878 -35.815002 2.860385
-167.975098 298.874878 -35.815002 3.274068
-154.491791 298.874878 -35.815002 3.317665
-141.008499 298.874878 -35.815002 3.232849
-127.525192 298.874878 -35.815002 3.548268
-114.041885 298.874878 -35.815002 3.681962
-100.558594 298.874878 -35.815002 3.835258
-87.075287 298.874878 -35.815002 4.003246
-73.591980 298.874878 -35.815002 4.546246
-60.108704 298.874878 -35.815002 4.937423
-46.625397 298.874878 -35.815002 4.957922
-33.142090 298.874878 -35.815002 5.305816
-19.658783 298.874878 -35.815002 5.549170
-6.175476 298.874878 -35.815002 4.858072
7.307800 298.874878 -35.815002 4.515357
20.791107 298.874878 -35.815002 4.157507
34.274414 298.874878 -35.815002 3.945568
47.757721 298.874878 -35.815002 3.783765
61.240997 298.874878 -35.815002 3.828866
74.724304 298.874878 -35.815002 3.585686
88.207611 298.874878 -35.815002 3.566769
101.690918 298.874878 -35.815002 3.461081
115.174225 298.874878 -35.815002 3.597908
128.657501 298.874878 -35.815002 3.521422
142.140808 298.874878 -35.815002 3.492068
155.624115 298.874878 -35.815002 3.343979
169.107422 298.874878 -35.815002 2.935256
182.590698 298.874878 -35.815002 2.750110
196.074036 298.874878 -35.815002 2.432782
209.557312 298.874878 -35.815002 2.363519
223.040588 298.874878 -35.815002 2.262619
236.523926 298.874878 -35.815002 2.047351
250.007202 298.874878 -35.815002 1.984252
263.490540 298.874878 -35.815002 1.748763
276.973816 298.874878 -35.815002 1.707685
290.457092 298.874878 -35.815002 1.614139
303.940430 298.874878 -35.815002 1.758131
317.423706 298.874878 -35.815002 0.000000
330.907043 298.874878 -35.815002 0.000000
344.390320 298.874878 -35.815002 0.000000
-343.257996 285.391602 -35.815002 0.000000
-329.774689 285.391602 -35.815002 0.000000
-316.291382 285.391602 -35.815002 1.524021
-302.808105 285.391602 -35.815002 1.328759
-289.324799 285.391602 -35.815002 1.353271
-275.841492 285.391602 -35.815002 1.275182
-262.358185 285.391602 -35.815002 1.367602
-248.874893 285.391602 -35.815002 1.533823
-235.391602 285.391602 -35.815002 1.710504
-221.908295 285.391602 -35.815002 1.935455
-208.424988 285.391602 -35.815002 2.074831
-194.941696 285.391602 -35.815002 2.389253
-181.458389 285.391602 -35.815002 2.719930
-167.975098 285.391602 -35.815002 3.098572
-154.491791 285.391602 -35.815002 3.343674
-141.008499 285.391602 -35.815002 3.487893
-127.525192 285.391602 -35.815002 3.550061
-114.041885 285.391602 -35.815002 3.942753
-100.558594 285.391602 -35.815002 3.865881
-87.075287 285.391602 -35.815002 4.161087
-73.591980 285.391602 -35.815002 4.838867
-60.108704 285.391602 -35.815002 5.568006
-46.625397 285.391602 -35.815002 5.573890
-33.142090 285.391602 -35.815002 5.383174
-19.658783 285.391602 -35.815002 5.731623
-6.175476 285.391602 -35.815002 5.410896
7.307800 285.391602 -35.815002 4.904562
20.791107 285.391602 -35.815002 4.612055
34.274414 285.391602 -35.815002 4.306634
47.757721 285.391602 -35.815002 4.256805
61.240997 285.391602 -35.815002 4.061596
74.724304 285.391602 -35.815002 3.830991
88.207611 285.391602 -35.815002 3.984482
101.690918 285.391602 -35.815002 4.167393
115.174225 285.391602 -35.815002 3.762038
128.657501 285.391602 -35.815002 3.948050
142.140808 285.391602 -35.815002 4.117860
155.624115 285.391602 -35.815002 3.777131
169.107422 285.391602 -35.815002 3.180743
182.590698 285.391602 -35.815002 2.620394
196.074036 285.391602 -35.815002 2.354478
209.557312 285.391602 -35.815002 2.240277
223.040588 285.391602 -35.815002 2.078765
236.523926 285.391602 -35.815002 1.979825
250.007202 285.391602 -35.815002 1.688573
263.490540 285.391602 -35.815002 1.547684
276.973816 285.391602 -35.815002 1.394400
290.457092 285.391602 -35.815002 1.306603
303.940430 285.391602 -35.815002 1.370455
317.423706 285.391602 -35.815002 0.000000
330.907043 285.391602 -35.815002 0.000000
344.390320 285.391602 -35.815002 0.000000
-343.257996 271.908295 -35.815002 0.000000
-329.774689 271.908295 -35.815002 0.000000
-316.291382 271.908295 -35.815002 1.300365
-302.808105 271.908295 -35.815002 1.141379
-289.324799 271.908295 -35.815002 1.152767
-275.841492 271.908295 -35.815002 1.107439
-262.358185 271.908295 -35.815002 1.166039
-248.874893 271.908295 -35.815002 1.295519
-235.391602 271.908295 -35.815002 1.543244
-221.908295 271.908295 -35.815002 1.663702
-208.424988 271.908295 -35.815002 1.876376
-194.941696 271.908295 -35.815002 2.075398
-181.458389 271.908295 -35.815002 2.485437
-167.975098 271.908295 -35.815002 2.887976
-154.491791 271.908295 -35.815002 2.941834
-141.008499 271.908295 -35.815002 3.072709
-127.525192 271.908295 -35.815002 3.571001
-114.041885 271.908295 -35.815002 3.906024
-100.558594 271.908295 -35.815002 3.874513
-87.075287 271.908295 -35.815002 4.822627
-73.591980 271.908295 -35.815002 5.448453
-60.108704 271.908295 -35.815002 5.960645
-46.625397 271.908295 -35.815002 6.289250
-33.142090 271.908295 -35.815002 5.766115
-19.658783 271.908295 -35.815002 5.930563
-6.175476 271.908295 -35.815002 5.617936
7.307800 271.908295 -35.815002 5.541049
20.791107 271.908295 -35.815002 5.550163
34.274414 271.908295 -35.815002 5.059900
47.757721 271.908295 -35.815002 4.646070
61.240997 271.908295 -35.815002 4.384420
74.724304 271.908295 -35.815002 4.132217
88.207611 271.908295 -35.815002 4.048204
101.690918 271.908295 -35.815002 3.874055
115.174225 271.908295 -35.815002 4.146367
128.657501 271.908295 -35.815002 4.428589
142.140808 271.908295 -35.815002 4.002234
155.624115 271.908295 -35.815002 3.577556
169.107422 271.908295 -35.815002 3.325313
182.590698 271.908295 -35.815002 2.752358
196.074036 271.908295 -35.815002 2.560251
209.557312 271.908295 -35.815002 2.223083
223.040588 271.908295 -35.815002 2.121886
236.523926 271.908295 -35.815002 1.898115
250.007202 271.908295 -35.815002 1.617079
263.490540 271.908295 -35.815002 1.404538
276.973816 271.908295 -35.815002 1.285022
290.457092 271.908295 -35.815002 1.152525
303.940430 271.908295 -35.815002 1.070356
317.423706 271.908295 -35.815002 1.311646
330.907043 271.908295 -35.815002 0.000000
344.390320 271.908295 -35.815002 0.000000
-343.257996 258.424988 -35.815002 0.000000
-329.774689 258.424988 -35.815002 0.000000
-316.291382 258.424988 -35.815002 1.012551
-302.808105 258.424988 -35.815002 0.956348
-289.324799 258.424988 -35.815002 1.058267
-275.841492 258.424988 -35.815002 1.060750
-262.358185 258.424988 -35.815002 1.120721
-248.874893 258.424988 -35.815002 1.196337
-235.391602 258.424988 -35.815002 1.306785
-221.908295 258.424988 -35.815002 1.464758
-208.424988 258.424988 -35.815002 1.762294
-194.941696 258.424988 -35.815002 1.925180
-181.458389 258.424988 -35.815002 2.136276
-167.975098 258.424988 -35.815002 2.384219
-154.491791 258.424988 -35.815002 2.780909
-141.008499 258.424988 -35.815002 3.110831
-127.525192 258.424988 -35.815002 3.575095
-114.041885 258.424988 -35.815002 3.841691
-100.558594 258.424988 -35.815002 4.313725
-87.075287 258.424988 -35.815002 4.893543
-73.591980 258.424988 -35.815002 5.292575
-60.108704 258.424988 -35.815002 5.823263
-46.625397 258.424988 -35.815002 6.409097
-33.142090 258.424988 -35.815002 6.209351
-19.658783 258.424988 -35.815002 6.237747
-6.175476 258.424988 -35.815002 5.873051
7.307800 258.424988 -35.815002 5.721428
20.791107 258.424988 -35.815002 5.535053
34.274414 258.424988 -35.815002 5.180382
47.757721 258.424988 -35.815002 5.027383
61.240997 258.424988 -35.815002 4.479457
74.724304 258.424988 -35.815002 4.185619
88.207611 258.424988 -35.815002 3.943276
101.690918 258.424988 -35.815002 4.050057
115.174225 258.424988 -35.815002 4.260455
128.657501 258.424988 -35.815002 4.416280
142.140808 258.424988 -35.815002 3.998577
155.624115 258.424988 -35.815002 3.416477
169.107422 258.424988 -35.815002 3.197437
182.590698 258.424988 -35.815002 2.990812
196.074036 258.424988 -35.815002 2.800546
209.557312 258.424988 -35.815002 2.555816
223.040588 258.424988 -35.815002 2.206831
236.523926 258.424988 -35.815002 1.973630
250.007202 258.424988 -35.815002 1.699665
263.490540 258.424988 -35.815002 1.435052
276.973816 258.424988 -35.815002 1.218212
290.457092 258.424988 -35.815002 1.103412
303.940430 258.424988 -35.815002 1.030342
317.423706 258.424988 -35.815002 0.919064
330.907043 258.424988 -35.815002 0.000000
344.390320 258.424988 -35.815002 0.000000
-343.257996 244.941696 -35.815002 0.000000
-329.774689 244.941696 -35.815002 0.000000
-316.291382 244.941696 -35.815002 0.843699
-302.808105 244.941696 -35.815002 0.844083
-289.324799 244.941696 -35.815002 0.956758
-275.841492 244.941696 -35.815002 1.024542
-262.358185 244.941696 -35.815002 1.093898
-248.874893 244.941696 -35.815002 1.157076
-235.391602 244.941696 -35.815002 1.213077
-221.908295 244.941696 -35.815002 1.357655
-208.424988 244.941696 -35.815002 1.555990
-194.941696 244.941696 -35.815002 1.771660
-181.458389 244.941696 -35.815002 2.024614
-167.975098 244.941696 -35.815002 2.243420
-154.491791 244.941696 -35.815002 2.504641
-141.008499 244.941696 -35.815002 2.867860
-127.525192 244.941696 -35.815002 3.283239
-114.041885 244.941696 -35.815002 3.970855
-100.558594 244.941696 -35.815002 4.599448
-87.075287 244.941696 -35.815002 5.133561
-73.591980 244.941696 -35.815002 5.501171
-60.108704 244.941696 -35.815002 5.911315
-46.625397 244.941696 -35.815002 6.404711
-33.142090 244.941696 -35.815002 6.570906
-19.658783 244.941696 -35.815002 6.591720
-6.175476 244.941696 -35.815002 6.118985
7.307800 244.941696 -35.815002 5.744972
20.791107 244.941696 -35.815002 5.502492
34.274414 244.941696 -35.815002 4.941711
47.757721 244.941696 -35.815002 4.751665
61.240997 244.941696 -35.815002 4.772534
74.724304 244.941696 -35.815002 4.423550
88.207611 244.941696 -35.815002 3.852133
101.690918 244.941696 -35.815002 4.143411
115.174225 244.941696 -35.815002 4.170676
128.657501 244.941696 -35.815002 4.282690
142.140808 244.941696 -35.815002 3.752897
155.624115 244.941696 -35.815002 3.573610
169.107422 244.941696 -35.815002 3.269994
182.590698 244.941696 -35.815002 2.952445
196.074036 244.941696 -35.815002 2.814419
209.557312 244.941696 -35.815002 2.616390
223.040588 244.941696 -35.815002 2.206011
236.523926 244.941696 -35.815002 1.949908
250.007202 244.941696 -35.815002 1.692015
263.490540 244.941696 -35.815002 1.517737
276.973816 244.941696 -35.815002 1.146783
290.457092 244.941696 -35.815002 0.962187
303.940430 244.941696 -35.815002 0.881096
317.423706 244.941696 -35.815002 0.848888
330.907043 244.941696 -35.815002 0.000000
344.390320 244.941696 -35.815002 0.000000
-343.257996 231.458389 -35.815002 0.000000
-329.774689 231.458389 -35.815002 0.000000
-316.291382 231.458389 -35.815002 0.736872
-302.808105 231.458389 -35.815002 0.798487
-289.324799 231.458389 -35.815002 0.923836
-275.841492 231.458389 -35.815002 1.004196
-262.358185 231.458389 -35.815002 1.063210
-248.874893 231.458389 -35.815002 1.106389
-235.391602 231.458389 -35.815002 1.225483
-221.908295 231.458389 -35.815002 1.317204
-208.424988 231.458389 -35.815002 1.507921
-194.941696 231.458389 -35.815002 1.735307
-181.458389 231.458389 -35.815002 2.009126
-167.975098 231.458389 -35.815002 2.034442
-154.491791 231.458389 -35.815002 2.342918
-141.008499 231.458389 -35.815002 2.561993
-127.525192 231.458389 -35.815002 3.115860
-114.041885 231.458389 -35.815002 3.685902
-100.558594 231.458389 -35.815002 4.658708
-87.075287 231.458389 -35.815002 5.478961
-73.591980 231.458389 -35.815002 5.558684
-60.108704 231.458389 -35.815002 5.978962
-46.625397 231.458389 -35.815002 6.952059
-33.142090 231.458389 -35.815002 7.480820
-19.658783 231.458389 -35.815002 7.574324
-6.175476 231.458389 -35.815002 7.029098
7.307800 231.458389 -35.815002 6.817151
20.791107 231.458389 -35.815002 5.884419
34.274414 231.458389 -35.815002 5.629445
47.757721 231.458389 -35.815002 5.329469
61.240997 231.458389 -35.815002 5.058271
74.724304 231.458389 -35.815002 4.785884
88.207611 231.458389 -35.815002 4.605848
101.690918 231.458389 -35.815002 4.471470
115.174225 231.458389 -35.815002 4.351571
128.657501 231.458389 -35.815002 4.186913
142.140808 231.458389 -35.815002 3.768224
155.624115 231.458389 -35.815002 3.536269
169.107422 231.458389 -35.815002 3.154598
182.590698 231.458389 -35.815002 2.853801
196.074036 231.458389 -35.815002 2.689643
209.557312 231.458389 -35.815002 2.487073
223.040588 231.458389 -35.815002 2.134113
236.523926 231.458389 -35.815002 1.853418
250.007202 231.458389 -35.815002 1.542821
263.490540 231.458389 -35.815002 1.362089
276.973816 231.458389 -35.815002 1.059372
290.457092 231.458389 -35.815002 0.940572
303.940430 231.458389 -35.815002 0.723648
317.423706 231.458389 -35.815002 0.689760
330.907043 231.458389 -35.815002 0.000000
344.390320 231.458389 -35.815002 0.000000
-343.257996 217.975098 -35.815002 0.000000
-329.774689 217.975098 -35.815002 0.000000
-316.291382 217.975098 -35.815002 0.809186
-302.808105 217.975098 -35.815002 0.826447
-289.324799 217.975098 -35.815002 0.960435
-275.841492 217.975098 -35.815002 1.036206
-262.358185 217.975098 -35.815002 1.140930
-248.874893 217.975098 -35.815002 1.239435
-235.391602 217.975098 -35.815002 1.364364
-221.908295 217.975098 -35.815002 1.466781
-208.424988 217.975098 -35.815002 1.516427
-194.941696 217.975098 -35.815002 1.856871
-181.458389 217.975098 -35.815002 1.988649
-167.975098 217.975098 -35.815002 2.245123
-154.491791 217.975098 -35.815002 2.468189
-141.008499 217.975098 -35.815002 2.662494
-127.525192 217.975098 -35.815002 2.945548
-114.041885 217.975098 -35.815002 3.664183
-100.558594 217.975098 -35.815002 4.484782
-87.075287 217.975098 -35.815002 5.560657
-73.591980 217.975098 -35.815002 5.781841
-60.108704 217.975098 -35.815002 6.339875
-46.625397 217.975098 -35.815002 6.887113
-33.142090 217.975098 -35.815002 7.663945
-19.658783 217.975098 -35.815002 8.097789
-6.175476 217.975098 -35.815002 8.434702
7.307800 217.975098 -35.815002 7.190506
20.791107 217.975098 -35.815002 6.599573
34.274414 217.975098 -35.815002 6.137781
47.757721 217.975098 -35.815002 5.734174
61.240997 217.975098 -35.815002 5.682574
74.724304 217.975098 -35.815002 5.321256
88.207611 217.975098 -35.815002 4.745910
101.690918 217.975098 -35.815002 4.754448
115.174225 217.975098 -35.815002 4.415269
128.657501 217.975098 -35.815002 4.193696
142.140808 217.975098 -35.815002 3.702441
155.624115 217.975098 -35.815002 3.132014
169.107422 217.975098 -35.815002 2.772075
182.590698 217.975098 -35.815002 2.619162
196.074036 217.975098 -35.815002 2.428002
209.557312 217.975098 -35.815002 2.244414
223.040588 217.975098 -35.815002 1.915963
236.523926 217.975098 -35.815002 1.598487
250.007202 217.975098 -35.815002 1.320477
263.490540 217.975098 -35.815002 1.160107
276.973816 217.975098 -35.815002 0.966146
290.457092 217.975098 -35.815002 0.776700
303.940430 217.975098 -35.815002 0.636302
317.423706 217.975098 -35.815002 0.643061
330.907043 217.975098 -35.815002 0.000000
344.390320 217.975098 -35.815002 0.000000
-343.257996 204.491791 -35.815002 0.000000
-329.774689 204.491791 -35.815002 0.000000
-316.291382 204.491791 -35.815002 0.838203
-302.808105 204.491791 -35.815002 0.894690
-289.324799 204.491791 -35.815002 1.050003
-275.841492 204.491791 -35.815002 1.106594
-262.358185 204.491791 -35.815002 1.247855
-248.874893 204.491791 -35.815002 1.395029
-235.391602 204.491791 -35.815002 1.495772
-221.908295 204.491791 -35.815002 1.547875
-208.424988 204.491791 -35.815002 1.619860
-194.941696 204.491791 -35.815002 1.931247
-181.458389 204.491791 -35.815002 2.040782
-167.975098 204.491791 -35.815002 2.394472
-154.491791 204.491791 -35.815002 2.709643
-141.008499 204.491791 -35.815002 2.969818
-127.525192 204.491791 -35.815002 3.276054
-114.041885 204.491791 -35.815002 3.680533
-100.558594 204.491791 -35.815002 4.647369
-87.075287 204.491791 -35.815002 5.361625
-73.591980 204.491791 -35.815002 6.097897
-60.108704 204.491791 -35.815002 6.940590
-46.625397 204.491791 -35.815002 7.188683
-33.142090 204.491791 -35.815002 8.233184
-19.658783 204.491791 -35.815002 8.338796
-6.175476 204.491791 -35.815002 7.980743
7.307800 204.491791 -35.815002 7.225663
20.791107 204.491791 -35.815002 6.969072
34.274414 204.491791 -35.815002 6.983119
47.757721 204.491791 -35.815002 6.260515
61.240997 204.491791 -35.815002 6.084209
74.724304 204.491791 -35.815002 5.562094
88.207611 204.491791 -35.815002 5.504346
101.690918 204.491791 -35.815002 5.187224
115.174225 204.491791 -35.815002 4.851078
128.657501 204.491791 -35.815002 4.071987
142.140808 204.491791 -35.815002 3.186851
155.624115 204.491791 -35.815002 3.114773
169.107422 204.491791 -35.815002 2.683697
182.590698 204.491791 -35.815002 2.282251
196.074036 204.491791 -35.815002 2.099010
209.557312 204.491791 -35.815002 1.828182
223.040588 204.491791 -35.815002 1.607957
236.523926 204.491791 -35.815002 1.382159
250.007202 204.491791 -35.815002 1.211485
263.490540 204.491791 -35.815002 1.015596
276.973816 204.491791 -35.815002 0.853529
290.457092 204.491791 -35.815002 0.665213
303.940430 204.491791 -35.815002 0.587019
317.423706 204.491791 -35.815002 0.559515
330.907043 204.491791 -35.815002 0.000000
344.390320 204.491791 -35.815002 0.000000
-343.257996 191.008499 -35.815002 0.000000
-329.774689 191.008499 -35.815002 0.000000
-316.291382 191.008499 -35.815002 0.909107
-302.808105 191.008499 -35.815002 0.955501
-289.324799 191.008499 -35.815002 1.096872
-275.841492 191.008499 -35.815002 1.216644
-262.358185 191.008499 -35.815002 1.337363
-248.874893 191.008499 -35.815002 1.450611
-235.391602 191.008499 -35.815002 1.584474
-221.908295 191.008499 -35.815002 1.628031
-208.424988 191.008499 -35.815002 1.723005
-194.941696 191.008499 -35.815002 2.068153
-181.458389 191.008499 -35.815002 2.179056
-167.975098 191.008499 -35.815002 2.372668
-154.491791 191.008499 -35.815002 2.920737
-141.008499 191.008499 -35.815002 3.179413
-127.525192 191.008499 -35.815002 3.291924
-114.041885 191.008499 -35.815002 3.933670
-100.558594 191.008499 -35.815002 5.037441
-87.075287 191.008499 -35.815002 5.736267
-73.591980 191.008499 -35.815002 6.246530
-60.108704 191.008499 -35.815002 7.060572
-46.625397 191.008499 -35.815002 7.895317
-33.142090 191.008499 -35.815002 8.515905
-19.658783 191.008499 -35.815002 8.260038
-6.175476 191.008499 -35.815002 7.767449
7.307800 191.008499 -35.815002 7.250209
20.791107 191.008499 -35.815002 7.084852
34.274414 191.008499 -35.815002 7.337144
47.757721 191.008499 -35.815002 6.565611
61.240997 191.008499 -35.815002 6.019357
74.724304 191.008499 -35.815002 5.934220
88.207611 191.008499 -35.815002 5.497508
101.690918 191.008499 -35.815002 5.038035
115.174225 191.008499 -35.815002 4.300147
128.657501 191.008499 -35.815002 3.469145
142.140808 191.008499 -35.815002 2.898605
155.624115 191.008499 -35.815002 2.698514
169.107422 191.008499 -35.815002 2.319406
182.590698 191.008499 -35.815002 2.027896
196.074036 191.008499 -35.815002 1.737832
209.557312 191.008499 -35.815002 1.544230
223.040588 191.008499 -35.815002 1.353023
236.523926 191.008499 -35.815002 1.186589
250.007202 191.008499 -35.815002 1.014000
263.490540 191.008499 -35.815002 0.840227
276.973816 191.008499 -35.815002 0.691451
290.457092 191.008499 -35.815002 0.568473
303.940430 191.008499 -35.815002 0.470426
317.423706 191.008499 -35.815002 0.395266
330.907043 191.008499 -35.815002 0.000000
344.390320 191.008499 -35.815002 0.000000
-343.257996 177.525192 -35.815002 0.000000
-329.774689 177.525192 -35.815002 0.000000
-316.291382 177.525192 -35.815002 1.030882
-302.808105 177.525192 -35.815002 1.172740
-289.324799 177.525192 -35.815002 1.315156
-275.841492 177.525192 -35.815002 1.395646
-262.358185 177.525192 -35.815002 1.555617
-248.874893 177.525192 -35.815002 1.649858
-235.391602 177.525192 -35.815002 1.659497
-221.908295 177.525192 -35.815002 1.678182
-208.424988 177.525192 -35.815002 1.851976
-194.941696 177.525192 -35.815002 2.104769
-181.458389 177.525192 -35.815002 2.240670
-167.975098 177.525192 -35.815002 2.578389
-154.491791 177.525192 -35.815002 2.972763
-141.008499 177.525192 -35.815002 3.354541
-127.525192 177.525192 -35.815002 3.618731
-114.041885 177.525192 -35.815002 4.384209
-100.558594 177.525192 -35.815002 5.401729
-87.075287 177.525192 -35.815002 5.988918
-73.591980 177.525192 -35.815002 6.074474
-60.108704 177.525192 -35.815002 7.383676
-46.625397 177.525192 -35.815002 7.892311
-33.142090 177.525192 -35.815002 8.110932
-19.658783 177.525192 -35.815002 7.894215
-6.175476 177.525192 -35.815002 7.577532
7.307800 177.525192 -35.815002 7.086332
20.791107 177.525192 -35.815002 7.013149
34.274414 177.525192 -35.815002 7.287282
47.757721 177.525192 -35.815002 6.835584
61.240997 177.525192 -35.815002 6.462447
74.724304 177.525192 -35.815002 5.968073
88.207611 177.525192 -35.815002 5.253646
101.690918 177.525192 -35.815002 4.719135
115.174225 177.525192 -35.815002 3.921450
128.657501 177.525192 -35.815002 3.081580
142.140808 177.525192 -35.815002 2.437083
155.624115 177.525192 -35.815002 2.209214
169.107422 177.525192 -35.815002 1.848214
182.590698 177.525192 -35.815002 1.550355
196.074036 177.525192 -35.815002 1.343152
209.557312 177.525192 -35.815002 1.224477
223.040588 177.525192 -35.815002 1.159333
236.523926 177.525192 -35.815002 0.945084
250.007202 177.525192 -35.815002 0.812187
263.490540 177.525192 -35.815002 0.711272
276.973816 177.525192 -35.815002 0.580889
290.457092 177.525192 -35.815002 0.463012
303.940430 177.525192 -35.815002 0.367289
317.423706 177.525192 -35.815002 0.321623
330.907043 177.525192 -35.815002 0.000000
344.390320 177.525192 -35.815002 0.000000
-343.257996 164.041885 -35.815002 0.000000
-329.774689 164.041885 -35.815002 0.000000
-316.291382 164.041885 -35.815002 1.224704
-302.808105 164.041885 -35.815002 1.327195
-289.324799 164.041885 -35.815002 1.454693
-275.841492 164.041885 -35.815002 1.585912
-262.358185 164.041885 -35.815002 1.680668
-248.874893 164.041885 -35.815002 1.783834
-235.391602 164.041885 -35.815002 1.776589
-221.908295 164.041885 -35.815002 1.701233
-208.424988 164.041885 -35.815002 1.911598
-194.941696 164.041885 -35.815002 2.167808
-181.458389 164.041885 -35.815002 2.476248
-167.975098 164.041885 -35.815002 2.656599
-154.491791 164.041885 -35.815002 3.141366
-141.008499 164.041885 -35.815002 3.518208
-127.525192 164.041885 -35.815002 4.013851
-114.041885 164.041885 -35.815002 4.330668
-100.558594 164.041885 -35.815002 5.493148
-87.075287 164.041885 -35.815002 6.235655
-73.591980 164.041885 -35.815002 6.875943
-60.108704 164.041885 -35.815002 7.344898
-46.625397 164.041885 -35.815002 8.527348
-33.142090 164.041885 -35.815002 8.571463
-19.658783 164.041885 -35.815002 7.982409
-6.175476 164.041885 -35.815002 7.465333
7.307800 164.041885 -35.815002 7.303054
20.791107 164.041885 -35.815002 7.457455
34.274414 164.041885 -35.815002 7.222527
47.757721 164.041885 -35.815002 6.954242
61.240997 164.041885 -35.815002 6.764983
74.724304 164.041885 -35.815002 6.154840
88.207611 164.041885 -35.815002 4.834489
101.690918 164.041885 -35.815002 4.084061
115.174225 164.041885 -35.815002 3.314806
128.657501 164.041885 -35.815002 2.618709
142.140808 164.041885 -35.815002 2.090052
155.624115 164.041885 -35.815002 1.780839
169.107422 164.041885 -35.815002 1.508321
182.590698 164.041885 -35.815002 1.246512
196.074036 164.041885 -35.815002 1.077478
209.557312 164.041885 -35.815002 0.992542
223.040588 164.041885 -35.815002 0.942175
236.523926 164.041885 -35.815002 0.803857
250.007202 164.041885 -35.815002 0.698413
263.490540 164.041885 -35.815002 0.580439
276.973816 164.041885 -35.815002 0.451420
290.457092 164.041885 -35.815002 0.374472
303.940430 164.041885 -35.815002 0.294293
317.423706 164.041885 -35.815002 0.261545
330.907043 164.041885 -35.815002 0.000000
344.390320 164.041885 -35.815002 0.000000
-343.257996 150.558594 -35.815002 0.000000
-329.774689 150.558594 -35.815002 0.000000
-316.291382 150.558594 -35.815002 1.494700
-302.808105 150.558594 -35.815002 1.547844
-289.324799 150.558594 -35.815002 1.676172
-275.841492 150.558594 -35.815002 1.826204
-262.358185 150.558594 -35.815002 1.889731
-248.874893 150.558594 -35.815002 1.974449
-235.391602 150.558594 -35.815002 1.883263
-221.908295 150.558594 -35.815002 1.925908
-208.424988 150.558594 -35.815002 2.144084
-194.941696 150.558594 -35.815002 2.336067
-181.458389 150.558594 -35.815002 2.605689
-167.975098 150.558594 -35.815002 2.902693
-154.491791 150.558594 -35.815002 3.227614
-141.008499 150.558594 -35.815002 3.598927
-127.525192 150.558594 -35.815002 4.277705
-114.041885 150.558594 -35.815002 4.571999
-100.558594 150.558594 -35.815002 5.470650
-87.075287 150.558594 -35.815002 6.501729
-73.591980 150.558594 -35.815002 7.414470
-60.108704 150.558594 -35.815002 7.879671
-46.625397 150.558594 -35.815002 8.863330
-33.142090 150.558594 -35.815002 8.886266
-19.658783 150.558594 -35.815002 8.742485
-6.175476 150.558594 -35.815002 8.309421
7.307800 150.558594 -35.815002 8.083705
20.791107 150.558594 -35.815002 7.995576
34.274414 150.558594 -35.815002 7.799613
47.757721 150.558594 -35.815002 7.092567
61.240997 150.558594 -35.815002 6.674442
74.724304 150.558594 -35.815002 5.950965
88.207611 150.558594 -35.815002 4.443930
101.690918 150.558594 -35.815002 3.671613
115.174225 150.558594 -35.815002 2.975927
128.657501 150.558594 -35.815002 2.326099
142.140808 150.558594 -35.815002 1.824312
155.624115 150.558594 -35.815002 1.543405
169.107422 150.558594 -35.815002 1.317384
182.590698 150.558594 -35.815002 1.047782
196.074036 150.558594 -35.815002 0.908122
209.557312 150.558594 -35.815002 0.880356
223.040588 150.558594 -35.815002 0.762740
236.523926 150.558594 -35.815002 0.618587
250.007202 150.558594 -35.815002 0.555763
263.490540 150.558594 -35.815002 0.455399
276.973816 150.558594 -35.815002 0.386443
290.457092 150.558594 -35.815002 0.311739
303.940430 150.558594 -35.815002 0.270130
317.423706 150.558594 -35.815002 0.253967
330.907043 150.558594 -35.815002 0.000000
344.390320 150.558594 -35.815002 0.000000
-343.257996 137.075287 -35.815002 0.000000
-329.774689 137.075287 -35.815002 0.000000
-316.291382 137.075287 -35.815002 0.000000
-302.808105 137.075287 -35.815002 1.847754
-289.324799 137.075287 -35.815002 2.041592
-275.841492 137.075287 -35.815002 1.975376
-262.358185 137.075287 -35.815002 2.107456
-248.874893 137.075287 -35.815002 2.125965
-235.391602 137.075287 -35.815002 2.079488
-221.908295 137.075287 -35.815002 2.373257
-208.424988 137.075287 -35.815002 2.374139
-194.941696 137.075287 -35.815002 2.483966
-181.458389 137.075287 -35.815002 2.942034
-167.975098 137.075287 -35.815002 2.959769
-154.491791 137.075287 -35.815002 3.235512
-141.008499 137.075287 -35.815002 3.780041
-127.525192 137.075287 -35.815002 4.300220
-114.041885 137.075287 -35.815002 4.920043
-100.558594 137.075287 -35.815002 5.686712
-87.075287 137.075287 -35.815002 6.574674
-73.591980 137.075287 -35.815002 7.862813
-60.108704 137.075287 -35.815002 8.773996
-46.625397 137.075287 -35.815002 9.213778
-33.142090 137.075287 -35.815002 9.798065
-19.658783 137.075287 -35.815002 9.573747
-6.175476 137.075287 -35.815002 9.229743
7.307800 137.075287 -35.815002 8.645682
20.791107 137.075287 -35.815002 8.628617
34.274414 137.075287 -35.815002 7.977226
47.757721 137.075287 -35.815002 6.785237
61.240997 137.075287 -35.815002 6.069478
74.724304 137.075287 -35.815002 5.590665
88.207611 137.075287 -35.815002 4.338188
101.690918 137.075287 -35.815002 3.194463
115.174225 137.075287 -35.815002 2.636577
128.657501 137.075287 -35.815002 2.087056
142.140808 137.075287 -35.815002 1.751751
155.624115 137.075287 -35.815002 1.347237
169.107422 137.075287 -35.815002 1.117983
182.590698 137.075287 -35.815002 0.906295
196.074036 137.075287 -35.815002 0.783343
209.557312 137.075287 -35.815002 0.771231
223.040588 137.075287 -35.815002 0.630856
236.523926 137.075287 -35.815002 0.561958
250.007202 137.075287 -35.815002 0.452776
263.490540 137.075287 -35.815002 0.361481
276.973816 137.075287 -35.815002 0.304456
290.457092 137.075287 -35.815002 0.266687
303.940430 137.075287 -35.815002 0.229538
317.423706 137.075287 -35.815002 0.218389
330.907043 137.075287 -35.815002 0.000000
344.390320 137.075287 -35.815002 0.000000
-343.257996 123.591980 -35.815002 0.000000
-329.774689 123.591980 -35.815002 0.000000
-316.291382 123.591980 -35.815002 0.000000
-302.808105 123.591980 -35.815002 2.136908
-289.324799 123.591980 -35.815002 2.232301
-275.841492 123.591980 -35.815002 2.284194
-262.358185 123.591980 -35.815002 2.360976
-248.874893 123.591980 -35.815002 2.224965
-235.391602 123.591980 -35.815002 2.343768
-221.908295 123.591980 -35.815002 2.569054
-208.424988 123.591980 -35.815002 2.587387
-194.941696 123.591980 -35.815002 2.956277
-181.458389 123.591980 -35.815002 3.071333
-167.975098 123.591980 -35.815002 3.282349
-154.491791 123.591980 -35.815002 3.413500
-141.008499 123.591980 -35.815002 4.164238
-127.525192 123.591980 -35.815002 4.701181
-114.041885 123.591980 -35.815002 5.431918
-100.558594 123.591980 -35.815002 6.197625
-87.075287 123.591980 -35.815002 7.152081
-73.591980 123.591980 -35.815002 7.953696
-60.108704 123.591980 -35.815002 8.644683
-46.625397 123.591980 -35.815002 8.967356
-33.142090 123.591980 -35.815002 9.174953
-19.658783 123.591980 -35.815002 8.772402
-6.175476 123.591980 -35.815002 8.979651
7.307800 123.591980 -35.815002 8.879962
20.791107 123.591980 -35.815002 8.540679
34.274414 123.591980 -35.815002 7.807622
47.757721 123.591980 -35.815002 6.434502
61.240997 123.591980 -35.815002 5.731193
74.724304 123.591980 -35.815002 5.249421
88.207611 123.591980 -35.815002 4.447426
101.690918 123.591980 -35.815002 3.420133
115.174225 123.591980 -35.815002 2.538929
128.657501 123.591980 -35.815002 1.901924
142.140808 123.591980 -35.815002 1.691290
155.624115 123.591980 -35.815002 1.315979
169.107422 123.591980 -35.815002 1.078572
182.590698 123.591980 -35.815002 0.830688
196.074036 123.591980 -35.815002 0.749723
209.557312 123.591980 -35.815002 0.705508
223.040588 123.591980 -35.815002 0.576602
236.523926 123.591980 -35.815002 0.514200
250.007202 123.591980 -35.815002 0.432412
263.490540 123.591980 -35.815002 0.322302
276.973816 123.591980 -35.815002 0.259921
290.457092 123.591980 -35.815002 0.236421
303.940430 123.591980 -35.815002 0.189700
317.423706 123.591980 -35.815002 0.189981
330.907043 123.591980 -35.815002 0.000000
344.390320 123.591980 -35.815002 0.000000
-343.257996 110.108704 -35.815002 0.000000
-329.774689 110.108704 -35.815002 0.000000
-316.291382 110.108704 -35.815002 0.000000
-302.808105 110.108704 -35.815002 2.423315
-289.324799 110.108704 -35.815002 2.367092
-275.841492 110.108704 -35.815002 2.595601
-262.358185 110.108704 -35.815002 2.547214
-248.874893 110.108704 -35.815002 2.446334
-235.391602 110.108704 -35.815002 2.560957
-221.908295 110.108704 -35.815002 2.741753
-208.424988 110.108704 -35.815002 2.879039
-194.941696 110.108704 -35.815002 3.291461
-181.458389 110.108704 -35.815002 3.582224
-167.975098 110.108704 -35.815002 3.833851
-154.491791 110.108704 -35.815002 4.079937
-141.008499 110.108704 -35.815002 4.324354
-127.525192 110.108704 -35.815002 5.298648
-114.041885 110.108704 -35.815002 6.017527
-100.558594 110.108704 -35.815002 6.751818
-87.075287 110.108704 -35.815002 7.162663
-73.591980 110.108704 -35.815002 7.734289
-60.108704 110.108704 -35.815002 8.408039
-46.625397 110.108704 -35.815002 8.849488
-33.142090 110.108704 -35.815002 9.120403
-19.658783 110.108704 -35.815002 8.762604
-6.175476 110.108704 -35.815002 8.732188
7.307800 110.108704 -35.815002 8.661980
20.791107 110.108704 -35.815002 8.152134
34.274414 110.108704 -35.815002 7.486650
47.757721 110.108704 -35.815002 6.785588
61.240997 110.108704 -35.815002 5.830646
74.724304 110.108704 -35.815002 5.356118
88.207611 110.108704 -35.815002 4.931792
101.690918 110.108704 -35.815002 3.763800
115.174225 110.108704 -35.815002 2.964660
128.657501 110.108704 -35.815002 2.225447
142.140808 110.108704 -35.815002 1.745093
155.624115 110.108704 -35.815002 1.370729
169.107422 110.108704 -35.815002 1.012899
182.590698 110.108704 -35.815002 0.883827
196.074036 110.108704 -35.815002 0.780903
209.557312 110.108704 -35.815002 0.652870
223.040588 110.108704 -35.815002 0.546490
236.523926 110.108704 -35.815002 0.481273
250.007202 110.108704 -35.815002 0.392278
263.490540 110.108704 -35.815002 0.308758
276.973816 110.108704 -35.815002 0.240130
290.457092 110.108704 -35.815002 0.209851
303.940430 110.108704 -35.815002 0.172089
317.423706 110.108704 -35.815002 0.167580
330.907043 110.108704 -35.815002 0.000000
344.390320 110.108704 -35.815002 0.000000
-343.257996 96.625397 -35.815002 0.000000
-329.774689 96.625397 -35.815002 0.000000
-316.291382 96.625397 -35.815002 0.000000
-302.808105 96.625397 -35.815002 2.325424
-289.324799 96.625397 -35.815002 2.197245
-275.841492 96.625397 -35.815002 2.500664
-262.358185 96.625397 -35.815002 2.622141
-248.874893 96.625397 -35.815002 2.729245
-235.391602 96.625397 -35.815002 2.620178
-221.908295 96.625397 -35.815002 2.809680
-208.424988 96.625397 -35.815002 3.124383
-194.941696 96.625397 -35.815002 3.609828
-181.458389 96.625397 -35.815002 3.823137
-167.975098 96.625397 -35.815002 4.131920
-154.491791 96.625397 -35.815002 4.573567
-141.008499 96.625397 -35.815002 5.202218
-127.525192 96.625397 -35.815002 5.879696
-114.041885 96.625397 -35.815002 6.324329
-100.558594 96.625397 -35.815002 7.255695
-87.075287 96.625397 -35.815002 7.441885
-73.591980 96.625397 -35.815002 7.373067
-60.108704 96.625397 -35.815002 8.133117
-46.625397 96.625397 -35.815002 8.167801
-33.142090 96.625397 -35.815002 8.090168
-19.658783 96.625397 -35.815002 8.435760
-6.175476 96.625397 -35.815002 7.930426
7.307800 96.625397 -35.815002 7.811802
20.791107 96.625397 -35.815002 7.405868
34.274414 96.625397 -35.815002 7.259485
47.757721 96.625397 -35.815002 6.929088
61.240997 96.625397 -35.815002 6.658322
74.724304 96.625397 -35.815002 5.825215
88.207611 96.625397 -35.815002 5.438122
101.690918 96.625397 -35.815002 4.396258
115.174225 96.625397 -35.815002 3.653966
128.657501 96.625397 -35.815002 2.598922
142.140808 96.625397 -35.815002 1.980048
155.624115 96.625397 -35.815002 1.503368
169.107422 96.625397 -35.815002 1.140715
182.590698 96.625397 -35.815002 0.997256
196.074036 96.625397 -35.815002 0.853415
209.557312 96.625397 -35.815002 0.710763
223.040588 96.625397 -35.815002 0.581302
236.523926 96.625397 -35.815002 0.480174
250.007202 96.625397 -35.815002 0.372789
263.490540 96.625397 -35.815002 0.292280
276.973816 96.625397 -35.815002 0.240351
290.457092 96.625397 -35.815002 0.197787
303.940430 96.625397 -35.815002 0.165812
317.423706 96.625397 -35.815002 0.170409
330.907043 96.625397 -35.815002 0.000000
344.390320 96.625397 -35.815002 0.000000
-343.257996 83.142090 -35.815002 0.000000
-329.774689 83.142090 -35.815002 0.000000
-316.291382 83.142090 -35.815002 0.000000
-302.808105 83.142090 -35.815002 0.000000
-289.324799 83.142090 -35.815002 2.259889
-275.841492 83.142090 -35.815002 2.526660
-262.358185 83.142090 -35.815002 2.766654
-248.874893 83.142090 -35.815002 2.570298
-235.391602 83.142090 -35.815002 2.838202
-221.908295 83.142090 -35.815002 3.016603
-208.424988 83.142090 -35.815002 3.248846
-194.941696 83.142090 -35.815002 3.585758
-181.458389 83.142090 -35.815002 3.997805
-167.975098 83.142090 -35.815002 4.345891
-154.491791 83.142090 -35.815002 4.850803
-141.008499 83.142090 -35.815002 5.653243
-127.525192 83.142090 -35.815002 6.435646
-114.041885 83.142090 -35.815002 6.725194
-100.558594 83.142090 -35.815002 7.015318
-87.075287 83.142090 -35.815002 7.370829
-73.591980 83.142090 -35.815002 7.505764
-60.108704 83.142090 -35.815002 7.857072
-46.625397 83.142090 -35.815002 7.851013
-33.142090 83.142090 -35.815002 7.839524
-19.658783 83.142090 -35.815002 7.781489
-6.175476 83.142090 -35.815002 7.117158
7.307800 83.142090 -35.815002 7.066162
20.791107 83.142090 -35.815002 6.892512
34.274414 83.142090 -35.815002 7.586390
47.757721 83.142090 -35.815002 7.070730
61.240997 83.142090 -35.815002 6.803475
74.724304 83.142090 -35.815002 6.105990
88.207611 83.142090 -35.815002 5.396821
101.690918 83.142090 -35.815002 4.538179
115.174225 83.142090 -35.815002 3.883129
128.657501 83.142090 -35.815002 2.914651
142.140808 83.142090 -35.815002 2.465535
155.624115 83.142090 -35.815002 1.989061
169.107422 83.142090 -35.815002 1.578821
182.590698 83.142090 -35.815002 1.444515
196.074036 83.142090 -35.815002 1.053105
209.557312 83.142090 -35.815002 0.821888
223.040588 83.142090 -35.815002 0.648901
236.523926 83.142090 -35.815002 0.495552
250.007202 83.142090 -35.815002 0.416030
263.490540 83.142090 -35.815002 0.324500
276.973816 83.142090 -35.815002 0.253418
290.457092 83.142090 -35.815002 0.209585
303.940430 83.142090 -35.815002 0.193926
317.423706 83.142090 -35.815002 0.208609
330.907043 83.142090 -35.815002 0.000000
344.390320 83.142090 -35.815002 0.000000
-343.257996 69.658783 -35.815002 0.000000
-329.774689 69.658783 -35.815002 0.000000
-316.291382 69.658783 -35.815002 0.000000
-302.808105 69.658783 -35.815002 0.000000
-289.324799 69.658783 -35.815002 2.363649
-275.841492 69.658783 -35.815002 2.589681
-262.358185 69.658783 -35.815002 2.468075
-248.874893 69.658783 -35.815002 2.634453
-235.391602 69.658783 -35.815002 2.730503
-221.908295 69.658783 -35.815002 2.883571
-208.424988 69.658783 -35.815002 3.358936
-194.941696 69.658783 -35.815002 3.612758
-181.458389 69.658783 -35.815002 4.250990
-167.975098 69.658783 -35.815002 4.703153
-154.491791 69.658783 -35.815002 5.387221
-141.008499 69.658783 -35.815002 6.466912
-127.525192 69.658783 -35.815002 7.031018
-114.041885 69.658783 -35.815002 7.503801
-100.558594 69.658783 -35.815002 7.298425
-87.075287 69.658783 -35.815002 7.410885
-73.591980 69.658783 -35.815002 7.781360
-60.108704 69.658783 -35.815002 7.664465
-46.625397 69.658783 -35.815002 6.888865
-33.142090 69.658783 -35.815002 7.548522
-19.658783 69.658783 -35.815002 7.746202
-6.175476 69.658783 -35.815002 7.417775
7.307800 69.658783 -35.815002 6.791769
20.791107 69.658783 -35.815002 6.693833
34.274414 69.658783 -35.815002 7.486293
47.757721 69.658783 -35.815002 7.325921
61.240997 69.658783 -35.815002 7.239071
74.724304 69.658783 -35.815002 6.710315
88.207611 69.658783 -35.815002 6.022092
101.690918 69.658783 -35.815002 4.851465
115.174225 69.658783 -35.815002 3.938598
128.657501 69.658783 -35.815002 3.278854
142.140808 69.658783 -35.815002 2.992323
155.624115 69.658783 -35.815002 2.507058
169.107422 69.658783 -35.815002 2.136886
182.590698 69.658783 -35.815002 1.965739
196.074036 69.658783 -35.815002 1.462731
209.557312 69.658783 -35.815002 1.026276
223.040588 69.658783 -35.815002 0.760342
236.523926 69.658783 -35.815002 0.644753
250.007202 69.658783 -35.815002 0.501998
263.490540 69.658783 -35.815002 0.389174
276.973816 69.658783 -35.815002 0.286966
290.457092 69.658783 -35.815002 0.256728
303.940430 69.658783 -35.815002 0.238029
317.423706 69.658783 -35.815002 0.250962
330.907043 69.658783 -35.815002 0.000000
344.390320 69.658783 -35.815002 0.000000
-343.257996 56.175476 -35.815002 0.000000
-329.774689 56.175476 -35.815002 0.000000
-316.291382 56.175476 -35.815002 0.000000
-302.808105 56.175476 -35.815002 2.150914
-289.324799 56.175476 -35.815002 2.124911
-275.841492 56.175476 -35.815002 2.506412
-262.358185 56.175476 -35.815002 2.345690
-248.874893 56.175476 -35.815002 2.328402
-235.391602 56.175476 -35.815002 2.641376
-221.908295 56.175476 -35.815002 2.870834
-208.424988 56.175476 -35.815002 3.563522
-194.941696 56.175476 -35.815002 4.085839
-181.458389 56.175476 -35.815002 4.575046
-167.975098 56.175476 -35.815002 5.363883
-154.491791 56.175476 -35.815002 6.045064
-141.008499 56.175476 -35.815002 6.800374
-127.525192 56.175476 -35.815002 7.413304
-114.041885 56.175476 -35.815002 7.239003
-100.558594 56.175476 -35.815002 7.586209
-87.075287 56.175476 -35.815002 7.960588
-73.591980 56.175476 -35.815002 7.744257
-60.108704 56.175476 -35.815002 7.485549
-46.625397 56.175476 -35.815002 6.796049
-33.142090 56.175476 -35.815002 7.256546
-19.658783 56.175476 -35.815002 7.110990
-6.175476 56.175476 -35.815002 7.238276
7.307800 56.175476 -35.815002 7.251191
20.791107 56.175476 -35.815002 7.478642
34.274414 56.175476 -35.815002 7.632949
47.757721 56.175476 -35.815002 7.290933
61.240997 56.175476 -35.815002 7.053197
74.724304 56.175476 -35.815002 6.899595
88.207611 56.175476 -35.815002 6.388846
101.690918 56.175476 -35.815002 5.064907
115.174225 56.175476 -35.815002 3.942747
128.657501 56.175476 -35.815002 3.512717
142.140808 56.175476 -35.815002 3.321370
155.624115 56.175476 -35.815002 2.996866
169.107422 56.175476 -35.815002 2.795038
182.590698 56.175476 -35.815002 2.396239
196.074036 56.175476 -35.815002 1.868569
209.557312 56.175476 -35.815002 1.403315
223.040588 56.175476 -35.815002 1.124471
236.523926 56.175476 -35.815002 0.807402
250.007202 56.175476 -35.815002 0.672556
263.490540 56.175476 -35.815002 0.475735
276.973816 56.175476 -35.815002 0.363422
290.457092 56.175476 -35.815002 0.332374
303.940430 56.175476 -35.815002 0.281003
317.423706 56.175476 -35.815002 0.314562
330.907043 56.175476 -35.815002 0.000000
344.390320 56.175476 -35.815002 0.000000
-343.257996 42.692200 -35.815002 0.000000
-329.774689 42.692200 -35.815002 0.000000
-316.291382 42.692200 -35.815002 0.000000
-302.808105 42.692200 -35.815002 1.791113
-289.324799 42.692200 -35.815002 1.868405
-275.841492 42.692200 -35.815002 1.909941
-262.358185 42.692200 -35.815002 1.920229
-248.874893 42.692200 -35.815002 2.137068
-235.391602 42.692200 -35.815002 2.357589
-221.908295 42.692200 -35.815002 2.788752
-208.424988 42.692200 -35.815002 3.421138
-194.941696 42.692200 -35.815002 4.266635
-181.458389 42.692200 -35.815002 4.863007
-167.975098 42.692200 -35.815002 5.344435
-154.491791 42.692200 -35.815002 6.463151
-141.008499 42.692200 -35.815002 6.981246
-127.525192 42.692200 -35.815002 7.586373
-114.041885 42.692200 -35.815002 7.598195
-100.558594 42.692200 -35.815002 7.741447
-87.075287 42.692200 -35.815002 8.191642
-73.591980 42.692200 -35.815002 7.733582
-60.108704 42.692200 -35.815002 7.741949
-46.625397 42.692200 -35.815002 7.323016
-33.142090 42.692200 -35.815002 6.997126
-19.658783 42.692200 -35.815002 7.138273
-6.175476 42.692200 -35.815002 7.199791
7.307800 42.692200 -35.815002 6.722589
20.791107 42.692200 -35.815002 7.005206
34.274414 42.692200 -35.815002 6.954046
47.757721 42.692200 -35.815002 6.719270
61.240997 42.692200 -35.815002 6.612223
74.724304 42.692200 -35.815002 6.480512
88.207611 42.692200 -35.815002 5.682130
101.690918 42.692200 -35.815002 4.529707
115.174225 42.692200 -35.815002 3.999054
128.657501 42.692200 -35.815002 3.801158
142.140808 42.692200 -35.815002 3.709254
155.624115 42.692200 -35.815002 3.311493
169.107422 42.692200 -35.815002 2.968684
182.590698 42.692200 -35.815002 2.767073
196.074036 42.692200 -35.815002 2.280729
209.557312 42.692200 -35.815002 1.908850
223.040588 42.692200 -35.815002 1.339279
236.523926 42.692200 -35.815002 1.118760
250.007202 42.692200 -35.815002 0.819240
263.490540 42.692200 -35.815002 0.663925
276.973816 42.692200 -35.815002 0.548219
290.457092 42.692200 -35.815002 0.412865
303.940430 42.692200 -35.815002 0.348175
317.423706 42.692200 -35.815002 0.373926
330.907043 42.692200 -35.815002 0.000000
344.390320 42.692200 -35.815002 0.000000
-343.257996 29.208893 -35.815002 0.000000
-329.774689 29.208893 -35.815002 0.000000
-316.291382 29.208893 -35.815002 0.000000
-302.808105 29.208893 -35.815002 1.414797
-289.324799 29.208893 -35.815002 1.644406
-275.841492 29.208893 -35.815002 1.701524
-262.358185 29.208893 -35.815002 1.796540
-248.874893 29.208893 -35.815002 2.102420
-235.391602 29.208893 -35.815002 2.344797
-221.908295 29.208893 -35.815002 2.887414
-208.424988 29.208893 -35.815002 3.576090
-194.941696 29.208893 -35.815002 4.255460
-181.458389 29.208893 -35.815002 5.418521
-167.975098 29.208893 -35.815002 6.163114
-154.491791 29.208893 -35.815002 6.648198
-141.008499 29.208893 -35.815002 7.546569
-127.525192 29.208893 -35.815002 8.198226
-114.041885 29.208893 -35.815002 8.275633
-100.558594 29.208893 -35.815002 8.424353
-87.075287 29.208893 -35.815002 8.026027
-73.591980 29.208893 -35.815002 7.102324
-60.108704 29.208893 -35.815002 7.309559
-46.625397 29.208893 -35.815002 7.330021
-33.142090 29.208893 -35.815002 6.937718
-19.658783 29.208893 -35.815002 6.751177
-6.175476 29.208893 -35.815002 6.631036
7.307800 29.208893 -35.815002 6.650573
20.791107 29.208893 -35.815002 6.803808
34.274414 29.208893 -35.815002 6.087263
47.757721 29.208893 -35.815002 5.511960
61.240997 29.208893 -35.815002 5.989008
74.724304 29.208893 -35.815002 5.607114
88.207611 29.208893 -35.815002 4.982533
101.690918 29.208893 -35.815002 4.277351
115.174225 29.208893 -35.815002 3.573357
128.657501 29.208893 -35.815002 3.353229
142.140808 29.208893 -35.815002 3.545773
155.624115 29.208893 -35.815002 3.363346
169.107422 29.208893 -35.815002 3.471629
182.590698 29.208893 -35.815002 3.255072
196.074036 29.208893 -35.815002 2.794193
209.557312 29.208893 -35.815002 2.328452
223.040588 29.208893 -35.815002 1.733744
236.523926 29.208893 -35.815002 1.371456
250.007202 29.208893 -35.815002 1.121843
263.490540 29.208893 -35.815002 0.915837
276.973816 29.208893 -35.815002 0.674086
290.457092 29.208893 -35.815002 0.508198
303.940430 29.208893 -35.815002 0.388155
317.423706 29.208893 -35.815002 0.401388
330.907043 29.208893 -35.815002 0.000000
344.390320 29.208893 -35.815002 0.000000
-343.257996 15.725586 -35.815002 0.000000
-329.774689 15.725586 -35.815002 0.000000
-316.291382 15.725586 -35.815002 0.962357
-302.808105 15.725586 -35.815002 1.039626
-289.324799 15.725586 -35.815002 1.257309
-275.841492 15.725586 -35.815002 1.367167
-262.358185 15.725586 -35.815002 1.588851
-248.874893 15.725586 -35.815002 1.980834
-235.391602 15.725586 -35.815002 2.163888
-221.908295 15.725586 -35.815002 2.747573
-208.424988 15.725586 -35.815002 3.713278
-194.941696 15.725586 -35.815002 4.620131
-181.458389 15.725586 -35.815002 5.633815
-167.975098 15.725586 -35.815002 6.370918
-154.491791 15.725586 -35.815002 7.093824
-141.008499 15.725586 -35.815002 7.798388
-127.525192 15.725586 -35.815002 8.394383
-114.041885 15.725586 -35.815002 8.178161
-100.558594 15.725586 -35.815002 8.065176
-87.075287 15.725586 -35.815002 7.659978
-73.591980 15.725586 -35.815002 7.236971
-60.108704 15.725586 -35.815002 7.299400
-46.625397 15.725586 -35.815002 6.976680
-33.142090 15.725586 -35.815002 6.605578
-19.658783 15.725586 -35.815002 6.919787
-6.175476 15.725586 -35.815002 6.186606
7.307800 15.725586 -35.815002 6.559196
20.791107 15.725586 -35.815002 5.984236
34.274414 15.725586 -35.815002 5.477088
47.757721 15.725586 -35.815002 5.246841
61.240997 15.725586 -35.815002 5.672832
74.724304 15.725586 -35.815002 5.179558
88.207611 15.725586 -35.815002 4.265640
101.690918 15.725586 -35.815002 3.540379
115.174225 15.725586 -35.815002 3.164586
128.657501 15.725586 -35.815002 3.258262
142.140808 15.725586 -35.815002 3.298779
155.624115 15.725586 -35.815002 3.361576
169.107422 15.725586 -35.815002 3.450130
182.590698 15.725586 -35.815002 3.461811
196.074036 15.725586 -35.815002 3.197082
209.557312 15.725586 -35.815002 2.614857
223.040588 15.725586 -35.815002 2.185420
236.523926 15.725586 -35.815002 1.818681
250.007202 15.725586 -35.815002 1.480468
263.490540 15.725586 -35.815002 1.250820
276.973816 15.725586 -35.815002 0.921871
290.457092 15.725586 -35.815002 0.682031
303.940430 15.725586 -35.815002 0.494295
317.423706 15.725586 -35.815002 0.433580
330.907043 15.725586 -35.815002 0.000000
344.390320 15.725586 -35.815002 0.000000
-343.257996 2.242279 -35.815002 0.000000
-329.774689 2.242279 -35.815002 0.000000
-316.291382 2.242279 -35.815002 0.752417
-302.808105 2.242279 -35.815002 1.014113
-289.324799 2.242279 -35.815002 1.190823
-275.841492 2.242279 -35.815002 1.491557
-262.358185 2.242279 -35.815002 1.349455
-248.874893 2.242279 -35.815002 1.754214
-235.391602 2.242279 -35.815002 2.320759
-221.908295 2.242279 -35.815002 2.896908
-208.424988 2.242279 -35.815002 3.764654
-194.941696 2.242279 -35.815002 4.591586
-181.458389 2.242279 -35.815002 5.676517
-167.975098 2.242279 -35.815002 6.306794
-154.491791 2.242279 -35.815002 6.885215
-141.008499 2.242279 -35.815002 8.250960
-127.525192 2.242279 -35.815002 8.910566
-114.041885 2.242279 -35.815002 8.199033
-100.558594 2.242279 -35.815002 7.623412
-87.075287 2.242279 -35.815002 7.656246
-73.591980 2.242279 -35.815002 7.132834
-60.108704 2.242279 -35.815002 7.144055
-46.625397 2.242279 -35.815002 6.894748
-33.142090 2.242279 -35.815002 6.294656
-19.658783 2.242279 -35.815002 5.960451
-6.175476 2.242279 -35.815002 5.757783
7.307800 2.242279 -35.815002 5.524797
20.791107 2.242279 -35.815002 5.364589
34.274414 2.242279 -35.815002 5.018427
47.757721 2.242279 -35.815002 4.508320
61.240997 2.242279 -35.815002 4.919718
74.724304 2.242279 -35.815002 4.702398
88.207611 2.242279 -35.815002 3.781861
101.690918 2.242279 -35.815002 3.288700
115.174225 2.242279 -35.815002 3.080918
128.657501 2.242279 -35.815002 3.102713
142.140808 2.242279 -35.815002 3.109617
155.624115 2.242279 -35.815002 3.194702
169.107422 2.242279 -35.815002 3.305197
182.590698 2.242279 -35.815002 3.450987
196.074036 2.242279 -35.815002 3.415888
209.557312 2.242279 -35.815002 3.024594
223.040588 2.242279 -35.815002 2.727872
236.523926 2.242279 -35.815002 2.149546
250.007202 2.242279 -35.815002 1.651256
263.490540 2.242279 -35.815002 1.470670
276.973816 2.242279 -35.815002 1.172551
290.457092 2.242279 -35.815002 0.825402
303.940430 2.242279 -35.815002 0.509835
317.423706 2.242279 -35.815002 0.401057
330.907043 2.242279 -35.815002 0.000000
344.390320 2.242279 -35.815002 0.000000
-343.257996 -11.240997 -35.815002 0.000000
-329.774689 -11.240997 -35.815002 0.000000
-316.291382 -11.240997 -35.815002 0.729549
-302.808105 -11.240997 -35.815002 0.705586
-289.324799 -11.240997 -35.815002 1.066639
-275.841492 -11.240997 -35.815002 1.103984
-262.358185 -11.240997 -35.815002 1.074313
-248.874893 -11.240997 -35.815002 1.711404
-235.391602 -11.240997 -35.815002 2.195436
-221.908295 -11.240997 -35.815002 3.018090
-208.424988 -11.240997 -35.815002 4.247880
-194.941696 -11.240997 -35.815002 5.211796
-181.458389 -11.240997 -35.815002 6.520210
-167.975098 -11.240997 -35.815002 6.547170
-154.491791 -11.240997 -35.815002 7.403118
-141.008499 -11.240997 -35.815002 8.134213
-127.525192 -11.240997 -35.815002 8.288347
-114.041885 -11.240997 -35.815002 8.520932
-100.558594 -11.240997 -35.815002 8.951044
-87.075287 -11.240997 -35.815002 8.084311
-73.591980 -11.240997 -35.815002 7.295109
-60.108704 -11.240997 -35.815002 6.720850
-46.625397 -11.240997 -35.815002 6.483110
-33.142090 -11.240997 -35.815002 6.670851
-19.658783 -11.240997 -35.815002 6.373259
-6.175476 -11.240997 -35.815002 5.750284
7.307800 -11.240997 -35.815002 5.783843
20.791107 -11.240997 -35.815002 5.326394
34.274414 -11.240997 -35.815002 4.631423
47.757721 -11.240997 -35.815002 4.202349
61.240997 -11.240997 -35.815002 4.535527
74.724304 -11.240997 -35.815002 4.252482
88.207611 -11.240997 -35.815002 3.721335
101.690918 -11.240997 -35.815002 3.326608
115.174225 -11.240997 -35.815002 2.918522
128.657501 -11.240997 -35.815002 2.990804
142.140808 -11.240997 -35.815002 2.922499
155.624115 -11.240997 -35.815002 3.109989
169.107422 -11.240997 -35.815002 3.238381
182.590698 -11.240997 -35.815002 3.558140
196.074036 -11.240997 -35.815002 3.560745
209.557312 -11.240997 -35.815002 3.413447
223.040588 -11.240997 -35.815002 2.968015
236.523926 -11.240997 -35.815002 2.379803
250.007202 -11.240997 -35.815002 1.717517
263.490540 -11.240997 -35.815002 1.392075
276.973816 -11.240997 -35.815002 1.304890
290.457092 -11.240997 -35.815002 0.911601
303.940430 -11.240997 -35.815002 0.691140
317.423706 -11.240997 -35.815002 0.443707
330.907043 -11.240997 -35.815002 0.000000
344.390320 -11.240997 -35.815002 0.000000
-343.257996 -24.724304 -35.815002 0.000000
-329.774689 -24.724304 -35.815002 0.000000
-316.291382 -24.724304 -35.815002 0.889592
-302.808105 -24.724304 -35.815002 0.832246
-289.324799 -24.724304 -35.815002 0.800914
-275.841492 -24.724304 -35.815002 0.912252
-262.358185 -24.724304 -35.815002 1.129032
-248.874893 -24.724304 -35.815002 1.555112
-235.391602 -24.724304 -35.815002 2.428947
-221.908295 -24.724304 -35.815002 2.966985
-208.424988 -24.724304 -35.815002 3.947871
-194.941696 -24.724304 -35.815002 5.055670
-181.458389 -24.724304 -35.815002 6.903424
-167.975098 -24.724304 -35.815002 7.482438
-154.491791 -24.724304 -35.815002 7.605209
-141.008499 -24.724304 -35.815002 8.639311
-127.525192 -24.724304 -35.815002 8.652601
-114.041885 -24.724304 -35.815002 8.892279
-100.558594 -24.724304 -35.815002 9.199968
-87.075287 -24.724304 -35.815002 8.725666
-73.591980 -24.724304 -35.815002 7.643443
-60.108704 -24.724304 -35.815002 6.572928
-46.625397 -24.724304 -35.815002 6.348292
-33.142090 -24.724304 -35.815002 6.553413
-19.658783 -24.724304 -35.815002 5.905199
-6.175476 -24.724304 -35.815002 5.653115
7.307800 -24.724304 -35.815002 5.769657
20.791107 -24.724304 -35.815002 5.043328
34.274414 -24.724304 -35.815002 4.823331
47.757721 -24.724304 -35.815002 4.490673
61.240997 -24.724304 -35.815002 4.458118
74.724304 -24.724304 -35.815002 3.926177
88.207611 -24.724304 -35.815002 3.440771
101.690918 -24.724304 -35.815002 3.124846
115.174225 -24.724304 -35.815002 2.798086
128.657501 -24.724304 -35.815002 2.991516
142.140808 -24.724304 -35.815002 2.985549
155.624115 -24.724304 -35.815002 2.978421
169.107422 -24.724304 -35.815002 3.127470
182.590698 -24.724304 -35.815002 3.477236
196.074036 -24.724304 -35.815002 3.568555
209.557312 -24.724304 -35.815002 3.471231
223.040588 -24.724304 -35.815002 3.048140
236.523926 -24.724304 -35.815002 2.508157
250.007202 -24.724304 -35.815002 1.987876
263.490540 -24.724304 -35.815002 1.444552
276.973816 -24.724304 -35.815002 1.385421
290.457092 -24.724304 -35.815002 1.112025
303.940430 -24.724304 -35.815002 0.620625
317.423706 -24.724304 -35.815002 0.551187
330.907043 -24.724304 -35.815002 0.000000
344.390320 -24.724304 -35.815002 0.000000
-343.257996 -38.207611 -35.815002 0.000000
-329.774689 -38.207611 -35.815002 0.000000
-316.291382 -38.207611 -35.815002 1.098756
-302.808105 -38.207611 -35.815002 0.962691
-289.324799 -38.207611 -35.815002 0.942622
-275.841492 -38.207611 -35.815002 1.344134
-262.358185 -38.207611 -35.815002 1.249084
-248.874893 -38.207611 -35.815002 1.855365
-235.391602 -38.207611 -35.815002 2.417517
-221.908295 -38.207611 -35.815002 2.946039
-208.424988 -38.207611 -35.815002 4.131785
-194.941696 -38.207611 -35.815002 5.588657
-181.458389 -38.207611 -35.815002 7.334794
-167.975098 -38.207611 -35.815002 7.876147
-154.491791 -38.207611 -35.815002 8.766665
-141.008499 -38.207611 -35.815002 9.184566
-127.525192 -38.207611 -35.815002 8.797885
-114.041885 -38.207611 -35.815002 8.884705
-100.558594 -38.207611 -35.815002 9.216210
-87.075287 -38.207611 -35.815002 9.365236
-73.591980 -38.207611 -35.815002 8.011330
-60.108704 -38.207611 -35.815002 6.818223
-46.625397 -38.207611 -35.815002 6.083876
-33.142090 -38.207611 -35.815002 5.813936
-19.658783 -38.207611 -35.815002 5.121111
-6.175476 -38.207611 -35.815002 5.243258
7.307800 -38.207611 -35.815002 5.359977
20.791107 -38.207611 -35.815002 4.761806
34.274414 -38.207611 -35.815002 4.390732
47.757721 -38.207611 -35.815002 4.177104
61.240997 -38.207611 -35.815002 3.970502
74.724304 -38.207611 -35.815002 3.421814
88.207611 -38.207611 -35.815002 3.102070
101.690918 -38.207611 -35.815002 2.780335
115.174225 -38.207611 -35.815002 2.959087
128.657501 -38.207611 -35.815002 2.957102
142.140808 -38.207611 -35.815002 2.905788
155.624115 -38.207611 -35.815002 2.811924
169.107422 -38.207611 -35.815002 3.002926
182.590698 -38.207611 -35.815002 3.389155
196.074036 -38.207611 -35.815002 3.441842
209.557312 -38.207611 -35.815002 3.289734
223.040588 -38.207611 -35.815002 2.850892
236.523926 -38.207611 -35.815002 2.315580
250.007202 -38.207611 -35.815002 1.860229
263.490540 -38.207611 -35.815002 1.524607
276.973816 -38.207611 -35.815002 1.232922
290.457092 -38.207611 -35.815002 1.004760
303.940430 -38.207611 -35.815002 0.699422
317.423706 -38.207611 -35.815002 0.466224
330.907043 -38.207611 -35.815002 0.000000
344.390320 -38.207611 -35.815002 0.000000
-343.257996 -51.690918 -35.815002 0.000000
-329.774689 -51.690918 -35.815002 0.000000
-316.291382 -51.690918 -35.815002 1.257787
-302.808105 -51.690918 -35.815002 1.356311
-289.324799 -51.690918 -35.815002 1.273934
-275.841492 -51.690918 -35.815002 1.384716
-262.358185 -51.690918 -35.815002 1.560065
-248.874893 -51.690918 -35.815002 1.752716
-235.391602 -51.690918 -35.815002 2.248522
-221.908295 -51.690918 -35.815002 3.286614
-208.424988 -51.690918 -35.815002 5.024370
-194.941696 -51.690918 -35.815002 6.299150
-181.458389 -51.690918 -35.815002 7.478365
-167.975098 -51.690918 -35.815002 8.337582
-154.491791 -51.690918 -35.815002 9.812048
-141.008499 -51.690918 -35.815002 9.886503
-127.525192 -51.690918 -35.815002 10.193207
-114.041885 -51.690918 -35.815002 9.216781
-100.558594 -51.690918 -35.815002 8.371426
-87.075287 -51.690918 -35.815002 8.421982
-73.591980 -51.690918 -35.815002 8.148196
-60.108704 -51.690918 -35.815002 7.297424
-46.625397 -51.690918 -35.815002 6.225410
-33.142090 -51.690918 -35.815002 5.477448
-19.658783 -51.690918 -35.815002 5.050419
-6.175476 -51.690918 -35.815002 5.313090
7.307800 -51.690918 -35.815002 4.935348
20.791107 -51.690918 -35.815002 4.424836
34.274414 -51.690918 -35.815002 4.113511
47.757721 -51.690918 -35.815002 3.682645
61.240997 -51.690918 -35.815002 3.332329
74.724304 -51.690918 -35.815002 3.077451
88.207611 -51.690918 -35.815002 2.923754
101.690918 -51.690918 -35.815002 2.801646
115.174225 -51.690918 -35.815002 2.710463
128.657501 -51.690918 -35.815002 2.760838
142.140808 -51.690918 -35.815002 2.696850
155.624115 -51.690918 -35.815002 2.839209
169.107422 -51.690918 -35.815002 2.949036
182.590698 -51.690918 -35.815002 3.348993
196.074036 -51.690918 -35.815002 3.545729
209.557312 -51.690918 -35.815002 3.228170
223.040588 -51.690918 -35.815002 2.858197
236.523926 -51.690918 -35.815002 2.337213
250.007202 -51.690918 -35.815002 1.767370
263.490540 -51.690918 -35.815002 1.535512
276.973816 -51.690918 -35.815002 1.248933
290.457092 -51.690918 -35.815002 1.100741
303.940430 -51.690918 -35.815002 0.913963
317.423706 -51.690918 -35.815002 0.776873
330.907043 -51.690918 -35.815002 0.000000
344.390320 -51.690918 -35.815002 0.000000
-343.257996 -65.174225 -35.815002 0.000000
-329.774689 -65.174225 -35.815002 0.000000
-316.291382 -65.174225 -35.815002 1.230040
-302.808105 -65.174225 -35.815002 1.193511
-289.324799 -65.174225 -35.815002 1.202779
-275.841492 -65.174225 -35.815002 1.516865
-262.358185 -65.174225 -35.815002 1.623433
-248.874893 -65.174225 -35.815002 2.262387
-235.391602 -65.174225 -35.815002 2.979812
-221.908295 -65.174225 -35.815002 4.272426
-208.424988 -65.174225 -35.815002 5.794632
-194.941696 -65.174225 -35.815002 7.189214
-181.458389 -65.174225 -35.815002 8.633484
-167.975098 -65.174225 -35.815002 9.725425
-154.491791 -65.174225 -35.815002 10.610865
-141.008499 -65.174225 -35.815002 11.468529
-127.525192 -65.174225 -35.815002 10.569988
-114.041885 -65.174225 -35.815002 9.607427
-100.558594 -65.174225 -35.815002 7.855214
-87.075287 -65.174225 -35.815002 8.082074
-73.591980 -65.174225 -35.815002 7.392551
-60.108704 -65.174225 -35.815002 6.400283
-46.625397 -65.174225 -35.815002 6.002332
-33.142090 -65.174225 -35.815002 5.322945
-19.658783 -65.174225 -35.815002 4.950863
-6.175476 -65.174225 -35.815002 4.921245
7.307800 -65.174225 -35.815002 4.744274
20.791107 -65.174225 -35.815002 4.281550
34.274414 -65.174225 -35.815002 3.731447
47.757721 -65.174225 -35.815002 3.260332
61.240997 -65.174225 -35.815002 2.887612
74.724304 -65.174225 -35.815002 2.691985
88.207611 -65.174225 -35.815002 2.626569
101.690918 -65.174225 -35.815002 2.459299
115.174225 -65.174225 -35.815002 2.301006
128.657501 -65.174225 -35.815002 2.406841
142.140808 -65.174225 -35.815002 2.619939
155.624115 -65.174225 -35.815002 2.856124
169.107422 -65.174225 -35.815002 3.153852
182.590698 -65.174225 -35.815002 3.200892
196.074036 -65.174225 -35.815002 3.264305
209.557312 -65.174225 -35.815002 3.119094
223.040588 -65.174225 -35.815002 2.635376
236.523926 -65.174225 -35.815002 2.352052
250.007202 -65.174225 -35.815002 1.772865
263.490540 -65.174225 -35.815002 1.590668
276.973816 -65.174225 -35.815002 1.341872
290.457092 -65.174225 -35.815002 1.236794
303.940430 -65.174225 -35.815002 1.101843
317.423706 -65.174225 -35.815002 0.918702
330.907043 -65.174225 -35.815002 0.000000
344.390320 -65.174225 -35.815002 0.000000
-343.257996 -78.657501 -35.815002 0.000000
-329.774689 -78.657501 -35.815002 0.000000
-316.291382 -78.657501 -35.815002 1.406145
-302.808105 -78.657501 -35.815002 1.675272
-289.324799 -78.657501 -35.815002 1.766599
-275.841492 -78.657501 -35.815002 2.009858
-262.358185 -78.657501 -35.815002 2.488971
-248.874893 -78.657501 -35.815002 2.911356
-235.391602 -78.657501 -35.815002 3.760412
-221.908295 -78.657501 -35.815002 6.019071
-208.424988 -78.657501 -35.815002 7.570750
-194.941696 -78.657501 -35.815002 0.000000
-181.458389 -78.657501 -35.815002 11.360127
-167.975098 -78.657501 -35.815002 0.000000
-154.491791 -78.657501 -35.815002 13.136489
-141.008499 -78.657501 -35.815002 11.161192
-127.525192 -78.657501 -35.815002 9.991262
-114.041885 -78.657501 -35.815002 9.790143
-100.558594 -78.657501 -35.815002 8.292424
-87.075287 -78.657501 -35.815002 7.387277
-73.591980 -78.657501 -35.815002 6.935181
-60.108704 -78.657501 -35.815002 5.916900
-46.625397 -78.657501 -35.815002 5.749990
-33.142090 -78.657501 -35.815002 5.344896
-19.658783 -78.657501 -35.815002 4.878230
-6.175476 -78.657501 -35.815002 4.922030
7.307800 -78.657501 -35.815002 4.361195
20.791107 -78.657501 -35.815002 4.056998
34.274414 -78.657501 -35.815002 3.338502
47.757721 -78.657501 -35.815002 2.770458
61.240997 -78.657501 -35.815002 2.514590
74.724304 -78.657501 -35.815002 2.257665
88.207611 -78.657501 -35.815002 2.252575
101.690918 -78.657501 -35.815002 2.146311
115.174225 -78.657501 -35.815002 2.071715
128.657501 -78.657501 -35.815002 2.146353
142.140808 -78.657501 -35.815002 2.477406
155.624115 -78.657501 -35.815002 2.903263
169.107422 -78.657501 -35.815002 3.190001
182.590698 -78.657501 -35.815002 3.283111
196.074036 -78.657501 -35.815002 3.272059
209.557312 -78.657501 -35.815002 3.052453
223.040588 -78.657501 -35.815002 2.705182
236.523926 -78.657501 -35.815002 2.357790
250.007202 -78.657501 -35.815002 1.929335
263.490540 -78.657501 -35.815002 1.714478
276.973816 -78.657501 -35.815002 1.723975
290.457092 -78.657501 -35.815002 1.186478
303.940430 -78.657501 -35.815002 1.091023
317.423706 -78.657501 -35.815002 0.952071
330.907043 -78.657501 -35.815002 0.000000
344.390320 -78.657501 -35.815002 0.000000
-343.257996 -92.140808 -35.815002 0.000000
-329.774689 -92.140808 -35.815002 0.000000
-316.291382 -92.140808 -35.815002 2.420270
-302.808105 -92.140808 -35.815002 2.530115
-289.324799 -92.140808 -35.815002 2.771961
-275.841492 -92.140808 -35.815002 3.172254
-262.358185 -92.140808 -35.815002 4.270596
-248.874893 -92.140808 -35.815002 5.330263
-235.391602 -92.140808 -35.815002 0.000000
-221.908295 -92.140808 -35.815002 0.000000
-208.424988 -92.140808 -35.815002 0.000000
-194.941696 -92.140808 -35.815002 0.000000
-181.458389 -92.140808 -35.815002 0.000000
-167.975098 -92.140808 -35.815002 0.000000
-154.491791 -92.140808 -35.815002 14.128922
-141.008499 -92.140808 -35.815002 13.615611
-127.525192 -92.140808 -35.815002 11.190606
-114.041885 -92.140808 -35.815002 9.651538
-100.558594 -92.140808 -35.815002 8.233778
-87.075287 -92.140808 -35.815002 7.269209
-73.591980 -92.140808 -35.815002 7.025734
-60.108704 -92.140808 -35.815002 5.720694
-46.625397 -92.140808 -35.815002 5.465527
-33.142090 -92.140808 -35.815002 5.199205
-19.658783 -92.140808 -35.815002 4.684904
-6.175476 -92.140808 -35.815002 4.664438
7.307800 -92.140808 -35.815002 4.070701
20.791107 -92.140808 -35.815002 3.597659
34.274414 -92.140808 -35.815002 3.347972
47.757721 -92.140808 -35.815002 2.633274
61.240997 -92.140808 -35.815002 2.203959
74.724304 -92.140808 -35.815002 2.123264
88.207611 -92.140808 -35.815002 1.945094
101.690918 -92.140808 -35.815002 1.987578
115.174225 -92.140808 -35.815002 2.112825
128.657501 -92.140808 -35.815002 2.390316
142.140808 -92.140808 -35.815002 2.529023
155.624115 -92.140808 -35.815002 2.983317
169.107422 -92.140808 -35.815002 3.282960
182.590698 -92.140808 -35.815002 3.449887
196.074036 -92.140808 -35.815002 3.361702
209.557312 -92.140808 -35.815002 3.255862
223.040588 -92.140808 -35.815002 2.825665
236.523926 -92.140808 -35.815002 2.264585
250.007202 -92.140808 -35.815002 1.941832
263.490540 -92.140808 -35.815002 1.779295
276.973816 -92.140808 -35.815002 1.677097
290.457092 -92.140808 -35.815002 1.600731
303.940430 -92.140808 -35.815002 1.647015
317.423706 -92.140808 -35.815002 1.846252
330.907043 -92.140808 -35.815002 0.000000
344.390320 -92.140808 -35.815002 0.000000
-343.257996 -105.624115 -35.815002 0.000000
-329.774689 -105.624115 -35.815002 0.000000
-316.291382 -105.624115 -35.815002 0.000000
-302.808105 -105.624115 -35.815002 4.849833
-289.324799 -105.624115 -35.815002 6.021931
-275.841492 -105.624115 -35.815002 6.015260
-262.358185 -105.624115 -35.815002 7.372644
-248.874893 -105.624115 -35.815002 8.847547
-235.391602 -105.624115 -35.815002 0.000000
-221.908295 -105.624115 -35.815002 0.000000
-208.424988 -105.624115 -35.815002 0.000000
-194.941696 -105.624115 -35.815002 0.000000
-181.458389 -105.624115 -35.815002 0.000000
-167.975098 -105.624115 -35.815002 0.000000
-154.491791 -105.624115 -35.815002 14.699767
-141.008499 -105.624115 -35.815002 14.203178
-127.525192 -105.624115 -35.815002 11.370162
-114.041885 -105.624115 -35.815002 10.682789
-100.558594 -105.624115 -35.815002 9.081868
-87.075287 -105.624115 -35.815002 8.128366
-73.591980 -105.624115 -35.815002 7.115943
-60.108704 -105.624115 -35.815002 5.781359
-46.625397 -105.624115 -35.815002 5.581188
-33.142090 -105.624115 -35.815002 5.231773
-19.658783 -105.624115 -35.815002 4.907762
-6.175476 -105.624115 -35.815002 4.717605
7.307800 -105.624115 -35.815002 3.945485
20.791107 -105.624115 -35.815002 3.480072
34.274414 -105.624115 -35.815002 3.193875
47.757721 -105.624115 -35.815002 2.653972
61.240997 -105.624115 -35.815002 2.128043
74.724304 -105.624115 -35.815002 2.136998
88.207611 -105.624115 -35.815002 1.983565
101.690918 -105.624115 -35.815002 2.255192
115.174225 -105.624115 -35.815002 2.188833
128.657501 -105.624115 -35.815002 2.516841
142.140808 -105.624115 -35.815002 2.905663
155.624115 -105.624115 -35.815002 3.354522
169.107422 -105.624115 -35.815002 3.706382
182.590698 -105.624115 -35.815002 4.013405
196.074036 -105.624115 -35.815002 3.849010
209.557312 -105.624115 -35.815002 3.560391
223.040588 -105.624115 -35.815002 3.272857
236.523926 -105.624115 -35.815002 2.521135
250.007202 -105.624115 -35.815002 2.245554
263.490540 -105.624115 -35.815002 2.121427
276.973816 -105.624115 -35.815002 2.317125
290.457092 -105.624115 -35.815002 2.600386
303.940430 -105.624115 -35.815002 2.342238
317.423706 -105.624115 -35.815002 2.797436
330.907043 -105.624115 -35.815002 0.000000
344.390320 -105.624115 -35.815002 0.000000
-343.257996 -119.107422 -35.815002 0.000000
-329.774689 -119.107422 -35.815002 0.000000
-316.291382 -119.107422 -35.815002 0.000000
-302.808105 -119.107422 -35.815002 0.000000
-289.324799 -119.107422 -35.815002 9.083628
-275.841492 -119.107422 -35.815002 9.625598
-262.358185 -119.107422 -35.815002 11.954642
-248.874893 -119.107422 -35.815002 14.176673
-235.391602 -119.107422 -35.815002 0.000000
-221.908295 -119.107422 -35.815002 0.000000
-208.424988 -119.107422 -35.815002 0.000000
-194.941696 -119.107422 -35.815002 0.000000
-181.458389 -119.107422 -35.815002 0.000000
-167.975098 -119.107422 -35.815002 0.000000
-154.491791 -119.107422 -35.815002 18.576141
-141.008499 -119.107422 -35.815002 16.184874
-127.525192 -119.107422 -35.815002 14.058234
-114.041885 -119.107422 -35.815002 12.236520
-100.558594 -119.107422 -35.815002 10.262099
-87.075287 -119.107422 -35.815002 8.797350
-73.591980 -119.107422 -35.815002 7.885602
-60.108704 -119.107422 -35.815002 6.288442
-46.625397 -119.107422 -35.815002 5.542617
-33.142090 -119.107422 -35.815002 5.667838
-19.658783 -119.107422 -35.815002 5.239467
-6.175476 -119.107422 -35.815002 4.848185
7.307800 -119.107422 -35.815002 4.110246
20.791107 -119.107422 -35.815002 3.678383
34.274414 -119.107422 -35.815002 3.162348
47.757721 -119.107422 -35.815002 2.807119
61.240997 -119.107422 -35.815002 2.576396
74.724304 -119.107422 -35.815002 2.504069
88.207611 -119.107422 -35.815002 2.563031
101.690918 -119.107422 -35.815002 2.648745
115.174225 -119.107422 -35.815002 2.724393
128.657501 -119.107422 -35.815002 2.911555
142.140808 -119.107422 -35.815002 3.242280
155.624115 -119.107422 -35.815002 3.810990
169.107422 -119.107422 -35.815002 4.186338
182.590698 -119.107422 -35.815002 4.541987
196.074036 -119.107422 -35.815002 4.731497
209.557312 -119.107422 -35.815002 4.550861
223.040588 -119.107422 -35.815002 4.059455
236.523926 -119.107422 -35.815002 3.449718
250.007202 -119.107422 -35.815002 3.126698
263.490540 -119.107422 -35.815002 3.745677
276.973816 -119.107422 -35.815002 3.601251
290.457092 -119.107422 -35.815002 3.777719
303.940430 -119.107422 -35.815002 3.736477
317.423706 -119.107422 -35.815002 0.000000
330.907043 -119.107422 -35.815002 0.000000
344.390320 -119.107422 -35.815002 0.000000
-343.257996 -132.590698 -35.815002 0.000000
-329.774689 -132.590698 -35.815002 0.000000
-316.291382 -132.590698 -35.815002 0.000000
-302.808105 -132.590698 -35.815002 0.000000
-289.324799 -132.590698 -35.815002 15.108601
-275.841492 -132.590698 -35.815002 0.000000
-262.358185 -132.590698 -35.815002 19.055668
-248.874893 -132.590698 -35.815002 0.000000
-235.391602 -132.590698 -35.815002 0.000000
-221.908295 -132.590698 -35.815002 0.000000
-208.424988 -132.590698 -35.815002 0.000000
-194.941696 -132.590698 -35.815002 0.000000
-181.458389 -132.590698 -35.815002 0.000000
-167.975098 -132.590698 -35.815002 0.000000
-154.491791 -132.590698 -35.815002 22.093275
-141.008499 -132.590698 -35.815002 0.000000
-127.525192 -132.590698 -35.815002 16.447748
-114.041885 -132.590698 -35.815002 0.000000
-100.558594 -132.590698 -35.815002 12.244970
-87.075287 -132.590698 -35.815002 11.069674
-73.591980 -132.590698 -35.815002 8.854701
-60.108704 -132.590698 -35.815002 7.367770
-46.625397 -132.590698 -35.815002 5.957224
-33.142090 -132.590698 -35.815002 6.265759
-19.658783 -132.590698 -35.815002 6.343847
-6.175476 -132.590698 -35.815002 5.433412
7.307800 -132.590698 -35.815002 4.688489
20.791107 -132.590698 -35.815002 4.364774
34.274414 -132.590698 -35.815002 3.615104
47.757721 -132.590698 -35.815002 3.474913
61.240997 -132.590698 -35.815002 3.151988
74.724304 -132.590698 -35.815002 2.909485
88.207611 -132.590698 -35.815002 2.973523
101.690918 -132.590698 -35.815002 3.320489
115.174225 -132.590698 -35.815002 3.344933
128.657501 -132.590698 -35.815002 3.723113
142.140808 -132.590698 -35.815002 3.767997
155.624115 -132.590698 -35.815002 4.557905
169.107422 -132.590698 -35.815002 5.356806
182.590698 -132.590698 -35.815002 5.689821
196.074036 -132.590698 -35.815002 5.729611
209.557312 -132.590698 -35.815002 5.369561
223.040588 -132.590698 -35.815002 5.369259
236.523926 -132.590698 -35.815002 5.156012
250.007202 -132.590698 -35.815002 5.143859
263.490540 -132.590698 -35.815002 5.185268
276.973816 -132.590698 -35.815002 5.988691
290.457092 -132.590698 -35.815002 6.128236
303.940430 -132.590698 -35.815002 0.000000
317.423706 -132.590698 -35.815002 0.000000
330.907043 -132.590698 -35.815002 0.000000
344.390320 -132.590698 -35.815002 0.000000
-343.257996 -146.074036 -35.815002 0.000000
-329.774689 -146.074036 -35.815002 0.000000
-316.291382 -146.074036 -35.815002 0.000000
-302.808105 -146.074036 -35.815002 0.000000
-289.324799 -146.074036 -35.815002 0.000000
-275.841492 -146.074036 -35.815002 0.000000
-262.358185 -146.074036 -35.815002 0.000000
-248.874893 -146.074036 -35.815002 0.000000
-235.391602 -146.074036 -35.815002 0.000000
-221.908295 -146.074036 -35.815002 0.000000
-208.424988 -146.074036 -35.815002 0.000000
-194.941696 -146.074036 -35.815002 0.000000
-181.458389 -146.074036 -35.815002 0.000000
-167.975098 -146.074036 -35.815002 0.000000
-154.491791 -146.074036 -35.815002 0.000000
-141.008499 -146.074036 -35.815002 0.000000
-127.525192 -146.074036 -35.815002 0.000000
-114.041885 -146.074036 -35.815002 0.000000
-100.558594 -146.074036 -35.815002 0.000000
-87.075287 -146.074036 -35.815002 0.000000
-73.591980 -146.074036 -35.815002 0.000000
-60.108704 -146.074036 -35.815002 0.000000
-46.625397 -146.074036 -35.815002 7.264626
-33.142090 -146.074036 -35.815002 6.841381
-19.658783 -146.074036 -35.815002 7.140913
-6.175476 -146.074036 -35.815002 5.880699
7.307800 -146.074036 -35.815002 6.044294
20.791107 -146.074036 -35.815002 4.717593
34.274414 -146.074036 -35.815002 4.505583
47.757721 -146.074036 -35.815002 0.000000
61.240997 -146.074036 -35.815002 0.000000
74.724304 -146.074036 -35.815002 0.000000
88.207611 -146.074036 -35.815002 0.000000
101.690918 -146.074036 -35.815002 4.002234
115.174225 -146.074036 -35.815002 4.370636
128.657501 -146.074036 -35.815002 4.822908
142.140808 -146.074036 -35.815002 4.373005
155.624115 -146.074036 -35.815002 4.838251
169.107422 -146.074036 -35.815002 6.040137
182.590698 -146.074036 -35.815002 0.000000
196.074036 -146.074036 -35.815002 0.000000
209.557312 -146.074036 -35.815002 0.000000
223.040588 -146.074036 -35.815002 0.000000
236.523926 -146.074036 -35.815002 0.000000
250.007202 -146.074036 -35.815002 0.000000
263.490540 -146.074036 -35.815002 0.000000
276.973816 -146.074036 -35.815002 0.000000
290.457092 -146.074036 -35.815002 0.000000
303.940430 -146.074036 -35.815002 0.000000
317.423706 -146.074036 -35.815002 0.000000
330.907043 -146.074036 -35.815002 0.000000
344.390320 -146.074036 -35.815002 0.000000
-343.257996 -159.557312 -35.815002 0.000000
-329.774689 -159.557312 -35.815002 0.000000
-316.291382 -159.557312 -35.815002 0.000000
-302.808105 -159.557312 -35.815002 0.000000
-289.324799 -159.557312 -35.815002 0.000000
-275.841492 -159.557312 -35.815002 0.000000
-262.358185 -159.557312 -35.815002 0.000000
-248.874893 -159.557312 -35.815002 0.000000
-235.391602 -159.557312 -35.815002 0.000000
-221.908295 -159.557312 -35.815002 0.000000
-208.424988 -159.557312 -35.815002 0.000000
-194.941696 -159.557312 -35.815002 0.000000
-181.458389 -159.557312 -35.815002 0.000000
-167.975098 -159.557312 -35.815002 0.000000
-154.491791 -159.557312 -35.815002 0.000000
-141.008499 -159.557312 -35.815002 0.000000
-127.525192 -159.557312 -35.815002 0.000000
-114.041885 -159.557312 -35.815002 0.000000
-100.558594 -159.557312 -35.815002 0.000000
-87.075287 -159.557312 -35.815002 0.000000
-73.591980 -159.557312 -35.815002 0.000000
-60.108704 -159.557312 -35.815002 0.000000
-46.625397 -159.557312 -35.815002 0.000000
-33.142090 -159.557312 -35.815002 0.000000
-19.658783 -159.557312 -35.815002 0.000000
-6.175476 -159.557312 -35.815002 0.000000
7.307800 -159.557312 -35.815002 0.000000
20.791107 -159.557312 -35.815002 0.000000
34.274414 -159.557312 -35.815002 0.000000
47.757721 -159.557312 -35.815002 0.000000
61.240997 -159.557312 -35.815002 0.000000
74.724304 -159.557312 -35.815002 0.000000
88.207611 -159.557312 -35.815002 0.000000
101.690918 -159.557312 -35.815002 0.000000
115.174225 -159.557312 -35.815002 0.000000
128.657501 -159.557312 -35.815002 0.000000
142.140808 -159.557312 -35.815002 0.000000
155.624115 -159.557312 -35.815002 0.000000
169.107422 -159.557312 -35.815002 0.000000
182.590698 -159.557312 -35.815002 0.000000
196.074036 -159.557312 -35.815002 0.000000
209.557312 -159.557312 -35.815002 0.000000
223.040588 -159.557312 -35.815002 0.000000
236.523926 -159.557312 -35.815002 0.000000
250.007202 -159.557312 -35.815002 0.000000
263.490540 -159.557312 -35.815002 0.000000
276.973816 -159.557312 -35.815002 0.000000
290.457092 -159.557312 -35.815002 0.000000
303.940430 -159.557312 -35.815002 0.000000
317.423706 -159.557312 -35.815002 0.000000
330.907043 -159.557312 -35.815002 0.000000
344.390320 -159.557312 -35.815002 0.000000
-343.257996 -173.040588 -35.815002 0.000000
-329.774689 -173.040588 -35.815002 0.000000
-316.291382 -173.040588 -35.815002 0.000000
-302.808105 -173.040588 -35.815002 0.000000
-289.324799 -173.040588 -35.815002 0.000000
-275.841492 -173.040588 -35.815002 0.000000
-262.358185 -173.040588 -35.815002 0.000000
-248.874893 -173.040588 -35.815002 0.000000
-235.391602 -173.040588 -35.815002 0.000000
-221.908295 -173.040588 -35.815002 0.000000
-208.424988 -173.040588 -35.815002 0.000000
-194.941696 -173.040588 -35.815002 0.000000
-181.458389 -173.040588 -35.815002 0.000000
-167.975098 -173.040588 -35.815002 0.000000
-154.491791 -173.040588 -35.815002 0.000000
-141.008499 -173.040588 -35.815002 0.000000
-127.525192 -173.040588 -35.815002 0.000000
-114.041885 -173.040588 -35.815002 0.000000
-100.558594 -173.040588 -35.815002 0.000000
-87.075287 -173.040588 -35.815002 0.000000
-73.591980 -173.040588 -35.815002 0.000000
-60.108704 -173.040588 -35.815002 0.000000
-46.625397 -173.040588 -35.815002 0.000000
-33.142090 -173.040588 -35.815002 0.000000
-19.658783 -173.040588 -35.815002 0.000000
-6.175476 -173.040588 -35.815002 0.000000
7.307800 -173.040588 -35.815002 0.000000
20.791107 -173.040588 -35.815002 0.000000
34.274414 -173.040588 -35.815002 0.000000
47.757721 -173.040588 -35.815002 0.000000
61.240997 -173.040588 -35.815002 0.000000
74.724304 -173.040588 -35.815002 0.000000
88.207611 -173.040588 -35.815002 0.000000
101.690918 -173.040588 -35.815002 0.000000
115.174225 -173.040588 -35.815002 0.000000
128.657501 -173.040588 -35.815002 0.000000
142.140808 -173.040588 -35.815002 0.000000
155.624115 -173.040588 -35.815002 0.000000
169.107422 -173.040588 -35.815002 0.000000
182.590698 -173.040588 -35.815002 0.000000
196.074036 -173.040588 -35.815002 0.000000
209.557312 -173.040588 -35.815002 0.000000
223.040588 -173.040588 -35.815002 0.000000
236.523926 -173.040588 -35.815002 0.000000
250.007202 -173.040588 -35.815002 0.000000
263.490540 -173.040588 -35.815002 0.000000
276.973816 -173.040588 -35.815002 0.000000
290.457092 -173.040588 -35.815002 0.000000
303.940430 -173.040588 -35.815002 0.000000
317.423706 -173.040588 -35.815002 0.000000
330.907043 -173.040588 -35.815002 0.000000
344.390320 -173.040588 -35.815002 0.000000
-343.257996 -186.523926 -35.815002 0.000000
-329.774689 -186.523926 -35.815002 0.000000
-316.291382 -186.523926 -35.815002 0.000000
-302.808105 -186.523926 -35.815002 0.000000
-289.324799 -186.523926 -35.815002 0.000000
-275.841492 -186.523926 -35.815002 0.000000
-262.358185 -186.523926 -35.815002 0.000000
-248.874893 -186.523926 -35.815002 0.000000
-235.391602 -186.523926 -35.815002 0.000000
-221.908295 -186.523926 -35.815002 0.000000
-208.424988 -186.523926 -35.815002 0.000000
-194.941696 -186.523926 -35.815002 0.000000
-181.458389 -186.523926 -35.815002 0.000000
-167.975098 -186.523926 -35.815002 0.000000
-154.491791 -186.523926 -35.815002 0.000000
-141.008499 -186.523926 -35.815002 0.000000
-127.525192 -186.523926 -35.815002 0.000000
-114.041885 -186.523926 -35.815002 0.000000
-100.558594 -186.523926 -35.815002 0.000000
-87.075287 -186.523926 -35.815002 0.000000
-73.591980 -186.523926 -35.815002 0.000000
-60.108704 -186.523926 -35.815002 0.000000
-46.625397 -186.523926 -35.815002 0.000000
-33.142090 -186.523926 -35.815002 0.000000
-19.658783 -186.523926 -35.815002 0.000000
-6.175476 -186.523926 -35.815002 0.000000
7.307800 -186.523926 -35.815002 0.000000
20.791107 -186.523926 -35.815002 0.000000
34.274414 -186.523926 -35.815002 0.000000
47.757721 -186.523926 -35.815002 0.000000
61.240997 -186.523926 -35.815002 0.000000
74.724304 -186.523926 -35.815002 0.000000
88.207611 -186.523926 -35.815002 0.000000
101.690918 -186.523926 -35.815002 0.000000
115.174225 -186.523926 -35.815002 0.000000
128.657501 -186.523926 -35.815002 0.000000
142.140808 -186.523926 -35.815002 0.000000
155.624115 -186.523926 -35.815002 0.000000
169.107422 -186.523926 -35.815002 0.000000
182.590698 -186.523926 -35.815002 0.000000
196.074036 -186.523926 -35.815002 0.000000
209.557312 -186.523926 -35.815002 0.000000
223.040588 -186.523926 -35.815002 0.000000
236.523926 -186.523926 -35.815002 0.000000
250.007202 -186.523926 -35.815002 0.000000
263.490540 -186.523926 -35.815002 0.000000
276.973816 -186.523926 -35.815002 0.000000
290.457092 -186.523926 -35.815002 0.000000
303.940430 -186.523926 -35.815002 0.000000
317.423706 -186.523926 -35.815002 0.000000
330.907043 -186.523926 -35.815002 0.000000
344.390320 -186.523926 -35.815002 0.000000
-343.257996 -200.007202 -35.815002 0.000000
-329.774689 -200.007202 -35.815002 0.000000
-316.291382 -200.007202 -35.815002 0.000000
-302.808105 -200.007202 -35.815002 0.000000
-289.324799 -200.007202 -35.815002 0.000000
-275.841492 -200.007202 -35.815002 0.000000
-262.358185 -200.007202 -35.815002 0.000000
-248.874893 -200.007202 -35.815002 0.000000
-235.391602 -200.007202 -35.815002 0.000000
-221.908295 -200.007202 -35.815002 0.000000
-208.424988 -200.007202 -35.815002 0.000000
-194.941696 -200.007202 -35.815002 0.000000
-181.458389 -200.007202 -35.815002 0.000000
-167.975098 -200.007202 -35.815002 0.000000
-154.491791 -200.007202 -35.815002 0.000000
-141.008499 -200.007202 -35.815002 0.000000
-127.525192 -200.007202 -35.815002 0.000000
-114.041885 -200.007202 -35.815002 0.000000
-100.558594 -200.007202 -35.815002 0.000000
-87.075287 -200.007202 -35.815002 0.000000
-73.591980 -200.007202 -35.815002 0.000000
-60.108704 -200.007202 -35.815002 0.000000
-46.625397 -200.007202 -35.815002 0.000000
-33.142090 -200.007202 -35.815002 0.000000
-19.658783 -200.007202 -35.815002 0.000000
-6.175476 -200.007202 -35.815002 0.000000
7.307800 -200.007202 -35.815002 0.000000
20.791107 -200.007202 -35.815002 0.000000
34.274414 -200.007202 -35.815002 0.000000
47.757721 -200.007202 -35.815002 0.000000
61.240997 -200.007202 -35.815002 0.000000
74.724304 -200.007202 -35.815002 0.000000
88.207611 -200.007202 -35.815002 0.000000
101.690918 -200.007202 -35.815002 0.000000
115.174225 -200.007202 -35.815002 0.000000
128.657501 -200.007202 -35.815002 0.000000
142.140808 -200.007202 -35.815002 0.000000
155.624115 -200.007202 -35.815002 0.000000
169.107422 -200.007202 -35.815002 0.000000
182.590698 -200.007202 -35.815002 0.000000
196.074036 -200.007202 -35.815002 0.000000
209.557312 -200.007202 -35.815002 0.000000
223.040588 -200.007202 -35.815002 0.000000
236.523926 -200.007202 -35.815002 0.000000
250.007202 -200.007202 -35.815002 0.000000
263.490540 -200.007202 -35.815002 0.000000
276.973816 -200.007202 -35.815002 0.000000
290.457092 -200.007202 -35.815002 0.000000
303.940430 -200.007202 -35.815002 0.000000
317.423706 -200.007202 -35.815002 0.000000
330.907043 -200.007202 -35.815002 0.000000
344.390320 -200.007202 -35.815002 0.000000
-343.257996 393.257996 -22.331701 0.000000
-329.774689 393.257996 -22.331701 0.000000
-316.291382 393.257996 -22.331701 0.000000
-302.808105 393.257996 -22.331701 0.000000
-289.324799 393.257996 -22.331701 0.000000
-275.841492 393.257996 -22.331701 0.000000
-262.358185 393.257996 -22.331701 0.000000
-248.874893 393.257996 -22.331701 0.000000
-235.391602 393.257996 -22.331701 0.000000
-221.908295 393.257996 -22.331701 0.000000
-208.424988 393.257996 -22.331701 0.000000
-194.941696 393.257996 -22.331701 0.000000
-181.458389 393.257996 -22.331701 0.000000
-167.975098 393.257996 -22.331701 0.000000
-154.491791 393.257996 -22.331701 0.000000
-141.008499 393.257996 -22.331701 0.000000
-127.525192 393.257996 -22.331701 0.000000
-114.041885 393.257996 -22.331701 0.000000
-100.558594 393.257996 -22.331701 0.000000
-87.075287 393.257996 -22.331701 0.000000
-73.591980 393.257996 -22.331701 0.000000
-60.108704 393.257996 -22.331701 0.000000
-46.625397 393.257996 -22.331701 0.000000
-33.142090 393.257996 -22.331701 0.000000
-19.658783 393.257996 -22.331701 0.000000
-6.175476 393.257996 -22.331701 0.000000
7.307800 393.257996 -22.331701 0.000000
20.791107 393.257996 -22.331701 0.000000
34.274414 393.257996 -22.331701 0.000000
47.757721 393.257996 -22.331701 0.000000
61.240997 393.257996 -22.331701 0.000000
74.724304 393.257996 -22.331701 0.000000
88.207611 393.257996 -22.331701 0.000000
101.690918 393.257996 -22.331701 0.000000
115.174225 393.257996 -22.331701 0.000000
128.657501 393.257996 -22.331701 0.000000
142.140808 393.257996 -22.331701 0.000000
155.624115 393.257996 -22.331701 0.000000
169.107422 393.257996 -22.331701 0.000000
182.590698 393.257996 -22.331701 0.000000
196.074036 393.257996 -22.331701 0.000000
209.557312 393.257996 -22.331701 0.000000
223.040588 393.257996 -22.331701 0.000000
236.523926 393.257996 -22.331701 0.000000
250.007202 393.257996 -22.331701 0.000000
263.490540 393.257996 -22.331701 0.000000
276.973816 393.257996 -22.331701 0.000000
290.457092 393.257996 -22.331701 0.000000
303.940430 393.257996 -22.331701 0.000000
317.423706 393.257996 -22.331701 0.000000
330.907043 393.257996 -22.331701 0.000000
344.390320 393.257996 -22.331701 0.000000
-343.257996 379.774689 -22.331701 0.000000
-329.774689 379.774689 -22.331701 0.000000
-316.291382 379.774689 -22.331701 0.000000
-302.808105 379.774689 -22.331701 0.000000
-289.324799 379.774689 -22.331701 0.000000
-275.841492 379.774689 -22.331701 0.000000
-262.358185 379.774689 -22.331701 0.000000
-248.874893 379.774689 -22.331701 0.000000
-235.391602 379.774689 -22.331701 0.000000
-221.908295 379.774689 -22.331701 0.000000
-208.424988 379.774689 -22.331701 0.000000
-194.941696 379.774689 -22.331701 0.000000
-181.458389 379.774689 -22.331701 0.000000
-167.975098 379.774689 -22.331701 0.000000
-154.491791 379.774689 -22.331701 0.000000
-141.008499 379.774689 -22.331701 0.000000
-127.525192 379.774689 -22.331701 0.000000
-114.041885 379.774689 -22.331701 0.000000
-100.558594 379.774689 -22.331701 0.000000
-87.075287 379.774689 -22.331701 0.000000
-73.591980 379.774689 -22.331701 0.000000
-60.108704 379.774689 -22.331701 0.000000
-46.625397 379.774689 -22.331701 0.000000
-33.142090 379.774689 -22.331701 0.000000
-19.658783 379.774689 -22.331701 0.000000
-6.175476 379.774689 -22.331701 0.000000
7.307800 379.774689 -22.331701 0.000000
20.791107 379.774689 -22.331701 0.000000
34.274414 379.774689 -22.331701 0.000000
47.757721 379.774689 -22.331701 0.000000
61.240997 379.774689 -22.331701 0.000000
74.724304 379.774689 -22.331701 0.000000
88.207611 379.774689 -22.331701 0.000000
101.690918 379.774689 -22.331701 0.000000
115.174225 379.774689 -22.331701 0.000000
128.657501 379.774689 -22.331701 0.000000
142.140808 379.774689 -22.331701 0.000000
155.624115 379.774689 -22.331701 0.000000
169.107422 379.774689 -22.331701 0.000000
182.590698 379.774689 -22.331701 0.000000
196.074036 379.774689 -22.331701 0.000000
209.557312 379.774689 -22.331701 0.000000
223.040588 379.774689 -22.331701 0.000000
236.523926 379.774689 -22.331701 0.000000
250.007202 379.774689 -22.331701 0.000000
263.490540 379.774689 -22.331701 0.000000
276.973816 379.774689 -22.331701 0.000000
290.457092 379.774689 -22.331701 0.000000
303.940430 379.774689 -22.331701 0.000000
317.423706 379.774689 -22.331701 0.000000
330.907043 379.774689 -22.331701 0.000000
344.390320 379.774689 -22.331701 0.000000
-343.257996 366.291382 -22.331701 0.000000
-329.774689 366.291382 -22.331701 0.000000
-316.291382 366.291382 -22.331701 0.000000
-302.808105 366.291382 -22.331701 0.000000
-289.324799 366.291382 -22.331701 0.000000
-275.841492 366.291382 -22.331701 0.000000
-262.358185 366.291382 -22.331701 0.000000
-248.874893 366.291382 -22.331701 0.000000
-235.391602 366.291382 -22.331701 0.000000
-221.908295 366.291382 -22.331701 0.000000
-208.424988 366.291382 -22.331701 0.000000
-194.941696 366.291382 -22.331701 0.000000
-181.458389 366.291382 -22.331701 0.000000
-167.975098 366.291382 -22.331701 0.000000
-154.491791 366.291382 -22.331701 0.000000
-141.008499 366.291382 -22.331701 0.000000
-127.525192 366.291382 -22.331701 0.000000
-114.041885 366.291382 -22.331701 0.000000
-100.558594 366.291382 -22.331701 0.000000
-87.075287 366.291382 -22.331701 0.000000
-73.591980 366.291382 -22.331701 0.000000
-60.108704 366.291382 -22.331701 0.000000
-46.625397 366.291382 -22.331701 0.000000
-33.142090 366.291382 -22.331701 0.000000
-19.658783 366.291382 -22.331701 0.000000
-6.175476 366.291382 -22.331701 0.000000
7.307800 366.291382 -22.331701 0.000000
20.791107 366.291382 -22.331701 2.225606
34.274414 366.291382 -22.331701 0.000000
47.757721 366.291382 -22.331701 2.172421
61.240997 366.291382 -22.331701 1.872989
74.724304 366.291382 -22.331701 1.774223
88.207611 366.291382 -22.331701 1.718741
101.690918 366.291382 -22.331701 1.685120
115.174225 366.291382 -22.331701 2.077853
128.657501 366.291382 -22.331701 0.000000
142.140808 366.291382 -22.331701 0.000000
155.624115 366.291382 -22.331701 0.000000
169.107422 366.291382 -22.331701 0.000000
182.590698 366.291382 -22.331701 0.000000
196.074036 366.291382 -22.331701 0.000000
209.557312 366.291382 -22.331701 0.000000
223.040588 366.291382 -22.331701 0.000000
236.523926 366.291382 -22.331701 0.000000
250.007202 366.291382 -22.331701 0.000000
263.490540 366.291382 -22.331701 0.000000
276.973816 366.291382 -22.331701 0.000000
290.457092 366.291382 -22.331701 0.000000
303.940430 366.291382 -22.331701 0.000000
317.423706 366.291382 -22.331701 0.000000
330.907043 366.291382 -22.331701 0.000000
344.390320 366.291382 -22.331701 0.000000
-343.257996 352.808105 -22.331701 0.000000
-329.774689 352.808105 -22.331701 0.000000
-316.291382 352.808105 -22.331701 0.000000
-302.808105 352.808105 -22.331701 0.000000
-289.324799 352.808105 -22.331701 0.000000
-275.841492 352.808105 -22.331701 0.000000
-262.358185 352.808105 -22.331701 0.000000
-248.874893 352.808105 -22.331701 0.000000
-235.391602 352.808105 -22.331701 0.000000
-221.908295 352.808105 -22.331701 3.695856
-208.424988 352.808105 -22.331701 3.450945
-194.941696 352.808105 -22.331701 3.151696
-181.458389 352.808105 -22.331701 3.392560
-167.975098 352.808105 -22.331701 3.168504
-154.491791 352.808105 -22.331701 2.878975
-141.008499 352.808105 -22.331701 2.860056
-127.525192 352.808105 -22.331701 2.658782
-114.041885 352.808105 -22.331701 2.851722
-100.558594 352.808105 -22.331701 2.910609
-87.075287 352.808105 -22.331701 2.960494
-73.591980 352.808105 -22.331701 2.785495
-60.108704 352.808105 -22.331701 2.838679
-46.625397 352.808105 -22.331701 3.087838
-33.142090 352.808105 -22.331701 3.363292
-19.658783 352.808105 -22.331701 3.099189
-6.175476 352.808105 -22.331701 2.744210
7.307800 352.808105 -22.331701 2.697815
20.791107 352.808105 -22.331701 2.517896
34.274414 352.808105 -22.331701 2.336417
47.757721 352.808105 -22.331701 2.152704
61.240997 352.808105 -22.331701 2.237810
74.724304 352.808105 -22.331701 1.933895
88.207611 352.808105 -22.331701 1.848546
101.690918 352.808105 -22.331701 2.046675
115.174225 352.808105 -22.331701 2.054352
128.657501 352.808105 -22.331701 2.384478
142.140808 352.808105 -22.331701 2.596592
155.624115 352.808105 -22.331701 2.841858
169.107422 352.808105 -22.331701 2.676431
182.590698 352.808105 -22.331701 2.796547
196.074036 352.808105 -22.331701 2.792722
209.557312 352.808105 -22.331701 0.000000
223.040588 352.808105 -22.331701 0.000000
236.523926 352.808105 -22.331701 0.000000
250.007202 352.808105 -22.331701 0.000000
263.490540 352.808105 -22.331701 0.000000
276.973816 352.808105 -22.331701 0.000000
290.457092 352.808105 -22.331701 0.000000
303.940430 352.808105 -22.331701 0.000000
317.423706 352.808105 -22.331701 0.000000
330.907043 352.808105 -22.331701 0.000000
344.390320 352.808105 -22.331701 0.000000
-343.257996 339.324799 -22.331701 0.000000
-329.774689 339.324799 -22.331701 0.000000
-316.291382 339.324799 -22.331701 0.000000
-302.808105 339.324799 -22.331701 0.000000
-289.324799 339.324799 -22.331701 0.000000
-275.841492 339.324799 -22.331701 4.561344
-262.358185 339.324799 -22.331701 4.099284
-248.874893 339.324799 -22.331701 3.698846
-235.391602 339.324799 -22.331701 3.481310
-221.908295 339.324799 -22.331701 3.290607
-208.424988 339.324799 -22.331701 3.237305
-194.941696 339.324799 -22.331701 3.314416
-181.458389 339.324799 -22.331701 3.394283
-167.975098 339.324799 -22.331701 3.099750
-154.491791 339.324799 -22.331701 2.989867
-141.008499 339.324799 -22.331701 3.136544
-127.525192 339.324799 -22.331701 2.893349
-114.041885 339.324799 -22.331701 3.068164
-100.558594 339.324799 -22.331701 3.187269
-87.075287 339.324799 -22.331701 3.170596
-73.591980 339.324799 -22.331701 3.565994
-60.108704 339.324799 -22.331701 3.534049
-46.625397 339.324799 -22.331701 3.705796
-33.142090 339.324799 -22.331701 3.451582
-19.658783 339.324799 -22.331701 3.585717
-6.175476 339.324799 -22.331701 3.309534
7.307800 339.324799 -22.331701 3.047722
20.791107 339.324799 -22.331701 2.726829
34.274414 339.324799 -22.331701 2.756421
47.757721 339.324799 -22.331701 2.364673
61.240997 339.324799 -22.331701 2.454095
74.724304 339.324799 -22.331701 2.070095
88.207611 339.324799 -22.331701 2.130500
101.690918 339.324799 -22.331701 2.276521
115.174225 339.324799 -22.331701 2.372862
128.657501 339.324799 -22.331701 2.474136
142.140808 339.324799 -22.331701 2.686931
155.624115 339.324799 -22.331701 2.576231
169.107422 339.324799 -22.331701 2.798741
182.590698 339.324799 -22.331701 2.641545
196.074036 339.324799 -22.331701 2.576965
209.557312 339.324799 -22.331701 2.488691
223.040588 339.324799 -22.331701 2.967552
236.523926 339.324799 -22.331701 3.196347
250.007202 339.324799 -22.331701 3.452329
263.490540 339.324799 -22.331701 3.337026
276.973816 339.324799 -22.331701 0.000000
290.457092 339.324799 -22.331701 0.000000
303.940430 339.324799 -22.331701 0.000000
317.423706 339.324799 -22.331701 0.000000
330.907043 339.324799 -22.331701 0.000000
344.390320 339.324799 -22.331701 0.000000
-343.257996 325.841492 -22.331701 0.000000
-329.774689 325.841492 -22.331701 0.000000
-316.291382 325.841492 -22.331701 0.000000
-302.808105 325.841492 -22.331701 0.000000
-289.324799 325.841492 -22.331701 3.365287
-275.841492 325.841492 -22.331701 3.501844
-262.358185 325.841492 -22.331701 3.165610
-248.874893 325.841492 -22.331701 3.092745
-235.391602 325.841492 -22.331701 2.901696
-221.908295 325.841492 -22.331701 2.884742
-208.424988 325.841492 -22.331701 3.249202
-194.941696 325.841492 -22.331701 3.335150
-181.458389 325.841492 -22.331701 3.173208
-167.975098 325.841492 -22.331701 3.341837
-154.491791 325.841492 -22.331701 3.203917
-141.008499 325.841492 -22.331701 3.091785
-127.525192 325.841492 -22.331701 3.180392
-114.041885 325.841492 -22.331701 3.366218
-100.558594 325.841492 -22.331701 3.606955
-87.075287 325.841492 -22.331701 3.542724
-73.591980 325.841492 -22.331701 3.975195
-60.108704 325.841492 -22.331701 4.118089
-46.625397 325.841492 -22.331701 4.112000
-33.142090 325.841492 -22.331701 4.034309
-19.658783 325.841492 -22.331701 4.007927
-6.175476 325.841492 -22.331701 3.941831
7.307800 325.841492 -22.331701 3.462237
20.791107 325.841492 -22.331701 3.098808
34.274414 325.841492 -22.331701 2.832700
47.757721 325.841492 -22.331701 2.972831
61.240997 325.841492 -22.331701 2.640037
74.724304 325.841492 -22.331701 2.464477
88.207611 325.841492 -22.331701 2.502742
101.690918 325.841492 -22.331701 2.729097
115.174225 325.841492 -22.331701 2.645030
128.657501 325.841492 -22.331701 2.741869
142.140808 325.841492 -22.331701 2.910486
155.624115 325.841492 -22.331701 2.977118
169.107422 325.841492 -22.331701 2.775288
182.590698 325.841492 -22.331701 2.627899
196.074036 325.841492 -22.331701 2.362505
209.557312 325.841492 -22.331701 2.364127
223.040588 325.841492 -22.331701 2.775979
236.523926 325.841492 -22.331701 2.886080
250.007202 325.841492 -22.331701 2.641049
263.490540 325.841492 -22.331701 2.690941
276.973816 325.841492 -22.331701 3.322870
290.457092 325.841492 -22.331701 0.000000
303.940430 325.841492 -22.331701 0.000000
317.423706 325.841492 -22.331701 0.000000
330.907043 325.841492 -22.331701 0.000000
344.390320 325.841492 -22.331701 0.000000
-343.257996 312.358185 -22.331701 0.000000
-329.774689 312.358185 -22.331701 0.000000
-316.291382 312.358185 -22.331701 0.000000
-302.808105 312.358185 -22.331701 2.362174
-289.324799 312.358185 -22.331701 2.215579
-275.841492 312.358185 -22.331701 2.506447
-262.358185 312.358185 -22.331701 2.461304
-248.874893 312.358185 -22.331701 2.357571
-235.391602 312.358185 -22.331701 2.294248
-221.908295 312.358185 -22.331701 2.474065
-208.424988 312.358185 -22.331701 2.905845
-194.941696 312.358185 -22.331701 2.900820
-181.458389 312.358185 -22.331701 3.026661
-167.975098 312.358185 -22.331701 3.285205
-154.491791 312.358185 -22.331701 3.469889
-141.008499 312.358185 -22.331701 3.529883
-127.525192 312.358185 -22.331701 3.282398
-114.041885 312.358185 -22.331701 3.548233
-100.558594 312.358185 -22.331701 3.839682
-87.075287 312.358185 -22.331701 3.810358
-73.591980 312.358185 -22.331701 4.111716
-60.108704 312.358185 -22.331701 4.351534
-46.625397 312.358185 -22.331701 4.610115
-33.142090 312.358185 -22.331701 4.588810
-19.658783 312.358185 -22.331701 4.541803
-6.175476 312.358185 -22.331701 4.368643
7.307800 312.358185 -22.331701 4.096585
20.791107 312.358185 -22.331701 3.534025
34.274414 312.358185 -22.331701 3.213987
47.757721 312.358185 -22.331701 3.340110
61.240997 312.358185 -22.331701 3.093574
74.724304 312.358185 -22.331701 3.067734
88.207611 312.358185 -22.331701 3.055390
101.690918 312.358185 -22.331701 3.017830
115.174225 312.358185 -22.331701 3.111291
128.657501 312.358185 -22.331701 3.170285
142.140808 312.358185 -22.331701 2.992056
155.624115 312.358185 -22.331701 3.345140
169.107422 312.358185 -22.331701 3.021625
182.590698 312.358185 -22.331701 2.662657
196.074036 312.358185 -22.331701 2.424575
209.557312 312.358185 -22.331701 2.257441
223.040588 312.358185 -22.331701 2.351717
236.523926 312.358185 -22.331701 2.475288
250.007202 312.358185 -22.331701 2.348024
263.490540 312.358185 -22.331701 2.364523
276.973816 312.358185 -22.331701 2.193711
290.457092 312.358185 -22.331701 2.193021
303.940430 312.358185 -22.331701 0.000000
317.423706 312.358185 -22.331701 0.000000
330.907043 312.358185 -22.331701 0.000000
344.390320 312.358185 -22.331701 0.000000
-343.257996 298.874878 -22.331701 0.000000
-329.774689 298.874878 -22.331701 0.000000
-316.291382 298.874878 -22.331701 2.092196
-302.808105 298.874878 -22.331701 1.836038
-289.324799 298.874878 -22.331701 1.895705
-275.841492 298.874878 -22.331701 1.703182
-262.358185 298.874878 -22.331701 1.609482
-248.874893 298.874878 -22.331701 1.763321
-235.391602 298.874878 -22.331701 1.935588
-221.908295 298.874878 -22.331701 2.177268
-208.424988 298.874878 -22.331701 2.457001
-194.941696 298.874878 -22.331701 2.657135
-181.458389 298.874878 -22.331701 2.891486
-167.975098 298.874878 -22.331701 3.270885
-154.491791 298.874878 -22.331701 3.256177
-141.008499 298.874878 -22.331701 3.407640
-127.525192 298.874878 -22.331701 3.521663
-114.041885 298.874878 -22.331701 3.772563
-100.558594 298.874878 -22.331701 4.018133
-87.075287 298.874878 -22.331701 4.103158
-73.591980 298.874878 -22.331701 4.427042
-60.108704 298.874878 -22.331701 4.492702
-46.625397 298.874878 -22.331701 5.048682
-33.142090 298.874878 -22.331701 5.166852
-19.658783 298.874878 -22.331701 5.355837
-6.175476 298.874878 -22.331701 5.041194
7.307800 298.874878 -22.331701 4.606491
20.791107 298.874878 -22.331701 4.131070
34.274414 298.874878 -22.331701 3.899867
47.757721 298.874878 -22.331701 3.787919
61.240997 298.874878 -22.331701 3.845149
74.724304 298.874878 -22.331701 3.655712
88.207611 298.874878 -22.331701 3.726455
101.690918 298.874878 -22.331701 3.733326
115.174225 298.874878 -22.331701 3.537012
128.657501 298.874878 -22.331701 3.278669
142.140808 298.874878 -22.331701 3.455874
155.624115 298.874878 -22.331701 3.421016
169.107422 298.874878 -22.331701 2.882797
182.590698 298.874878 -22.331701 2.699156
196.074036 298.874878 -22.331701 2.475611
209.557312 298.874878 -22.331701 2.263241
223.040588 298.874878 -22.331701 2.220022
236.523926 298.874878 -22.331701 2.053612
250.007202 298.874878 -22.331701 1.963455
263.490540 298.874878 -22.331701 1.760358
276.973816 298.874878 -22.331701 1.629458
290.457092 298.874878 -22.331701 1.549606
303.940430 298.874878 -22.331701 1.808431
317.423706 298.874878 -22.331701 0.000000
330.907043 298.874878 -22.331701 0.000000
344.390320 298.874878 -22.331701 0.000000
-343.257996 285.391602 -22.331701 0.000000
-329.774689 285.391602 -22.331701 0.000000
-316.291382 285.391602 -22.331701 1.571566
-302.808105 285.391602 -22.331701 1.322876
-289.324799 285.391602 -22.331701 1.336811
-275.841492 285.391602 -22.331701 1.324713
-262.358185 285.391602 -22.331701 1.309191
-248.874893 285.391602 -22.331701 1.523049
-235.391602 285.391602 -22.331701 1.717959
-221.908295 285.391602 -22.331701 1.865722
-208.424988 285.391602 -22.331701 2.031331
-194.941696 285.391602 -22.331701 2.372508
-181.458389 285.391602 -22.331701 2.684323
-167.975098 285.391602 -22.331701 3.033226
-154.491791 285.391602 -22.331701 3.317173
-141.008499 285.391602 -22.331701 3.497389
-127.525192 285.391602 -22.331701 3.597296
-114.041885 285.391602 -22.331701 3.877820
-100.558594 285.391602 -22.331701 4.017725
-87.075287 285.391602 -22.331701 4.292642
-73.591980 285.391602 -22.331701 4.698715
-60.108704 285.391602 -22.331701 5.242773
-46.625397 285.391602 -22.331701 5.533070
-33.142090 285.391602 -22.331701 5.489213
-19.658783 285.391602 -22.331701 5.475315
-6.175476 285.391602 -22.331701 5.263190
7.307800 285.391602 -22.331701 5.024971
20.791107 285.391602 -22.331701 4.664066
34.274414 285.391602 -22.331701 4.276391
47.757721 285.391602 -22.331701 4.140230
61.240997 285.391602 -22.331701 4.129913
74.724304 285.391602 -22.331701 4.044549
88.207611 285.391602 -22.331701 4.110074
101.690918 285.391602 -22.331701 4.171069
115.174225 285.391602 -22.331701 3.647027
128.657501 285.391602 -22.331701 3.896953
142.140808 285.391602 -22.331701 4.235002
155.624115 285.391602 -22.331701 3.779344
169.107422 285.391602 -22.331701 3.244442
182.590698 285.391602 -22.331701 2.628328
196.074036 285.391602 -22.331701 2.431204
209.557312 285.391602 -22.331701 2.290043
223.040588 285.391602 -22.331701 2.179731
236.523926 285.391602 -22.331701 1.962088
250.007202 285.391602 -22.331701 1.754260
263.490540 285.391602 -22.331701 1.536165
276.973816 285.391602 -22.331701 1.387705
290.457092 285.391602 -22.331701 1.299893
303.940430 285.391602 -22.331701 1.282624
317.423706 285.391602 -22.331701 0.000000
330.907043 285.391602 -22.331701 0.000000
344.390320 285.391602 -22.331701 0.000000
-343.257996 271.908295 -22.331701 0.000000
-329.774689 271.908295 -22.331701 0.000000
-316.291382 271.908295 -22.331701 1.316744
-302.808105 271.908295 -22.331701 1.153214
-289.324799 271.908295 -22.331701 1.114115
-275.841492 271.908295 -22.331701 1.118069
-262.358185 271.908295 -22.331701 1.155817
-248.874893 271.908295 -22.331701 1.303349
-235.391602 271.908295 -22.331701 1.578528
-221.908295 271.908295 -22.331701 1.659683
-208.424988 271.908295 -22.331701 1.855916
-194.941696 271.908295 -22.331701 2.094251
-181.458389 271.908295 -22.331701 2.377447
-167.975098 271.908295 -22.331701 2.763668
-154.491791 271.908295 -22.331701 3.000997
-141.008499 271.908295 -22.331701 3.108072
-127.525192 271.908295 -22.331701 3.523476
-114.041885 271.908295 -22.331701 4.058139
-100.558594 271.908295 -22.331701 4.061619
-87.075287 271.908295 -22.331701 4.842810
-73.591980 271.908295 -22.331701 5.263106
-60.108704 271.908295 -22.331701 6.114525
-46.625397 271.908295 -22.331701 6.551160
-33.142090 271.908295 -22.331701 5.845766
-19.658783 271.908295 -22.331701 5.777661
-6.175476 271.908295 -22.331701 5.838612
7.307800 271.908295 -22.331701 5.702691
20.791107 271.908295 -22.331701 5.598730
34.274414 271.908295 -22.331701 5.019212
47.757721 271.908295 -22.331701 4.682438
61.240997 271.908295 -22.331701 4.439896
74.724304 271.908295 -22.331701 4.096035
88.207611 271.908295 -22.331701 4.001024
101.690918 271.908295 -22.331701 4.066971
115.174225 271.908295 -22.331701 4.219409
128.657501 271.908295 -22.331701 4.255794
142.140808 271.908295 -22.331701 3.868583
155.624115 271.908295 -22.331701 3.732887
169.107422 271.908295 -22.331701 3.418933
182.590698 271.908295 -22.331701 2.824748
196.074036 271.908295 -22.331701 2.547384
209.557312 271.908295 -22.331701 2.251241
223.040588 271.908295 -22.331701 2.141652
236.523926 271.908295 -22.331701 1.896848
250.007202 271.908295 -22.331701 1.619378
263.490540 271.908295 -22.331701 1.449285
276.973816 271.908295 -22.331701 1.286665
290.457092 271.908295 -22.331701 1.175148
303.940430 271.908295 -22.331701 1.060543
317.423706 271.908295 -22.331701 1.167805
330.907043 271.908295 -22.331701 0.000000
344.390320 271.908295 -22.331701 0.000000
-343.257996 258.424988 -22.331701 0.000000
-329.774689 258.424988 -22.331701 0.000000
-316.291382 258.424988 -22.331701 1.036972
-302.808105 258.424988 -22.331701 1.003850
-289.324799 258.424988 -22.331701 1.060086
-275.841492 258.424988 -22.331701 1.063792
-262.358185 258.424988 -22.331701 1.105751
-248.874893 258.424988 -22.331701 1.199863
-235.391602 258.424988 -22.331701 1.318215
-221.908295 258.424988 -22.331701 1.546211
-208.424988 258.424988 -22.331701 1.772751
-194.941696 258.424988 -22.331701 1.947379
-181.458389 258.424988 -22.331701 2.156317
-167.975098 258.424988 -22.331701 2.418974
-154.491791 258.424988 -22.331701 2.818794
-141.008499 258.424988 -22.331701 3.081898
-127.525192 258.424988 -22.331701 3.586222
-114.041885 258.424988 -22.331701 3.834379
-100.558594 258.424988 -22.331701 4.185150
-87.075287 258.424988 -22.331701 4.584142
-73.591980 258.424988 -22.331701 5.129513
-60.108704 258.424988 -22.331701 5.726516
-46.625397 258.424988 -22.331701 6.379008
-33.142090 258.424988 -22.331701 6.127182
-19.658783 258.424988 -22.331701 6.083035
-6.175476 258.424988 -22.331701 6.104324
7.307800 258.424988 -22.331701 5.799530
20.791107 258.424988 -22.331701 5.683818
34.274414 258.424988 -22.331701 5.072684
47.757721 258.424988 -22.331701 4.996212
61.240997 258.424988 -22.331701 4.660434
74.724304 258.424988 -22.331701 4.189624
88.207611 258.424988 -22.331701 4.009176
101.690918 258.424988 -22.331701 4.168415
115.174225 258.424988 -22.331701 4.402376
128.657501 258.424988 -22.331701 4.346682
142.140808 258.424988 -22.331701 4.019252
155.624115 258.424988 -22.331701 3.414248
169.107422 258.424988 -22.331701 3.131748
182.590698 258.424988 -22.331701 3.071656
196.074036 258.424988 -22.331701 2.807221
209.557312 258.424988 -22.331701 2.637883
223.040588 258.424988 -22.331701 2.298264
236.523926 258.424988 -22.331701 1.993562
250.007202 258.424988 -22.331701 1.743433
263.490540 258.424988 -22.331701 1.484884
276.973816 258.424988 -22.331701 1.205915
290.457092 258.424988 -22.331701 1.096127
303.940430 258.424988 -22.331701 1.005603
317.423706 258.424988 -22.331701 0.939248
330.907043 258.424988 -22.331701 0.000000
344.390320 258.424988 -22.331701 0.000000
-343.257996 244.941696 -22.331701 0.000000
-329.774689 244.941696 -22.331701 0.000000
-316.291382 244.941696 -22.331701 0.776104
-302.808105 244.941696 -22.331701 0.854104
-289.324799 244.941696 -22.331701 0.946536
-275.841492 244.941696 -22.331701 1.036900
-262.358185 244.941696 -22.331701 1.092053
-248.874893 244.941696 -22.331701 1.164609
-235.391602 244.941696 -22.331701 1.213295
-221.908295 244.941696 -22.331701 1.394777
-208.424988 244.941696 -22.331701 1.548596
-194.941696 244.941696 -22.331701 1.807909
-181.458389 244.941696 -22.331701 2.047340
-167.975098 244.941696 -22.331701 2.231807
-154.491791 244.941696 -22.331701 2.622622
-141.008499 244.941696 -22.331701 2.827270
-127.525192 244.941696 -22.331701 3.404958
-114.041885 244.941696 -22.331701 3.940616
-100.558594 244.941696 -22.331701 4.494246
-87.075287 244.941696 -22.331701 4.888791
-73.591980 244.941696 -22.331701 5.339721
-60.108704 244.941696 -22.331701 5.907720
-46.625397 244.941696 -22.331701 6.522964
-33.142090 244.941696 -22.331701 6.473019
-19.658783 244.941696 -22.331701 6.962040
-6.175476 244.941696 -22.331701 6.101869
7.307800 244.941696 -22.331701 6.099354
20.791107 244.941696 -22.331701 5.526427
34.274414 244.941696 -22.331701 5.043035
47.757721 244.941696 -22.331701 4.662240
61.240997 244.941696 -22.331701 4.793342
74.724304 244.941696 -22.331701 4.405327
88.207611 244.941696 -22.331701 4.156564
101.690918 244.941696 -22.331701 4.252030
115.174225 244.941696 -22.331701 4.245538
128.657501 244.941696 -22.331701 4.185921
142.140808 244.941696 -22.331701 3.669320
155.624115 244.941696 -22.331701 3.691788
169.107422 244.941696 -22.331701 3.196681
182.590698 244.941696 -22.331701 3.147077
196.074036 244.941696 -22.331701 2.929756
209.557312 244.941696 -22.331701 2.646507
223.040588 244.941696 -22.331701 2.278670
236.523926 244.941696 -22.331701 1.969860
250.007202 244.941696 -22.331701 1.750148
263.490540 244.941696 -22.331701 1.485519
276.973816 244.941696 -22.331701 1.093117
290.457092 244.941696 -22.331701 0.983007
303.940430 244.941696 -22.331701 0.834335
317.423706 244.941696 -22.331701 0.858153
330.907043 244.941696 -22.331701 0.000000
344.390320 244.941696 -22.331701 0.000000
-343.257996 231.458389 -22.331701 0.000000
-329.774689 231.458389 -22.331701 0.000000
-316.291382 231.458389 -22.331701 0.743962
-302.808105 231.458389 -22.331701 0.787763
-289.324799 231.458389 -22.331701 0.949706
-275.841492 231.458389 -22.331701 0.996542
-262.358185 231.458389 -22.331701 1.049146
-248.874893 231.458389 -22.331701 1.098178
-235.391602 231.458389 -22.331701 1.255203
-221.908295 231.458389 -22.331701 1.353158
-208.424988 231.458389 -22.331701 1.498207
-194.941696 231.458389 -22.331701 1.803783
-181.458389 231.458389 -22.331701 2.055157
-167.975098 231.458389 -22.331701 2.164300
-154.491791 231.458389 -22.331701 2.410293
-141.008499 231.458389 -22.331701 2.624448
-127.525192 231.458389 -22.331701 3.067267
-114.041885 231.458389 -22.331701 3.867193
-100.558594 231.458389 -22.331701 4.686693
-87.075287 231.458389 -22.331701 5.121192
-73.591980 231.458389 -22.331701 5.289758
-60.108704 231.458389 -22.331701 6.033862
-46.625397 231.458389 -22.331701 6.786379
-33.142090 231.458389 -22.331701 7.585330
-19.658783 231.458389 -22.331701 7.640403
-6.175476 231.458389 -22.331701 6.954546
7.307800 231.458389 -22.331701 7.047024
20.791107 231.458389 -22.331701 5.998473
34.274414 231.458389 -22.331701 5.658174
47.757721 231.458389 -22.331701 5.364189
61.240997 231.458389 -22.331701 5.173243
74.724304 231.458389 -22.331701 4.772695
88.207611 231.458389 -22.331701 4.539056
101.690918 231.458389 -22.331701 4.564257
115.174225 231.458389 -22.331701 4.240205
128.657501 231.458389 -22.331701 3.918813
142.140808 231.458389 -22.331701 3.775935
155.624115 231.458389 -22.331701 3.409148
169.107422 231.458389 -22.331701 3.289978
182.590698 231.458389 -22.331701 2.913664
196.074036 231.458389 -22.331701 2.903222
209.557312 231.458389 -22.331701 2.552849
223.040588 231.458389 -22.331701 2.183082
236.523926 231.458389 -22.331701 1.872009
250.007202 231.458389 -22.331701 1.608352
263.490540 231.458389 -22.331701 1.304621
276.973816 231.458389 -22.331701 1.012866
290.457092 231.458389 -22.331701 0.908310
303.940430 231.458389 -22.331701 0.699997
317.423706 231.458389 -22.331701 0.678747
330.907043 231.458389 -22.331701 0.000000
344.390320 231.458389 -22.331701 0.000000
-343.257996 217.975098 -22.331701 0.000000
-329.774689 217.975098 -22.331701 0.000000
-316.291382 217.975098 -22.331701 0.775002
-302.808105 217.975098 -22.331701 0.792879
-289.324799 217.975098 -22.331701 0.980300
-275.841492 217.975098 -22.331701 1.041058
-262.358185 217.975098 -22.331701 1.133880
-248.874893 217.975098 -22.331701 1.256050
-235.391602 217.975098 -22.331701 1.338283
-221.908295 217.975098 -22.331701 1.490862
-208.424988 217.975098 -22.331701 1.601317
-194.941696 217.975098 -22.331701 1.901302
-181.458389 217.975098 -22.331701 2.045990
-167.975098 217.975098 -22.331701 2.252545
-154.491791 217.975098 -22.331701 2.381227
-141.008499 217.975098 -22.331701 2.722081
-127.525192 217.975098 -22.331701 2.873192
-114.041885 217.975098 -22.331701 3.572245
-100.558594 217.975098 -22.331701 4.264640
-87.075287 217.975098 -22.331701 5.395669
-73.591980 217.975098 -22.331701 5.838802
-60.108704 217.975098 -22.331701 6.481551
-46.625397 217.975098 -22.331701 6.751139
-33.142090 217.975098 -22.331701 7.781094
-19.658783 217.975098 -22.331701 8.318546
-6.175476 217.975098 -22.331701 8.318649
7.307800 217.975098 -22.331701 7.283989
20.791107 217.975098 -22.331701 6.671437
34.274414 217.975098 -22.331701 6.413249
47.757721 217.975098 -22.331701 5.812291
61.240997 217.975098 -22.331701 5.836732
74.724304 217.975098 -22.331701 5.122939
88.207611 217.975098 -22.331701 4.897423
101.690918 217.975098 -22.331701 4.713412
115.174225 217.975098 -22.331701 4.671862
128.657501 217.975098 -22.331701 3.970734
142.140808 217.975098 -22.331701 3.371127
155.624115 217.975098 -22.331701 3.247463
169.107422 217.975098 -22.331701 2.870235
182.590698 217.975098 -22.331701 2.648494
196.074036 217.975098 -22.331701 2.452531
209.557312 217.975098 -22.331701 2.212485
223.040588 217.975098 -22.331701 1.954338
236.523926 217.975098 -22.331701 1.701162
250.007202 217.975098 -22.331701 1.383124
263.490540 217.975098 -22.331701 1.130063
276.973816 217.975098 -22.331701 0.919825
290.457092 217.975098 -22.331701 0.785025
303.940430 217.975098 -22.331701 0.621241
317.423706 217.975098 -22.331701 0.572344
330.907043 217.975098 -22.331701 0.000000
344.390320 217.975098 -22.331701 0.000000
-343.257996 204.491791 -22.331701 0.000000
-329.774689 204.491791 -22.331701 0.000000
-316.291382 204.491791 -22.331701 0.827072
-302.808105 204.491791 -22.331701 0.877505
-289.324799 204.491791 -22.331701 1.035100
-275.841492 204.491791 -22.331701 1.106197
-262.358185 204.491791 -22.331701 1.224999
-248.874893 204.491791 -22.331701 1.369413
-235.391602 204.491791 -22.331701 1.503393
-221.908295 204.491791 -22.331701 1.570566
-208.424988 204.491791 -22.331701 1.660837
-194.941696 204.491791 -22.331701 1.950909
-181.458389 204.491791 -22.331701 2.080559
-167.975098 204.491791 -22.331701 2.362782
-154.491791 204.491791 -22.331701 2.702061
-141.008499 204.491791 -22.331701 2.932758
-127.525192 204.491791 -22.331701 3.213009
-114.041885 204.491791 -22.331701 3.701931
-100.558594 204.491791 -22.331701 4.452687
-87.075287 204.491791 -22.331701 5.402564
-73.591980 204.491791 -22.331701 6.139905
-60.108704 204.491791 -22.331701 6.782859
-46.625397 204.491791 -22.331701 7.315964
-33.142090 204.491791 -22.331701 8.303383
-19.658783 204.491791 -22.331701 8.074969
-6.175476 204.491791 -22.331701 7.954645
7.307800 204.491791 -22.331701 7.306983
20.791107 204.491791 -22.331701 6.912550
34.274414 204.491791 -22.331701 7.079827
47.757721 204.491791 -22.331701 6.458645
61.240997 204.491791 -22.331701 5.915657
74.724304 204.491791 -22.331701 5.545937
88.207611 204.491791 -22.331701 5.597777
101.690918 204.491791 -22.331701 5.274067
115.174225 204.491791 -22.331701 4.782851
128.657501 204.491791 -22.331701 3.943361
142.140808 204.491791 -22.331701 3.228227
155.624115 204.491791 -22.331701 3.151232
169.107422 204.491791 -22.331701 2.718538
182.590698 204.491791 -22.331701 2.473741
196.074036 204.491791 -22.331701 2.076686
209.557312 204.491791 -22.331701 1.838081
223.040588 204.491791 -22.331701 1.625557
236.523926 204.491791 -22.331701 1.411294
250.007202 204.491791 -22.331701 1.210931
263.490540 204.491791 -22.331701 0.955963
276.973816 204.491791 -22.331701 0.832058
290.457092 204.491791 -22.331701 0.688442
303.940430 204.491791 -22.331701 0.573957
317.423706 204.491791 -22.331701 0.531423
330.907043 204.491791 -22.331701 0.000000
344.390320 204.491791 -22.331701 0.000000
-343.257996 191.008499 -22.331701 0.000000
-329.774689 191.008499 -22.331701 0.000000
-316.291382 191.008499 -22.331701 0.905563
-302.808105 191.008499 -22.331701 0.953805
-289.324799 191.008499 -22.331701 1.095823
-275.841492 191.008499 -22.331701 1.184396
-262.358185 191.008499 -22.331701 1.326452
-248.874893 191.008499 -22.331701 1.460568
-235.391602 191.008499 -22.331701 1.518851
-221.908295 191.008499 -22.331701 1.608638
-208.424988 191.008499 -22.331701 1.711355
-194.941696 191.008499 -22.331701 2.054488
-181.458389 191.008499 -22.331701 2.204666
-167.975098 191.008499 -22.331701 2.447251
-154.491791 191.008499 -22.331701 2.771001
-141.008499 191.008499 -22.331701 3.147522
-127.525192 191.008499 -22.331701 3.241623
-114.041885 191.008499 -22.331701 3.783258
-100.558594 191.008499 -22.331701 4.754532
-87.075287 191.008499 -22.331701 5.535005
-73.591980 191.008499 -22.331701 6.262263
-60.108704 191.008499 -22.331701 6.980049
-46.625397 191.008499 -22.331701 7.856542
-33.142090 191.008499 -22.331701 8.481018
-19.658783 191.008499 -22.331701 7.922780
-6.175476 191.008499 -22.331701 7.378441
7.307800 191.008499 -22.331701 7.364101
20.791107 191.008499 -22.331701 6.899697
34.274414 191.008499 -22.331701 7.069844
47.757721 191.008499 -22.331701 6.617266
61.240997 191.008499 -22.331701 6.235646
74.724304 191.008499 -22.331701 5.649344
88.207611 191.008499 -22.331701 5.534704
101.690918 191.008499 -22.331701 4.965945
115.174225 191.008499 -22.331701 4.345131
128.657501 191.008499 -22.331701 3.390378
142.140808 191.008499 -22.331701 2.742345
155.624115 191.008499 -22.331701 2.586655
169.107422 191.008499 -22.331701 2.381527
182.590698 191.008499 -22.331701 2.045790
196.074036 191.008499 -22.331701 1.785464
209.557312 191.008499 -22.331701 1.535786
223.040588 191.008499 -22.331701 1.327222
236.523926 191.008499 -22.331701 1.186182
250.007202 191.008499 -22.331701 0.986225
263.490540 191.008499 -22.331701 0.861452
276.973816 191.008499 -22.331701 0.672294
290.457092 191.008499 -22.331701 0.587982
303.940430 191.008499 -22.331701 0.463634
317.423706 191.008499 -22.331701 0.389587
330.907043 191.008499 -22.331701 0.000000
344.390320 191.008499 -22.331701 0.000000
-343.257996 177.525192 -22.331701 0.000000
-329.774689 177.525192 -22.331701 0.000000
-316.291382 177.525192 -22.331701 1.116203
-302.808105 177.525192 -22.331701 1.217043
-289.324799 177.525192 -22.331701 1.303299
-275.841492 177.525192 -22.331701 1.379315
-262.358185 177.525192 -22.331701 1.521618
-248.874893 177.525192 -22.331701 1.636413
-235.391602 177.525192 -22.331701 1.622144
-221.908295 177.525192 -22.331701 1.641768
-208.424988 177.525192 -22.331701 1.838020
-194.941696 177.525192 -22.331701 2.124483
-181.458389 177.525192 -22.331701 2.350062
-167.975098 177.525192 -22.331701 2.539179
-154.491791 177.525192 -22.331701 2.975652
-141.008499 177.525192 -22.331701 3.345109
-127.525192 177.525192 -22.331701 3.513711
-114.041885 177.525192 -22.331701 4.246572
-100.558594 177.525192 -22.331701 5.140471
-87.075287 177.525192 -22.331701 6.063438
-73.591980 177.525192 -22.331701 6.249376
-60.108704 177.525192 -22.331701 7.354564
-46.625397 177.525192 -22.331701 7.811285
-33.142090 177.525192 -22.331701 8.166671
-19.658783 177.525192 -22.331701 7.663892
-6.175476 177.525192 -22.331701 7.451292
7.307800 177.525192 -22.331701 7.302255
20.791107 177.525192 -22.331701 7.324450
34.274414 177.525192 -22.331701 7.451601
47.757721 177.525192 -22.331701 6.661116
61.240997 177.525192 -22.331701 6.143970
74.724304 177.525192 -22.331701 5.630090
88.207611 177.525192 -22.331701 5.367245
101.690918 177.525192 -22.331701 4.747341
115.174225 177.525192 -22.331701 3.930286
128.657501 177.525192 -22.331701 3.057371
142.140808 177.525192 -22.331701 2.473320
155.624115 177.525192 -22.331701 2.157233
169.107422 177.525192 -22.331701 1.853290
182.590698 177.525192 -22.331701 1.509460
196.074036 177.525192 -22.331701 1.348762
209.557312 177.525192 -22.331701 1.243087
223.040588 177.525192 -22.331701 1.118676
236.523926 177.525192 -22.331701 0.967058
250.007202 177.525192 -22.331701 0.815621
263.490540 177.525192 -22.331701 0.688060
276.973816 177.525192 -22.331701 0.574201
290.457092 177.525192 -22.331701 0.451867
303.940430 177.525192 -22.331701 0.373126
317.423706 177.525192 -22.331701 0.320144
330.907043 177.525192 -22.331701 0.000000
344.390320 177.525192 -22.331701 0.000000
-343.257996 164.041885 -22.331701 0.000000
-329.774689 164.041885 -22.331701 0.000000
-316.291382 164.041885 -22.331701 1.293860
-302.808105 164.041885 -22.331701 1.407917
-289.324799 164.041885 -22.331701 1.483342
-275.841492 164.041885 -22.331701 1.518117
-262.358185 164.041885 -22.331701 1.663565
-248.874893 164.041885 -22.331701 1.731220
-235.391602 164.041885 -22.331701 1.760437
-221.908295 164.041885 -22.331701 1.664961
-208.424988 164.041885 -22.331701 1.873383
-194.941696 164.041885 -22.331701 2.142518
-181.458389 164.041885 -22.331701 2.447797
-167.975098 164.041885 -22.331701 2.660535
-154.491791 164.041885 -22.331701 2.961390
-141.008499 164.041885 -22.331701 3.605033
-127.525192 164.041885 -22.331701 3.827707
-114.041885 164.041885 -22.331701 4.199781
-100.558594 164.041885 -22.331701 5.342005
-87.075287 164.041885 -22.331701 6.306257
-73.591980 164.041885 -22.331701 6.891958
-60.108704 164.041885 -22.331701 7.361865
-46.625397 164.041885 -22.331701 8.337849
-33.142090 164.041885 -22.331701 8.332544
-19.658783 164.041885 -22.331701 8.236594
-6.175476 164.041885 -22.331701 7.467645
7.307800 164.041885 -22.331701 7.577634
20.791107 164.041885 -22.331701 7.528373
34.274414 164.041885 -22.331701 6.792344
47.757721 164.041885 -22.331701 6.669075
61.240997 164.041885 -22.331701 6.636087
74.724304 164.041885 -22.331701 6.011686
88.207611 164.041885 -22.331701 4.976367
101.690918 164.041885 -22.331701 4.088387
115.174225 164.041885 -22.331701 3.266522
128.657501 164.041885 -22.331701 2.645000
142.140808 164.041885 -22.331701 2.042293
155.624115 164.041885 -22.331701 1.764942
169.107422 164.041885 -22.331701 1.489505
182.590698 164.041885 -22.331701 1.232465
196.074036 164.041885 -22.331701 1.074376
209.557312 164.041885 -22.331701 1.000686
223.040588 164.041885 -22.331701 0.923461
236.523926 164.041885 -22.331701 0.803228
250.007202 164.041885 -22.331701 0.694593
263.490540 164.041885 -22.331701 0.568391
276.973816 164.041885 -22.331701 0.455260
290.457092 164.041885 -22.331701 0.366167
303.940430 164.041885 -22.331701 0.291914
317.423706 164.041885 -22.331701 0.259686
330.907043 164.041885 -22.331701 0.000000
344.390320 164.041885 -22.331701 0.000000
-343.257996 150.558594 -22.331701 0.000000
-329.774689 150.558594 -22.331701 0.000000
-316.291382 150.558594 -22.331701 1.517306
-302.808105 150.558594 -22.331701 1.603698
-289.324799 150.558594 -22.331701 1.719644
-275.841492 150.558594 -22.331701 1.787415
-262.358185 150.558594 -22.331701 1.878373
-248.874893 150.558594 -22.331701 1.987433
-235.391602 150.558594 -22.331701 1.903401
-221.908295 150.558594 -22.331701 1.903694
-208.424988 150.558594 -22.331701 2.150678
-194.941696 150.558594 -22.331701 2.345191
-181.458389 150.558594 -22.331701 2.492506
-167.975098 150.558594 -22.331701 2.762814
-154.491791 150.558594 -22.331701 3.177867
-141.008499 150.558594 -22.331701 3.560403
-127.525192 150.558594 -22.331701 4.260081
-114.041885 150.558594 -22.331701 4.647880
-100.558594 150.558594 -22.331701 5.392403
-87.075287 150.558594 -22.331701 6.322117
-73.591980 150.558594 -22.331701 7.453653
-60.108704 150.558594 -22.331701 7.745406
-46.625397 150.558594 -22.331701 8.669539
-33.142090 150.558594 -22.331701 8.910743
-19.658783 150.558594 -22.331701 8.971484
-6.175476 150.558594 -22.331701 8.594938
7.307800 150.558594 -22.331701 7.967392
20.791107 150.558594 -22.331701 8.097906
34.274414 150.558594 -22.331701 7.959270
47.757721 150.558594 -22.331701 7.005844
61.240997 150.558594 -22.331701 6.890544
74.724304 150.558594 -22.331701 5.859123
88.207611 150.558594 -22.331701 4.455997
101.690918 150.558594 -22.331701 3.699620
115.174225 150.558594 -22.331701 2.898395
128.657501 150.558594 -22.331701 2.322871
142.140808 150.558594 -22.331701 1.840326
155.624115 150.558594 -22.331701 1.507812
169.107422 150.558594 -22.331701 1.314860
182.590698 150.558594 -22.331701 0.998944
196.074036 150.558594 -22.331701 0.866517
209.557312 150.558594 -22.331701 0.852924
223.040588 150.558594 -22.331701 0.749010
236.523926 150.558594 -22.331701 0.631658
250.007202 150.558594 -22.331701 0.550241
263.490540 150.558594 -22.331701 0.432392
276.973816 150.558594 -22.331701 0.370142
290.457092 150.558594 -22.331701 0.305928
303.940430 150.558594 -22.331701 0.267335
317.423706 150.558594 -22.331701 0.261006
330.907043 150.558594 -22.331701 0.000000
344.390320 150.558594 -22.331701 0.000000
-343.257996 137.075287 -22.331701 0.000000
-329.774689 137.075287 -22.331701 0.000000
-316.291382 137.075287 -22.331701 1.834098
-302.808105 137.075287 -22.331701 1.874061
-289.324799 137.075287 -22.331701 2.067522
-275.841492 137.075287 -22.331701 2.049003
-262.358185 137.075287 -22.331701 2.095169
-248.874893 137.075287 -22.331701 2.121774
-235.391602 137.075287 -22.331701 2.030329
-221.908295 137.075287 -22.331701 2.284855
-208.424988 137.075287 -22.331701 2.407553
-194.941696 137.075287 -22.331701 2.521971
-181.458389 137.075287 -22.331701 2.856436
-167.975098 137.075287 -22.331701 3.065448
-154.491791 137.075287 -22.331701 3.256557
-141.008499 137.075287 -22.331701 3.619040
-127.525192 137.075287 -22.331701 4.239954
-114.041885 137.075287 -22.331701 4.983375
-100.558594 137.075287 -22.331701 5.669034
-87.075287 137.075287 -22.331701 6.474898
-73.591980 137.075287 -22.331701 7.830961
-60.108704 137.075287 -22.331701 9.015797
-46.625397 137.075287 -22.331701 9.461294
-33.142090 137.075287 -22.331701 10.259881
-19.658783 137.075287 -22.331701 9.670296
-6.175476 137.075287 -22.331701 8.953877
7.307800 137.075287 -22.331701 8.818712
20.791107 137.075287 -22.331701 8.846560
34.274414 137.075287 -22.331701 8.138288
47.757721 137.075287 -22.331701 6.633049
61.240997 137.075287 -22.331701 6.309517
74.724304 137.075287 -22.331701 5.669084
88.207611 137.075287 -22.331701 4.318913
101.690918 137.075287 -22.331701 3.290855
115.174225 137.075287 -22.331701 2.592284
128.657501 137.075287 -22.331701 2.044380
142.140808 137.075287 -22.331701 1.668991
155.624115 137.075287 -22.331701 1.352165
169.107422 137.075287 -22.331701 1.060214
182.590698 137.075287 -22.331701 0.896094
196.074036 137.075287 -22.331701 0.787074
209.557312 137.075287 -22.331701 0.745838
223.040588 137.075287 -22.331701 0.618563
236.523926 137.075287 -22.331701 0.556468
250.007202 137.075287 -22.331701 0.436563
263.490540 137.075287 -22.331701 0.345174
276.973816 137.075287 -22.331701 0.290937
290.457092 137.075287 -22.331701 0.257069
303.940430 137.075287 -22.331701 0.230704
317.423706 137.075287 -22.331701 0.221938
330.907043 137.075287 -22.331701 0.000000
344.390320 137.075287 -22.331701 0.000000
-343.257996 123.591980 -22.331701 0.000000
-329.774689 123.591980 -22.331701 0.000000
-316.291382 123.591980 -22.331701 0.000000
-302.808105 123.591980 -22.331701 2.088588
-289.324799 123.591980 -22.331701 2.273349
-275.841492 123.591980 -22.331701 2.291346
-262.358185 123.591980 -22.331701 2.283804
-248.874893 123.591980 -22.331701 2.295951
-235.391602 123.591980 -22.331701 2.262142
-221.908295 123.591980 -22.331701 2.558013
-208.424988 123.591980 -22.331701 2.588085
-194.941696 123.591980 -22.331701 2.919058
-181.458389 123.591980 -22.331701 3.115763
-167.975098 123.591980 -22.331701 3.220824
-154.491791 123.591980 -22.331701 3.546564
-141.008499 123.591980 -22.331701 4.064017
-127.525192 123.591980 -22.331701 4.761844
-114.041885 123.591980 -22.331701 5.544978
-100.558594 123.591980 -22.331701 6.475616
-87.075287 123.591980 -22.331701 7.155810
-73.591980 123.591980 -22.331701 8.212396
-60.108704 123.591980 -22.331701 8.640349
-46.625397 123.591980 -22.331701 8.744585
-33.142090 123.591980 -22.331701 9.553017
-19.658783 123.591980 -22.331701 8.772354
-6.175476 123.591980 -22.331701 9.016402
7.307800 123.591980 -22.331701 9.024691
20.791107 123.591980 -22.331701 8.400962
34.274414 123.591980 -22.331701 7.505880
47.757721 123.591980 -22.331701 6.187008
61.240997 123.591980 -22.331701 5.533240
74.724304 123.591980 -22.331701 5.192437
88.207611 123.591980 -22.331701 4.364219
101.690918 123.591980 -22.331701 3.392222
115.174225 123.591980 -22.331701 2.465692
128.657501 123.591980 -22.331701 1.897005
142.140808 123.591980 -22.331701 1.648069
155.624115 123.591980 -22.331701 1.289631
169.107422 123.591980 -22.331701 1.044981
182.590698 123.591980 -22.331701 0.836471
196.074036 123.591980 -22.331701 0.759604
209.557312 123.591980 -22.331701 0.695397
223.040588 123.591980 -22.331701 0.587500
236.523926 123.591980 -22.331701 0.515206
250.007202 123.591980 -22.331701 0.436454
263.490540 123.591980 -22.331701 0.321987
276.973816 123.591980 -22.331701 0.258857
290.457092 123.591980 -22.331701 0.226500
303.940430 123.591980 -22.331701 0.190390
317.423706 123.591980 -22.331701 0.188638
330.907043 123.591980 -22.331701 0.000000
344.390320 123.591980 -22.331701 0.000000
-343.257996 110.108704 -22.331701 0.000000
-329.774689 110.108704 -22.331701 0.000000
-316.291382 110.108704 -22.331701 0.000000
-302.808105 110.108704 -22.331701 2.396578
-289.324799 110.108704 -22.331701 2.351239
-275.841492 110.108704 -22.331701 2.545968
-262.358185 110.108704 -22.331701 2.531414
-248.874893 110.108704 -22.331701 2.468816
-235.391602 110.108704 -22.331701 2.626264
-221.908295 110.108704 -22.331701 2.693751
-208.424988 110.108704 -22.331701 2.982658
-194.941696 110.108704 -22.331701 3.252360
-181.458389 110.108704 -22.331701 3.521094
-167.975098 110.108704 -22.331701 3.738649
-154.491791 110.108704 -22.331701 4.033767
-141.008499 110.108704 -22.331701 4.319215
-127.525192 110.108704 -22.331701 5.365460
-114.041885 110.108704 -22.331701 5.879478
-100.558594 110.108704 -22.331701 6.722382
-87.075287 110.108704 -22.331701 7.134636
-73.591980 110.108704 -22.331701 7.700181
-60.108704 110.108704 -22.331701 8.181368
-46.625397 110.108704 -22.331701 8.762727
-33.142090 110.108704 -22.331701 8.846427
-19.658783 110.108704 -22.331701 8.452208
-6.175476 110.108704 -22.331701 8.602423
7.307800 110.108704 -22.331701 9.079148
20.791107 110.108704 -22.331701 8.237134
34.274414 110.108704 -22.331701 7.464732
47.757721 110.108704 -22.331701 6.598279
61.240997 110.108704 -22.331701 5.788064
74.724304 110.108704 -22.331701 5.281182
88.207611 110.108704 -22.331701 4.682259
101.690918 110.108704 -22.331701 3.648721
115.174225 110.108704 -22.331701 2.872209
128.657501 110.108704 -22.331701 2.202454
142.140808 110.108704 -22.331701 1.706261
155.624115 110.108704 -22.331701 1.323374
169.107422 110.108704 -22.331701 1.004388
182.590698 110.108704 -22.331701 0.899555
196.074036 110.108704 -22.331701 0.796811
209.557312 110.108704 -22.331701 0.707282
223.040588 110.108704 -22.331701 0.565369
236.523926 110.108704 -22.331701 0.493391
250.007202 110.108704 -22.331701 0.387134
263.490540 110.108704 -22.331701 0.289684
276.973816 110.108704 -22.331701 0.240466
290.457092 110.108704 -22.331701 0.204781
303.940430 110.108704 -22.331701 0.179912
317.423706 110.108704 -22.331701 0.165381
330.907043 110.108704 -22.331701 0.000000
344.390320 110.108704 -22.331701 0.000000
-343.257996 96.625397 -22.331701 0.000000
-329.774689 96.625397 -22.331701 0.000000
-316.291382 96.625397 -22.331701 0.000000
-302.808105 96.625397 -22.331701 2.276636
-289.324799 96.625397 -22.331701 2.182026
-275.841492 96.625397 -22.331701 2.468143
-262.358185 96.625397 -22.331701 2.685911
-248.874893 96.625397 -22.331701 2.689171
-235.391602 96.625397 -22.331701 2.628486
-221.908295 96.625397 -22.331701 2.784385
-208.424988 96.625397 -22.331701 3.213827
-194.941696 96.625397 -22.331701 3.604651
-181.458389 96.625397 -22.331701 3.881097
-167.975098 96.625397 -22.331701 4.002373
-154.491791 96.625397 -22.331701 4.427503
-141.008499 96.625397 -22.331701 5.211695
-127.525192 96.625397 -22.331701 5.842012
-114.041885 96.625397 -22.331701 6.238519
-100.558594 96.625397 -22.331701 7.089156
-87.075287 96.625397 -22.331701 7.375175
-73.591980 96.625397 -22.331701 7.289166
-60.108704 96.625397 -22.331701 7.827922
-46.625397 96.625397 -22.331701 8.149561
-33.142090 96.625397 -22.331701 8.156718
-19.658783 96.625397 -22.331701 8.315725
-6.175476 96.625397 -22.331701 7.986671
7.307800 96.625397 -22.331701 7.701834
20.791107 96.625397 -22.331701 7.524391
34.274414 96.625397 -22.331701 7.363235
47.757721 96.625397 -22.331701 7.147591
61.240997 96.625397 -22.331701 6.709711
74.724304 96.625397 -22.331701 5.925612
88.207611 96.625397 -22.331701 5.257868
101.690918 96.625397 -22.331701 4.233861
115.174225 96.625397 -22.331701 3.551601
128.657501 96.625397 -22.331701 2.715615
142.140808 96.625397 -22.331701 2.076486
155.624115 96.625397 -22.331701 1.516953
169.107422 96.625397 -22.331701 1.120078
182.590698 96.625397 -22.331701 0.998108
196.074036 96.625397 -22.331701 0.866429
209.557312 96.625397 -22.331701 0.737968
223.040588 96.625397 -22.331701 0.587596
236.523926 96.625397 -22.331701 0.482870
250.007202 96.625397 -22.331701 0.375058
263.490540 96.625397 -22.331701 0.292447
276.973816 96.625397 -22.331701 0.233493
290.457092 96.625397 -22.331701 0.194968
303.940430 96.625397 -22.331701 0.170306
317.423706 96.625397 -22.331701 0.167486
330.907043 96.625397 -22.331701 0.000000
344.390320 96.625397 -22.331701 0.000000
-343.257996 83.142090 -22.331701 0.000000
-329.774689 83.142090 -22.331701 0.000000
-316.291382 83.142090 -22.331701 0.000000
-302.808105 83.142090 -22.331701 2.046501
-289.324799 83.142090 -22.331701 2.240428
-275.841492 83.142090 -22.331701 2.601523
-262.358185 83.142090 -22.331701 2.686455
-248.874893 83.142090 -22.331701 2.604098
-235.391602 83.142090 -22.331701 2.768459
-221.908295 83.142090 -22.331701 3.007834
-208.424988 83.142090 -22.331701 3.320468
-194.941696 83.142090 -22.331701 3.640895
-181.458389 83.142090 -22.331701 4.039115
-167.975098 83.142090 -22.331701 4.435221
-154.491791 83.142090 -22.331701 4.733783
-141.008499 83.142090 -22.331701 5.624891
-127.525192 83.142090 -22.331701 6.277510
-114.041885 83.142090 -22.331701 6.722906
-100.558594 83.142090 -22.331701 7.011409
-87.075287 83.142090 -22.331701 7.501654
-73.591980 83.142090 -22.331701 7.591644
-60.108704 83.142090 -22.331701 7.891232
-46.625397 83.142090 -22.331701 7.837090
-33.142090 83.142090 -22.331701 7.635139
-19.658783 83.142090 -22.331701 7.894340
-6.175476 83.142090 -22.331701 7.300282
7.307800 83.142090 -22.331701 7.095355
20.791107 83.142090 -22.331701 6.662723
34.274414 83.142090 -22.331701 7.364765
47.757721 83.142090 -22.331701 7.263665
61.240997 83.142090 -22.331701 6.551451
74.724304 83.142090 -22.331701 6.408993
88.207611 83.142090 -22.331701 5.505918
101.690918 83.142090 -22.331701 4.603709
115.174225 83.142090 -22.331701 3.936240
128.657501 83.142090 -22.331701 2.888026
142.140808 83.142090 -22.331701 2.429187
155.624115 83.142090 -22.331701 1.962003
169.107422 83.142090 -22.331701 1.587821
182.590698 83.142090 -22.331701 1.401151
196.074036 83.142090 -22.331701 1.041955
209.557312 83.142090 -22.331701 0.842420
223.040588 83.142090 -22.331701 0.651176
236.523926 83.142090 -22.331701 0.481389
250.007202 83.142090 -22.331701 0.400335
263.490540 83.142090 -22.331701 0.321026
276.973816 83.142090 -22.331701 0.253160
290.457092 83.142090 -22.331701 0.208658
303.940430 83.142090 -22.331701 0.197518
317.423706 83.142090 -22.331701 0.202332
330.907043 83.142090 -22.331701 0.000000
344.390320 83.142090 -22.331701 0.000000
-343.257996 69.658783 -22.331701 0.000000
-329.774689 69.658783 -22.331701 0.000000
-316.291382 69.658783 -22.331701 0.000000
-302.808105 69.658783 -22.331701 0.000000
-289.324799 69.658783 -22.331701 2.396453
-275.841492 69.658783 -22.331701 2.584731
-262.358185 69.658783 -22.331701 2.524570
-248.874893 69.658783 -22.331701 2.556446
-235.391602 69.658783 -22.331701 2.667936
-221.908295 69.658783 -22.331701 2.832273
-208.424988 69.658783 -22.331701 3.238497
-194.941696 69.658783 -22.331701 3.567328
-181.458389 69.658783 -22.331701 4.183535
-167.975098 69.658783 -22.331701 4.815798
-154.491791 69.658783 -22.331701 5.602001
-141.008499 69.658783 -22.331701 6.635177
-127.525192 69.658783 -22.331701 7.030657
-114.041885 69.658783 -22.331701 7.553510
-100.558594 69.658783 -22.331701 7.458329
-87.075287 69.658783 -22.331701 7.542835
-73.591980 69.658783 -22.331701 7.680833
-60.108704 69.658783 -22.331701 7.240105
-46.625397 69.658783 -22.331701 6.938319
-33.142090 69.658783 -22.331701 7.228938
-19.658783 69.658783 -22.331701 7.629478
-6.175476 69.658783 -22.331701 7.095787
7.307800 69.658783 -22.331701 6.898908
20.791107 69.658783 -22.331701 6.730610
34.274414 69.658783 -22.331701 7.399818
47.757721 69.658783 -22.331701 7.645075
61.240997 69.658783 -22.331701 7.145103
74.724304 69.658783 -22.331701 6.842993
88.207611 69.658783 -22.331701 6.105127
101.690918 69.658783 -22.331701 5.057808
115.174225 69.658783 -22.331701 4.056064
128.657501 69.658783 -22.331701 3.157350
142.140808 69.658783 -22.331701 2.989467
155.624115 69.658783 -22.331701 2.499472
169.107422 69.658783 -22.331701 2.263454
182.590698 69.658783 -22.331701 1.878386
196.074036 69.658783 -22.331701 1.486552
209.557312 69.658783 -22.331701 1.031974
223.040588 69.658783 -22.331701 0.738617
236.523926 69.658783 -22.331701 0.605623
250.007202 69.658783 -22.331701 0.483051
263.490540 69.658783 -22.331701 0.383580
276.973816 69.658783 -22.331701 0.284644
290.457092 69.658783 -22.331701 0.240568
303.940430 69.658783 -22.331701 0.234794
317.423706 69.658783 -22.331701 0.249885
330.907043 69.658783 -22.331701 0.000000
344.390320 69.658783 -22.331701 0.000000
-343.257996 56.175476 -22.331701 0.000000
-329.774689 56.175476 -22.331701 0.000000
-316.291382 56.175476 -22.331701 0.000000
-302.808105 56.175476 -22.331701 2.249842
-289.324799 56.175476 -22.331701 2.192143
-275.841492 56.175476 -22.331701 2.298778
-262.358185 56.175476 -22.331701 2.280610
-248.874893 56.175476 -22.331701 2.244211
-235.391602 56.175476 -22.331701 2.743445
-221.908295 56.175476 -22.331701 2.966793
-208.424988 56.175476 -22.331701 3.633994
-194.941696 56.175476 -22.331701 4.251250
-181.458389 56.175476 -22.331701 4.628870
-167.975098 56.175476 -22.331701 5.578624
-154.491791 56.175476 -22.331701 6.033461
-141.008499 56.175476 -22.331701 6.746341
-127.525192 56.175476 -22.331701 7.270129
-114.041885 56.175476 -22.331701 7.429009
-100.558594 56.175476 -22.331701 7.678507
-87.075287 56.175476 -22.331701 7.484428
-73.591980 56.175476 -22.331701 7.979842
-60.108704 56.175476 -22.331701 7.413549
-46.625397 56.175476 -22.331701 6.981043
-33.142090 56.175476 -22.331701 7.394785
-19.658783 56.175476 -22.331701 7.034964
-6.175476 56.175476 -22.331701 6.781049
7.307800 56.175476 -22.331701 6.920876
20.791107 56.175476 -22.331701 7.307708
34.274414 56.175476 -22.331701 7.419178
47.757721 56.175476 -22.331701 7.181468
61.240997 56.175476 -22.331701 6.950079
74.724304 56.175476 -22.331701 6.805202
88.207611 56.175476 -22.331701 6.285159
101.690918 56.175476 -22.331701 4.926425
115.174225 56.175476 -22.331701 3.933438
128.657501 56.175476 -22.331701 3.340963
142.140808 56.175476 -22.331701 3.179291
155.624115 56.175476 -22.331701 2.990736
169.107422 56.175476 -22.331701 2.572786
182.590698 56.175476 -22.331701 2.329086
196.074036 56.175476 -22.331701 1.878595
209.557312 56.175476 -22.331701 1.406914
223.040588 56.175476 -22.331701 1.105974
236.523926 56.175476 -22.331701 0.786148
250.007202 56.175476 -22.331701 0.628840
263.490540 56.175476 -22.331701 0.469176
276.973816 56.175476 -22.331701 0.354578
290.457092 56.175476 -22.331701 0.318702
303.940430 56.175476 -22.331701 0.287539
317.423706 56.175476 -22.331701 0.310441
330.907043 56.175476 -22.331701 0.000000
344.390320 56.175476 -22.331701 0.000000
-343.257996 42.692200 -22.331701 0.000000
-329.774689 42.692200 -22.331701 0.000000
-316.291382 42.692200 -22.331701 0.000000
-302.808105 42.692200 -22.331701 1.711891
-289.324799 42.692200 -22.331701 1.761949
-275.841492 42.692200 -22.331701 1.858138
-262.358185 42.692200 -22.331701 2.022353
-248.874893 42.692200 -22.331701 2.121213
-235.391602 42.692200 -22.331701 2.497184
-221.908295 42.692200 -22.331701 2.816547
-208.424988 42.692200 -22.331701 3.560195
-194.941696 42.692200 -22.331701 4.278941
-181.458389 42.692200 -22.331701 4.773788
-167.975098 42.692200 -22.331701 5.144011
-154.491791 42.692200 -22.331701 6.286233
-141.008499 42.692200 -22.331701 6.805777
-127.525192 42.692200 -22.331701 7.630733
-114.041885 42.692200 -22.331701 7.760393
-100.558594 42.692200 -22.331701 7.909163
-87.075287 42.692200 -22.331701 8.029491
-73.591980 42.692200 -22.331701 7.692764
-60.108704 42.692200 -22.331701 7.697167
-46.625397 42.692200 -22.331701 7.633135
-33.142090 42.692200 -22.331701 7.170657
-19.658783 42.692200 -22.331701 7.375643
-6.175476 42.692200 -22.331701 7.107731
7.307800 42.692200 -22.331701 6.846376
20.791107 42.692200 -22.331701 7.094290
34.274414 42.692200 -22.331701 7.004557
47.757721 42.692200 -22.331701 6.596083
61.240997 42.692200 -22.331701 6.708069
74.724304 42.692200 -22.331701 6.418732
88.207611 42.692200 -22.331701 5.665020
101.690918 42.692200 -22.331701 4.492673
115.174225 42.692200 -22.331701 3.840612
128.657501 42.692200 -22.331701 3.729751
142.140808 42.692200 -22.331701 3.834257
155.624115 42.692200 -22.331701 3.286876
169.107422 42.692200 -22.331701 3.057123
182.590698 42.692200 -22.331701 2.830511
196.074036 42.692200 -22.331701 2.338961
209.557312 42.692200 -22.331701 1.878914
223.040588 42.692200 -22.331701 1.320957
236.523926 42.692200 -22.331701 1.022535
250.007202 42.692200 -22.331701 0.815522
263.490540 42.692200 -22.331701 0.646282
276.973816 42.692200 -22.331701 0.558872
290.457092 42.692200 -22.331701 0.404940
303.940430 42.692200 -22.331701 0.323027
317.423706 42.692200 -22.331701 0.349013
330.907043 42.692200 -22.331701 0.000000
344.390320 42.692200 -22.331701 0.000000
-343.257996 29.208893 -22.331701 0.000000
-329.774689 29.208893 -22.331701 0.000000
-316.291382 29.208893 -22.331701 0.000000
-302.808105 29.208893 -22.331701 1.504060
-289.324799 29.208893 -22.331701 1.671993
-275.841492 29.208893 -22.331701 1.709507
-262.358185 29.208893 -22.331701 1.791587
-248.874893 29.208893 -22.331701 2.059663
-235.391602 29.208893 -22.331701 2.245128
-221.908295 29.208893 -22.331701 2.802115
-208.424988 29.208893 -22.331701 3.618414
-194.941696 29.208893 -22.331701 4.199118
-181.458389 29.208893 -22.331701 5.168045
-167.975098 29.208893 -22.331701 6.036540
-154.491791 29.208893 -22.331701 6.635170
-141.008499 29.208893 -22.331701 7.697952
-127.525192 29.208893 -22.331701 8.180961
-114.041885 29.208893 -22.331701 8.181834
-100.558594 29.208893 -22.331701 8.208129
-87.075287 29.208893 -22.331701 8.015041
-73.591980 29.208893 -22.331701 7.282348
-60.108704 29.208893 -22.331701 7.127904
-46.625397 29.208893 -22.331701 7.109308
-33.142090 29.208893 -22.331701 6.930373
-19.658783 29.208893 -22.331701 6.826024
-6.175476 29.208893 -22.331701 6.699624
7.307800 29.208893 -22.331701 6.970765
20.791107 29.208893 -22.331701 6.526708
34.274414 29.208893 -22.331701 6.127347
47.757721 29.208893 -22.331701 5.374461
61.240997 29.208893 -22.331701 5.985242
74.724304 29.208893 -22.331701 5.672526
88.207611 29.208893 -22.331701 4.837432
101.690918 29.208893 -22.331701 4.124719
115.174225 29.208893 -22.331701 3.477138
128.657501 29.208893 -22.331701 3.471536
142.140808 29.208893 -22.331701 3.618238
155.624115 29.208893 -22.331701 3.285082
169.107422 29.208893 -22.331701 3.410330
182.590698 29.208893 -22.331701 3.288471
196.074036 29.208893 -22.331701 2.880271
209.557312 29.208893 -22.331701 2.415514
223.040588 29.208893 -22.331701 1.736992
236.523926 29.208893 -22.331701 1.352991
250.007202 29.208893 -22.331701 1.198376
263.490540 29.208893 -22.331701 0.863696
276.973816 29.208893 -22.331701 0.682893
290.457092 29.208893 -22.331701 0.499112
303.940430 29.208893 -22.331701 0.379377
317.423706 29.208893 -22.331701 0.418951
330.907043 29.208893 -22.331701 0.000000
344.390320 29.208893 -22.331701 0.000000
-343.257996 15.725586 -22.331701 0.000000
-329.774689 15.725586 -22.331701 0.000000
-316.291382 15.725586 -22.331701 0.956379
-302.808105 15.725586 -22.331701 1.108525
-289.324799 15.725586 -22.331701 1.195272
-275.841492 15.725586 -22.331701 1.508173
-262.358185 15.725586 -22.331701 1.584911
-248.874893 15.725586 -22.331701 1.995453
-235.391602 15.725586 -22.331701 2.224534
-221.908295 15.725586 -22.331701 2.946233
-208.424988 15.725586 -22.331701 3.522650
-194.941696 15.725586 -22.331701 4.156863
-181.458389 15.725586 -22.331701 5.649992
-167.975098 15.725586 -22.331701 6.462670
-154.491791 15.725586 -22.331701 7.241251
-141.008499 15.725586 -22.331701 7.664853
-127.525192 15.725586 -22.331701 8.345071
-114.041885 15.725586 -22.331701 8.019310
-100.558594 15.725586 -22.331701 7.812147
-87.075287 15.725586 -22.331701 7.509244
-73.591980 15.725586 -22.331701 7.384207
-60.108704 15.725586 -22.331701 6.970371
-46.625397 15.725586 -22.331701 7.080296
-33.142090 15.725586 -22.331701 6.757008
-19.658783 15.725586 -22.331701 6.911455
-6.175476 15.725586 -22.331701 6.428557
7.307800 15.725586 -22.331701 6.523848
20.791107 15.725586 -22.331701 6.212574
34.274414 15.725586 -22.331701 5.441904
47.757721 15.725586 -22.331701 5.151336
61.240997 15.725586 -22.331701 5.537355
74.724304 15.725586 -22.331701 5.078546
88.207611 15.725586 -22.331701 4.304037
101.690918 15.725586 -22.331701 3.587990
115.174225 15.725586 -22.331701 3.180747
128.657501 15.725586 -22.331701 3.241297
142.140808 15.725586 -22.331701 3.243453
155.624115 15.725586 -22.331701 3.320053
169.107422 15.725586 -22.331701 3.327232
182.590698 15.725586 -22.331701 3.315134
196.074036 15.725586 -22.331701 3.243772
209.557312 15.725586 -22.331701 2.716595
223.040588 15.725586 -22.331701 2.235363
236.523926 15.725586 -22.331701 1.790065
250.007202 15.725586 -22.331701 1.523689
263.490540 15.725586 -22.331701 1.162431
276.973816 15.725586 -22.331701 0.941449
290.457092 15.725586 -22.331701 0.657954
303.940430 15.725586 -22.331701 0.486016
317.423706 15.725586 -22.331701 0.429267
330.907043 15.725586 -22.331701 0.000000
344.390320 15.725586 -22.331701 0.000000
-343.257996 2.242279 -22.331701 0.000000
-329.774689 2.242279 -22.331701 0.000000
-316.291382 2.242279 -22.331701 0.823642
-302.808105 2.242279 -22.331701 0.997283
-289.324799 2.242279 -22.331701 1.118673
-275.841492 2.242279 -22.331701 1.359976
-262.358185 2.242279 -22.331701 1.648723
-248.874893 2.242279 -22.331701 1.841848
-235.391602 2.242279 -22.331701 2.189508
-221.908295 2.242279 -22.331701 2.864178
-208.424988 2.242279 -22.331701 3.560449
-194.941696 2.242279 -22.331701 4.399209
-181.458389 2.242279 -22.331701 5.765939
-167.975098 2.242279 -22.331701 6.458661
-154.491791 2.242279 -22.331701 7.084078
-141.008499 2.242279 -22.331701 7.971241
-127.525192 2.242279 -22.331701 9.127012
-114.041885 2.242279 -22.331701 8.286516
-100.558594 2.242279 -22.331701 7.956214
-87.075287 2.242279 -22.331701 7.612424
-73.591980 2.242279 -22.331701 7.268339
-60.108704 2.242279 -22.331701 7.193779
-46.625397 2.242279 -22.331701 7.001380
-33.142090 2.242279 -22.331701 6.685144
-19.658783 2.242279 -22.331701 5.946148
-6.175476 2.242279 -22.331701 5.770519
7.307800 2.242279 -22.331701 5.776812
20.791107 2.242279 -22.331701 5.345319
34.274414 2.242279 -22.331701 5.124846
47.757721 2.242279 -22.331701 4.658263
61.240997 2.242279 -22.331701 4.933541
74.724304 2.242279 -22.331701 4.682876
88.207611 2.242279 -22.331701 3.905843
101.690918 2.242279 -22.331701 3.339581
115.174225 2.242279 -22.331701 3.023101
128.657501 2.242279 -22.331701 3.060807
142.140808 2.242279 -22.331701 3.059717
155.624115 2.242279 -22.331701 3.114199
169.107422 2.242279 -22.331701 3.245324
182.590698 2.242279 -22.331701 3.581892
196.074036 2.242279 -22.331701 3.340885
209.557312 2.242279 -22.331701 2.973032
223.040588 2.242279 -22.331701 2.588401
236.523926 2.242279 -22.331701 2.201899
250.007202 2.242279 -22.331701 1.674599
263.490540 2.242279 -22.331701 1.441152
276.973816 2.242279 -22.331701 1.139260
290.457092 2.242279 -22.331701 0.813343
303.940430 2.242279 -22.331701 0.552510
317.423706 2.242279 -22.331701 0.402037
330.907043 2.242279 -22.331701 0.000000
344.390320 2.242279 -22.331701 0.000000
-343.257996 -11.240997 -22.331701 0.000000
-329.774689 -11.240997 -22.331701 0.000000
-316.291382 -11.240997 -22.331701 0.750046
-302.808105 -11.240997 -22.331701 0.659328
-289.324799 -11.240997 -22.331701 0.916471
-275.841492 -11.240997 -22.331701 1.075872
-262.358185 -11.240997 -22.331701 1.060180
-248.874893 -11.240997 -22.331701 1.725407
-235.391602 -11.240997 -22.331701 2.296177
-221.908295 -11.240997 -22.331701 2.987684
-208.424988 -11.240997 -22.331701 3.805374
-194.941696 -11.240997 -22.331701 4.994344
-181.458389 -11.240997 -22.331701 6.162154
-167.975098 -11.240997 -22.331701 6.908987
-154.491791 -11.240997 -22.331701 7.655817
-141.008499 -11.240997 -22.331701 8.316808
-127.525192 -11.240997 -22.331701 8.450969
-114.041885 -11.240997 -22.331701 8.569258
-100.558594 -11.240997 -22.331701 8.878169
-87.075287 -11.240997 -22.331701 7.873699
-73.591980 -11.240997 -22.331701 7.467992
-60.108704 -11.240997 -22.331701 6.848920
-46.625397 -11.240997 -22.331701 6.760031
-33.142090 -11.240997 -22.331701 6.809203
-19.658783 -11.240997 -22.331701 6.172225
-6.175476 -11.240997 -22.331701 5.842148
7.307800 -11.240997 -22.331701 5.715449
20.791107 -11.240997 -22.331701 5.331543
34.274414 -11.240997 -22.331701 4.519598
47.757721 -11.240997 -22.331701 4.381600
61.240997 -11.240997 -22.331701 4.332299
74.724304 -11.240997 -22.331701 4.273937
88.207611 -11.240997 -22.331701 3.742455
101.690918 -11.240997 -22.331701 3.246555
115.174225 -11.240997 -22.331701 2.953854
128.657501 -11.240997 -22.331701 2.865812
142.140808 -11.240997 -22.331701 2.998603
155.624115 -11.240997 -22.331701 3.146861
169.107422 -11.240997 -22.331701 3.214549
182.590698 -11.240997 -22.331701 3.567245
196.074036 -11.240997 -22.331701 3.638413
209.557312 -11.240997 -22.331701 3.301037
223.040588 -11.240997 -22.331701 2.970905
236.523926 -11.240997 -22.331701 2.556318
250.007202 -11.240997 -22.331701 1.848032
263.490540 -11.240997 -22.331701 1.363233
276.973816 -11.240997 -22.331701 1.281848
290.457092 -11.240997 -22.331701 0.904877
303.940430 -11.240997 -22.331701 0.572714
317.423706 -11.240997 -22.331701 0.410085
330.907043 -11.240997 -22.331701 0.000000
344.390320 -11.240997 -22.331701 0.000000
-343.257996 -24.724304 -22.331701 0.000000
-329.774689 -24.724304 -22.331701 0.000000
-316.291382 -24.724304 -22.331701 0.873345
-302.808105 -24.724304 -22.331701 0.763706
-289.324799 -24.724304 -22.331701 0.882031
-275.841492 -24.724304 -22.331701 1.017198
-262.358185 -24.724304 -22.331701 1.109165
-248.874893 -24.724304 -22.331701 1.561337
-235.391602 -24.724304 -22.331701 2.609212
-221.908295 -24.724304 -22.331701 3.238172
-208.424988 -24.724304 -22.331701 3.882475
-194.941696 -24.724304 -22.331701 5.373589
-181.458389 -24.724304 -22.331701 6.999216
-167.975098 -24.724304 -22.331701 7.601385
-154.491791 -24.724304 -22.331701 7.860021
-141.008499 -24.724304 -22.331701 8.959893
-127.525192 -24.724304 -22.331701 8.621553
-114.041885 -24.724304 -22.331701 8.672418
-100.558594 -24.724304 -22.331701 9.573714
-87.075287 -24.724304 -22.331701 9.066162
-73.591980 -24.724304 -22.331701 8.072551
-60.108704 -24.724304 -22.331701 7.081540
-46.625397 -24.724304 -22.331701 6.745969
-33.142090 -24.724304 -22.331701 6.825847
-19.658783 -24.724304 -22.331701 6.128629
-6.175476 -24.724304 -22.331701 5.455325
7.307800 -24.724304 -22.331701 5.603466
20.791107 -24.724304 -22.331701 4.965246
34.274414 -24.724304 -22.331701 4.655668
47.757721 -24.724304 -22.331701 4.554313
61.240997 -24.724304 -22.331701 4.426306
74.724304 -24.724304 -22.331701 4.149942
88.207611 -24.724304 -22.331701 3.358094
101.690918 -24.724304 -22.331701 3.114687
115.174225 -24.724304 -22.331701 2.881722
128.657501 -24.724304 -22.331701 3.008442
142.140808 -24.724304 -22.331701 3.017236
155.624115 -24.724304 -22.331701 3.010264
169.107422 -24.724304 -22.331701 3.198287
182.590698 -24.724304 -22.331701 3.477597
196.074036 -24.724304 -22.331701 3.557655
209.557312 -24.724304 -22.331701 3.468325
223.040588 -24.724304 -22.331701 2.968625
236.523926 -24.724304 -22.331701 2.537142
250.007202 -24.724304 -22.331701 1.982942
263.490540 -24.724304 -22.331701 1.648473
276.973816 -24.724304 -22.331701 1.364715
290.457092 -24.724304 -22.331701 1.028318
303.940430 -24.724304 -22.331701 0.614771
317.423706 -24.724304 -22.331701 0.469342
330.907043 -24.724304 -22.331701 0.000000
344.390320 -24.724304 -22.331701 0.000000
-343.257996 -38.207611 -22.331701 0.000000
-329.774689 -38.207611 -22.331701 0.000000
-316.291382 -38.207611 -22.331701 1.052265
-302.808105 -38.207611 -22.331701 0.816529
-289.324799 -38.207611 -22.331701 1.049055
-275.841492 -38.207611 -22.331701 1.204172
-262.358185 -38.207611 -22.331701 1.257640
-248.874893 -38.207611 -22.331701 1.752755
-235.391602 -38.207611 -22.331701 2.188230
-221.908295 -38.207611 -22.331701 3.264991
-208.424988 -38.207611 -22.331701 3.985965
-194.941696 -38.207611 -22.331701 5.508078
-181.458389 -38.207611 -22.331701 7.448244
-167.975098 -38.207611 -22.331701 8.045363
-154.491791 -38.207611 -22.331701 8.634440
-141.008499 -38.207611 -22.331701 9.243986
-127.525192 -38.207611 -22.331701 9.055778
-114.041885 -38.207611 -22.331701 8.788953
-100.558594 -38.207611 -22.331701 9.078359
-87.075287 -38.207611 -22.331701 8.866056
-73.591980 -38.207611 -22.331701 7.960407
-60.108704 -38.207611 -22.331701 7.307292
-46.625397 -38.207611 -22.331701 6.286494
-33.142090 -38.207611 -22.331701 5.668776
-19.658783 -38.207611 -22.331701 5.304708
-6.175476 -38.207611 -22.331701 5.312299
7.307800 -38.207611 -22.331701 5.307625
20.791107 -38.207611 -22.331701 4.783006
34.274414 -38.207611 -22.331701 4.405706
47.757721 -38.207611 -22.331701 4.082752
61.240997 -38.207611 -22.331701 3.982294
74.724304 -38.207611 -22.331701 3.447901
88.207611 -38.207611 -22.331701 3.245882
101.690918 -38.207611 -22.331701 2.878716
115.174225 -38.207611 -22.331701 2.991064
128.657501 -38.207611 -22.331701 2.922274
142.140808 -38.207611 -22.331701 2.980619
155.624115 -38.207611 -22.331701 2.949150
169.107422 -38.207611 -22.331701 2.982444
182.590698 -38.207611 -22.331701 3.366046
196.074036 -38.207611 -22.331701 3.575982
209.557312 -38.207611 -22.331701 3.325939
223.040588 -38.207611 -22.331701 2.888315
236.523926 -38.207611 -22.331701 2.436359
250.007202 -38.207611 -22.331701 1.827741
263.490540 -38.207611 -22.331701 1.584259
276.973816 -38.207611 -22.331701 1.178037
290.457092 -38.207611 -22.331701 0.998663
303.940430 -38.207611 -22.331701 0.622092
317.423706 -38.207611 -22.331701 0.480513
330.907043 -38.207611 -22.331701 0.000000
344.390320 -38.207611 -22.331701 0.000000
-343.257996 -51.690918 -22.331701 0.000000
-329.774689 -51.690918 -22.331701 0.000000
-316.291382 -51.690918 -22.331701 1.149100
-302.808105 -51.690918 -22.331701 1.325917
-289.324799 -51.690918 -22.331701 1.241246
-275.841492 -51.690918 -22.331701 1.244692
-262.358185 -51.690918 -22.331701 1.405995
-248.874893 -51.690918 -22.331701 1.732895
-235.391602 -51.690918 -22.331701 2.233004
-221.908295 -51.690918 -22.331701 3.312450
-208.424988 -51.690918 -22.331701 5.062289
-194.941696 -51.690918 -22.331701 6.342377
-181.458389 -51.690918 -22.331701 7.509276
-167.975098 -51.690918 -22.331701 8.236712
-154.491791 -51.690918 -22.331701 9.335754
-141.008499 -51.690918 -22.331701 9.473354
-127.525192 -51.690918 -22.331701 10.246326
-114.041885 -51.690918 -22.331701 9.481062
-100.558594 -51.690918 -22.331701 8.561357
-87.075287 -51.690918 -22.331701 8.251112
-73.591980 -51.690918 -22.331701 8.237457
-60.108704 -51.690918 -22.331701 7.476890
-46.625397 -51.690918 -22.331701 6.068860
-33.142090 -51.690918 -22.331701 5.207870
-19.658783 -51.690918 -22.331701 5.018302
-6.175476 -51.690918 -22.331701 5.037751
7.307800 -51.690918 -22.331701 4.733179
20.791107 -51.690918 -22.331701 4.536881
34.274414 -51.690918 -22.331701 4.186586
47.757721 -51.690918 -22.331701 3.705311
61.240997 -51.690918 -22.331701 3.347281
74.724304 -51.690918 -22.331701 2.989704
88.207611 -51.690918 -22.331701 2.893042
101.690918 -51.690918 -22.331701 2.782581
115.174225 -51.690918 -22.331701 2.749874
128.657501 -51.690918 -22.331701 2.677527
142.140808 -51.690918 -22.331701 2.684394
155.624115 -51.690918 -22.331701 2.790541
169.107422 -51.690918 -22.331701 3.012592
182.590698 -51.690918 -22.331701 3.364428
196.074036 -51.690918 -22.331701 3.588998
209.557312 -51.690918 -22.331701 3.249515
223.040588 -51.690918 -22.331701 2.846115
236.523926 -51.690918 -22.331701 2.316950
250.007202 -51.690918 -22.331701 1.716307
263.490540 -51.690918 -22.331701 1.458930
276.973816 -51.690918 -22.331701 1.198225
290.457092 -51.690918 -22.331701 1.143821
303.940430 -51.690918 -22.331701 0.801157
317.423706 -51.690918 -22.331701 0.618609
330.907043 -51.690918 -22.331701 0.000000
344.390320 -51.690918 -22.331701 0.000000
-343.257996 -65.174225 -22.331701 0.000000
-329.774689 -65.174225 -22.331701 0.000000
-316.291382 -65.174225 -22.331701 1.132085
-302.808105 -65.174225 -22.331701 1.142889
-289.324799 -65.174225 -22.331701 1.182879
-275.841492 -65.174225 -22.331701 1.443907
-262.358185 -65.174225 -22.331701 1.814430
-248.874893 -65.174225 -22.331701 2.156698
-235.391602 -65.174225 -22.331701 3.333903
-221.908295 -65.174225 -22.331701 4.189213
-208.424988 -65.174225 -22.331701 5.765767
-194.941696 -65.174225 -22.331701 7.424773
-181.458389 -65.174225 -22.331701 9.245914
-167.975098 -65.174225 -22.331701 10.032493
-154.491791 -65.174225 -22.331701 11.110732
-141.008499 -65.174225 -22.331701 11.931793
-127.525192 -65.174225 -22.331701 10.159307
-114.041885 -65.174225 -22.331701 9.062295
-100.558594 -65.174225 -22.331701 8.278803
-87.075287 -65.174225 -22.331701 8.197997
-73.591980 -65.174225 -22.331701 7.579953
-60.108704 -65.174225 -22.331701 6.637878
-46.625397 -65.174225 -22.331701 6.386826
-33.142090 -65.174225 -22.331701 5.087803
-19.658783 -65.174225 -22.331701 5.174832
-6.175476 -65.174225 -22.331701 4.875983
7.307800 -65.174225 -22.331701 4.595377
20.791107 -65.174225 -22.331701 4.264066
34.274414 -65.174225 -22.331701 3.655398
47.757721 -65.174225 -22.331701 3.263681
61.240997 -65.174225 -22.331701 2.977318
74.724304 -65.174225 -22.331701 2.734279
88.207611 -65.174225 -22.331701 2.527090
101.690918 -65.174225 -22.331701 2.529369
115.174225 -65.174225 -22.331701 2.264666
128.657501 -65.174225 -22.331701 2.497953
142.140808 -65.174225 -22.331701 2.529757
155.624115 -65.174225 -22.331701 2.843048
169.107422 -65.174225 -22.331701 3.146756
182.590698 -65.174225 -22.331701 3.217761
196.074036 -65.174225 -22.331701 3.359866
209.557312 -65.174225 -22.331701 3.039781
223.040588 -65.174225 -22.331701 2.672254
236.523926 -65.174225 -22.331701 2.206190
250.007202 -65.174225 -22.331701 1.758193
263.490540 -65.174225 -22.331701 1.552659
276.973816 -65.174225 -22.331701 1.256871
290.457092 -65.174225 -22.331701 1.062278
303.940430 -65.174225 -22.331701 1.028250
317.423706 -65.174225 -22.331701 0.650213
330.907043 -65.174225 -22.331701 0.000000
344.390320 -65.174225 -22.331701 0.000000
-343.257996 -78.657501 -22.331701 0.000000
-329.774689 -78.657501 -22.331701 0.000000
-316.291382 -78.657501 -22.331701 1.239491
-302.808105 -78.657501 -22.331701 1.401801
-289.324799 -78.657501 -22.331701 1.728986
-275.841492 -78.657501 -22.331701 2.167560
-262.358185 -78.657501 -22.331701 2.464262
-248.874893 -78.657501 -22.331701 2.822220
-235.391602 -78.657501 -22.331701 4.513945
-221.908295 -78.657501 -22.331701 5.875331
-208.424988 -78.657501 -22.331701 0.000000
-194.941696 -78.657501 -22.331701 0.000000
-181.458389 -78.657501 -22.331701 0.000000
-167.975098 -78.657501 -22.331701 13.941400
-154.491791 -78.657501 -22.331701 12.659966
-141.008499 -78.657501 -22.331701 12.126517
-127.525192 -78.657501 -22.331701 10.541067
-114.041885 -78.657501 -22.331701 9.706851
-100.558594 -78.657501 -22.331701 8.062365
-87.075287 -78.657501 -22.331701 7.390563
-73.591980 -78.657501 -22.331701 6.709128
-60.108704 -78.657501 -22.331701 6.025427
-46.625397 -78.657501 -22.331701 5.565638
-33.142090 -78.657501 -22.331701 5.175236
-19.658783 -78.657501 -22.331701 4.719100
-6.175476 -78.657501 -22.331701 4.836435
7.307800 -78.657501 -22.331701 4.398753
20.791107 -78.657501 -22.331701 3.933960
34.274414 -78.657501 -22.331701 3.580772
47.757721 -78.657501 -22.331701 2.887822
61.240997 -78.657501 -22.331701 2.485179
74.724304 -78.657501 -22.331701 2.211534
88.207611 -78.657501 -22.331701 2.171429
101.690918 -78.657501 -22.331701 2.192718
115.174225 -78.657501 -22.331701 2.061524
128.657501 -78.657501 -22.331701 2.111684
142.140808 -78.657501 -22.331701 2.498404
155.624115 -78.657501 -22.331701 2.827457
169.107422 -78.657501 -22.331701 3.271534
182.590698 -78.657501 -22.331701 3.322465
196.074036 -78.657501 -22.331701 3.292040
209.557312 -78.657501 -22.331701 2.980797
223.040588 -78.657501 -22.331701 2.672091
236.523926 -78.657501 -22.331701 2.311826
250.007202 -78.657501 -22.331701 1.962512
263.490540 -78.657501 -22.331701 1.693622
276.973816 -78.657501 -22.331701 1.453430
290.457092 -78.657501 -22.331701 1.273298
303.940430 -78.657501 -22.331701 0.977472
317.423706 -78.657501 -22.331701 1.138201
330.907043 -78.657501 -22.331701 0.000000
344.390320 -78.657501 -22.331701 0.000000
-343.257996 -92.140808 -22.331701 0.000000
-329.774689 -92.140808 -22.331701 0.000000
-316.291382 -92.140808 -22.331701 0.000000
-302.808105 -92.140808 -22.331701 2.516725
-289.324799 -92.140808 -22.331701 2.781759
-275.841492 -92.140808 -22.331701 3.362311
-262.358185 -92.140808 -22.331701 4.559113
-248.874893 -92.140808 -22.331701 5.289833
-235.391602 -92.140808 -22.331701 0.000000
-221.908295 -92.140808 -22.331701 0.000000
-208.424988 -92.140808 -22.331701 0.000000
-194.941696 -92.140808 -22.331701 0.000000
-181.458389 -92.140808 -22.331701 0.000000
-167.975098 -92.140808 -22.331701 0.000000
-154.491791 -92.140808 -22.331701 13.321769
-141.008499 -92.140808 -22.331701 13.140458
-127.525192 -92.140808 -22.331701 10.982946
-114.041885 -92.140808 -22.331701 9.846058
-100.558594 -92.140808 -22.331701 8.297365
-87.075287 -92.140808 -22.331701 7.381985
-73.591980 -92.140808 -22.331701 7.032793
-60.108704 -92.140808 -22.331701 5.843225
-46.625397 -92.140808 -22.331701 5.704379
-33.142090 -92.140808 -22.331701 5.218203
-19.658783 -92.140808 -22.331701 4.578101
-6.175476 -92.140808 -22.331701 4.780437
7.307800 -92.140808 -22.331701 4.087709
20.791107 -92.140808 -22.331701 3.800147
34.274414 -92.140808 -22.331701 3.224929
47.757721 -92.140808 -22.331701 2.719864
61.240997 -92.140808 -22.331701 2.077673
74.724304 -92.140808 -22.331701 2.001193
88.207611 -92.140808 -22.331701 2.003605
101.690918 -92.140808 -22.331701 1.996918
115.174225 -92.140808 -22.331701 1.946092
128.657501 -92.140808 -22.331701 2.250682
142.140808 -92.140808 -22.331701 2.592915
155.624115 -92.140808 -22.331701 3.007765
169.107422 -92.140808 -22.331701 3.335300
182.590698 -92.140808 -22.331701 3.607363
196.074036 -92.140808 -22.331701 3.467574
209.557312 -92.140808 -22.331701 3.240171
223.040588 -92.140808 -22.331701 2.736534
236.523926 -92.140808 -22.331701 2.180271
250.007202 -92.140808 -22.331701 1.897246
263.490540 -92.140808 -22.331701 1.739355
276.973816 -92.140808 -22.331701 1.648250
290.457092 -92.140808 -22.331701 1.770392
303.940430 -92.140808 -22.331701 1.816534
317.423706 -92.140808 -22.331701 1.794406
330.907043 -92.140808 -22.331701 0.000000
344.390320 -92.140808 -22.331701 0.000000
-343.257996 -105.624115 -22.331701 0.000000
-329.774689 -105.624115 -22.331701 0.000000
-316.291382 -105.624115 -22.331701 0.000000
-302.808105 -105.624115 -22.331701 4.993518
-289.324799 -105.624115 -22.331701 5.487604
-275.841492 -105.624115 -22.331701 6.831749
-262.358185 -105.624115 -22.331701 8.039741
-248.874893 -105.624115 -22.331701 9.599793
-235.391602 -105.624115 -22.331701 0.000000
-221.908295 -105.624115 -22.331701 0.000000
-208.424988 -105.624115 -22.331701 0.000000
-194.941696 -105.624115 -22.331701 0.000000
-181.458389 -105.624115 -22.331701 0.000000
-167.975098 -105.624115 -22.331701 0.000000
-154.491791 -105.624115 -22.331701 0.000000
-141.008499 -105.624115 -22.331701 13.948041
-127.525192 -105.624115 -22.331701 11.503534
-114.041885 -105.624115 -22.331701 10.333173
-100.558594 -105.624115 -22.331701 9.102241
-87.075287 -105.624115 -22.331701 7.973575
-73.591980 -105.624115 -22.331701 7.118098
-60.108704 -105.624115 -22.331701 5.821569
-46.625397 -105.624115 -22.331701 5.475614
-33.142090 -105.624115 -22.331701 5.152372
-19.658783 -105.624115 -22.331701 5.194545
-6.175476 -105.624115 -22.331701 4.780508
7.307800 -105.624115 -22.331701 4.170481
20.791107 -105.624115 -22.331701 3.696119
34.274414 -105.624115 -22.331701 3.143402
47.757721 -105.624115 -22.331701 2.551789
61.240997 -105.624115 -22.331701 2.179101
74.724304 -105.624115 -22.331701 2.035673
88.207611 -105.624115 -22.331701 2.015933
101.690918 -105.624115 -22.331701 2.183994
115.174225 -105.624115 -22.331701 2.060502
128.657501 -105.624115 -22.331701 2.408992
142.140808 -105.624115 -22.331701 2.822393
155.624115 -105.624115 -22.331701 3.379891
169.107422 -105.624115 -22.331701 3.733190
182.590698 -105.624115 -22.331701 4.246663
196.074036 -105.624115 -22.331701 3.967347
209.557312 -105.624115 -22.331701 3.547313
223.040588 -105.624115 -22.331701 3.234886
236.523926 -105.624115 -22.331701 2.691265
250.007202 -105.624115 -22.331701 2.192699
263.490540 -105.624115 -22.331701 2.367547
276.973816 -105.624115 -22.331701 2.442788
290.457092 -105.624115 -22.331701 2.406296
303.940430 -105.624115 -22.331701 2.689104
317.423706 -105.624115 -22.331701 0.000000
330.907043 -105.624115 -22.331701 0.000000
344.390320 -105.624115 -22.331701 0.000000
-343.257996 -119.107422 -22.331701 0.000000
-329.774689 -119.107422 -22.331701 0.000000
-316.291382 -119.107422 -22.331701 0.000000
-302.808105 -119.107422 -22.331701 0.000000
-289.324799 -119.107422 -22.331701 8.595821
-275.841492 -119.107422 -22.331701 9.970373
-262.358185 -119.107422 -22.331701 12.134957
-248.874893 -119.107422 -22.331701 0.000000
-235.391602 -119.107422 -22.331701 0.000000
-221.908295 -119.107422 -22.331701 0.000000
-208.424988 -119.107422 -22.331701 0.000000
-194.941696 -119.107422 -22.331701 0.000000
-181.458389 -119.107422 -22.331701 0.000000
-167.975098 -119.107422 -22.331701 0.000000
-154.491791 -119.107422 -22.331701 18.927732
-141.008499 -119.107422 -22.331701 15.260722
-127.525192 -119.107422 -22.331701 14.019899
-114.041885 -119.107422 -22.331701 10.990080
-100.558594 -119.107422 -22.331701 9.476424
-87.075287 -119.107422 -22.331701 8.740886
-73.591980 -119.107422 -22.331701 7.859858
-60.108704 -119.107422 -22.331701 6.189836
-46.625397 -119.107422 -22.331701 5.227529
-33.142090 -119.107422 -22.331701 5.181886
-19.658783 -119.107422 -22.331701 5.454473
-6.175476 -119.107422 -22.331701 4.786759
7.307800 -119.107422 -22.331701 4.264909
20.791107 -119.107422 -22.331701 3.944455
34.274414 -119.107422 -22.331701 3.484947
47.757721 -119.107422 -22.331701 2.739141
61.240997 -119.107422 -22.331701 2.490696
74.724304 -119.107422 -22.331701 2.373987
88.207611 -119.107422 -22.331701 2.483468
101.690918 -119.107422 -22.331701 2.553361
115.174225 -119.107422 -22.331701 2.795991
128.657501 -119.107422 -22.331701 2.951590
142.140808 -119.107422 -22.331701 3.165874
155.624115 -119.107422 -22.331701 3.608369
169.107422 -119.107422 -22.331701 4.394852
182.590698 -119.107422 -22.331701 4.799821
196.074036 -119.107422 -22.331701 4.821002
209.557312 -119.107422 -22.331701 4.398009
223.040588 -119.107422 -22.331701 4.023683
236.523926 -119.107422 -22.331701 3.583655
250.007202 -119.107422 -22.331701 3.302055
263.490540 -119.107422 -22.331701 3.566902
276.973816 -119.107422 -22.331701 3.384346
290.457092 -119.107422 -22.331701 3.683147
303.940430 -119.107422 -22.331701 4.690159
317.423706 -119.107422 -22.331701 0.000000
330.907043 -119.107422 -22.331701 0.000000
344.390320 -119.107422 -22.331701 0.000000
-343.257996 -132.590698 -22.331701 0.000000
-329.774689 -132.590698 -22.331701 0.000000
-316.291382 -132.590698 -22.331701 0.000000
-302.808105 -132.590698 -22.331701 0.000000
-289.324799 -132.590698 -22.331701 0.000000
-275.841492 -132.590698 -22.331701 0.000000
-262.358185 -132.590698 -22.331701 0.000000
-248.874893 -132.590698 -22.331701 0.000000
-235.391602 -132.590698 -22.331701 0.000000
-221.908295 -132.590698 -22.331701 0.000000
-208.424988 -132.590698 -22.331701 0.000000
-194.941696 -132.590698 -22.331701 0.000000
-181.458389 -132.590698 -22.331701 0.000000
-167.975098 -132.590698 -22.331701 0.000000
-154.491791 -132.590698 -22.331701 0.000000
-141.008499 -132.590698 -22.331701 17.858944
-127.525192 -132.590698 -22.331701 14.901005
-114.041885 -132.590698 -22.331701 12.663369
-100.558594 -132.590698 -22.331701 11.364986
-87.075287 -132.590698 -22.331701 11.358661
-73.591980 -132.590698 -22.331701 8.448337
-60.108704 -132.590698 -22.331701 7.763237
-46.625397 -132.590698 -22.331701 6.353204
-33.142090 -132.590698 -22.331701 6.174457
-19.658783 -132.590698 -22.331701 5.785764
-6.175476 -132.590698 -22.331701 5.297701
7.307800 -132.590698 -22.331701 4.822911
20.791107 -132.590698 -22.331701 4.383268
34.274414 -132.590698 -22.331701 3.679580
47.757721 -132.590698 -22.331701 3.334314
61.240997 -132.590698 -22.331701 3.028589
74.724304 -132.590698 -22.331701 3.062741
88.207611 -132.590698 -22.331701 3.071740
101.690918 -132.590698 -22.331701 3.395406
115.174225 -132.590698 -22.331701 3.452696
128.657501 -132.590698 -22.331701 3.779007
142.140808 -132.590698 -22.331701 3.852425
155.624115 -132.590698 -22.331701 4.449848
169.107422 -132.590698 -22.331701 5.296003
182.590698 -132.590698 -22.331701 5.651368
196.074036 -132.590698 -22.331701 5.578739
209.557312 -132.590698 -22.331701 5.848860
223.040588 -132.590698 -22.331701 5.158338
236.523926 -132.590698 -22.331701 5.109974
250.007202 -132.590698 -22.331701 4.973532
263.490540 -132.590698 -22.331701 5.046050
276.973816 -132.590698 -22.331701 4.983525
290.457092 -132.590698 -22.331701 0.000000
303.940430 -132.590698 -22.331701 0.000000
317.423706 -132.590698 -22.331701 0.000000
330.907043 -132.590698 -22.331701 0.000000
344.390320 -132.590698 -22.331701 0.000000
-343.257996 -146.074036 -22.331701 0.000000
-329.774689 -146.074036 -22.331701 0.000000
-316.291382 -146.074036 -22.331701 0.000000
-302.808105 -146.074036 -22.331701 0.000000
-289.324799 -146.074036 -22.331701 0.000000
-275.841492 -146.074036 -22.331701 0.000000
-262.358185 -146.074036 -22.331701 0.000000
-248.874893 -146.074036 -22.331701 0.000000
-235.391602 -146.074036 -22.331701 0.000000
-221.908295 -146.074036 -22.331701 0.000000
-208.424988 -146.074036 -22.331701 0.000000
-194.941696 -146.074036 -22.331701 0.000000
-181.458389 -146.074036 -22.331701 0.000000
-167.975098 -146.074036 -22.331701 0.000000
-154.491791 -146.074036 -22.331701 0.000000
-141.008499 -146.074036 -22.331701 0.000000
-127.525192 -146.074036 -22.331701 0.000000
-114.041885 -146.074036 -22.331701 0.000000
-100.558594 -146.074036 -22.331701 0.000000
-87.075287 -146.074036 -22.331701 0.000000
-73.591980 -146.074036 -22.331701 0.000000
-60.108704 -146.074036 -22.331701 0.000000
-46.625397 -146.074036 -22.331701 7.398729
-33.142090 -146.074036 -22.331701 6.559671
-19.658783 -146.074036 -22.331701 6.599951
-6.175476 -146.074036 -22.331701 5.557663
7.307800 -146.074036 -22.331701 5.550664
20.791107 -146.074036 -22.331701 4.928131
34.274414 -146.074036 -22.331701 0.000000
47.757721 -146.074036 -22.331701 0.000000
61.240997 -146.074036 -22.331701 0.000000
74.724304 -146.074036 -22.331701 0.000000
88.207611 -146.074036 -22.331701 0.000000
101.690918 -146.074036 -22.331701 0.000000
115.174225 -146.074036 -22.331701 4.492507
128.657501 -146.074036 -22.331701 4.897631
142.140808 -146.074036 -22.331701 4.690153
155.624115 -146.074036 -22.331701 0.000000
169.107422 -146.074036 -22.331701 0.000000
182.590698 -146.074036 -22.331701 0.000000
196.074036 -146.074036 -22.331701 0.000000
209.557312 -146.074036 -22.331701 0.000000
223.040588 -146.074036 -22.331701 0.000000
236.523926 -146.074036 -22.331701 0.000000
250.007202 -146.074036 -22.331701 0.000000
263.490540 -146.074036 -22.331701 0.000000
276.973816 -146.074036 -22.331701 0.000000
290.457092 -146.074036 -22.331701 0.000000
303.940430 -146.074036 -22.331701 0.000000
317.423706 -146.074036 -22.331701 0.000000
330.907043 -146.074036 -22.331701 0.000000
344.390320 -146.074036 -22.331701 0.000000
-343.257996 -159.557312 -22.331701 0.000000
-329.774689 -159.557312 -22.331701 0.000000
-316.291382 -159.557312 -22.331701 0.000000
-302.808105 -159.557312 -22.331701 0.000000
-289.324799 -159.557312 -22.331701 0.000000
-275.841492 -159.557312 -22.331701 0.000000
-262.358185 -159.557312 -22.331701 0.000000
-248.874893 -159.557312 -22.331701 0.000000
-235.391602 -159.557312 -22.331701 0.000000
-221.908295 -159.557312 -22.331701 0.000000
-208.424988 -159.557312 -22.331701 0.000000
-194.941696 -159.557312 -22.331701 0.000000
-181.458389 -159.557312 -22.331701 0.000000
-167.975098 -159.557312 -22.331701 0.000000
-154.491791 -159.557312 -22.331701 0.000000
-141.008499 -159.557312 -22.331701 0.000000
-127.525192 -159.557312 -22.331701 0.000000
-114.041885 -159.557312 -22.331701 0.000000
-100.558594 -159.557312 -22.331701 0.000000
-87.075287 -159.557312 -22.331701 0.000000
-73.591980 -159.557312 -22.331701 0.000000
-60.108704 -159.557312 -22.331701 0.000000
-46.625397 -159.557312 -22.331701 0.000000
-33.142090 -159.557312 -22.331701 0.000000
-19.658783 -159.557312 -22.331701 0.000000
-6.175476 -159.557312 -22.331701 0.000000
7.307800 -159.557312 -22.331701 0.000000
20.791107 -159.557312 -22.331701 0.000000
34.274414 -159.557312 -22.331701 0.000000
47.757721 -159.557312 -22.331701 0.000000
61.240997 -159.557312 -22.331701 0.000000
74.724304 -159.557312 -22.331701 0.000000
88.207611 -159.557312 -22.331701 0.000000
101.690918 -159.557312 -22.331701 0.000000
115.174225 -159.557312 -22.331701 0.000000
128.657501 -159.557312 -22.331701 0.000000
142.140808 -159.557312 -22.331701 0.000000
155.624115 -159.557312 -22.331701 0.000000
169.107422 -159.557312 -22.331701 0.000000
182.590698 -159.557312 -22.331701 0.000000
196.074036 -159.557312 -22.331701 0.000000
209.557312 -159.557312 -22.331701 0.000000
223.040588 -159.557312 -22.331701 0.000000
236.523926 -159.557312 -22.331701 0.000000
250.007202 -159.557312 -22.331701 0.000000
263.490540 -159.557312 -22.331701 0.000000
276.973816 -159.557312 -22.331701 0.000000
290.457092 -159.557312 -22.331701 0.000000
303.940430 -159.557312 -22.331701 0.000000
317.423706 -159.557312 -22.331701 0.000000
330.907043 -159.557312 -22.331701 0.000000
344.390320 -159.557312 -22.331701 0.000000
-343.257996 -173.040588 -22.331701 0.000000
-329.774689 -173.040588 -22.331701 0.000000
-316.291382 -173.040588 -22.331701 0.000000
-302.808105 -173.040588 -22.331701 0.000000
-289.324799 -173.040588 -22.331701 0.000000
-275.841492 -173.040588 -22.331701 0.000000
-262.358185 -173.040588 -22.331701 0.000000
-248.874893 -173.040588 -22.331701 0.000000
-235.391602 -173.040588 -22.331701 0.000000
-221.908295 -173.040588 -22.331701 0.000000
-208.424988 -173.040588 -22.331701 0.000000
-194.941696 -173.040588 -22.331701 0.000000
-181.458389 -173.040588 -22.331701 0.000000
-167.975098 -173.040588 -22.331701 0.000000
-154.491791 -173.040588 -22.331701 0.000000
-141.008499 -173.040588 -22.331701 0.000000
-127.525192 -173.040588 -22.331701 0.000000
-114.041885 -173.040588 -22.331701 0.000000
-100.558594 -173.040588 -22.331701 0.000000
-87.075287 -173.040588 -22.331701 0.000000
-73.591980 -173.040588 -22.331701 0.000000
-60.108704 -173.040588 -22.331701 0.000000
-46.625397 -173.040588 -22.331701 0.000000
-33.142090 -173.040588 -22.331701 0.000000
-19.658783 -173.040588 -22.331701 0.000000
-6.175476 -173.040588 -22.331701 0.000000
7.307800 -173.040588 -22.331701 0.000000
20.791107 -173.040588 -22.331701 0.000000
34.274414 -173.040588 -22.331701 0.000000
47.757721 -173.040588 -22.331701 0.000000
61.240997 -173.040588 -22.331701 0.000000
74.724304 -173.040588 -22.331701 0.000000
88.207611 -173.040588 -22.331701 0.000000
101.690918 -173.040588 -22.331701 0.000000
115.174225 -173.040588 -22.331701 0.000000
128.657501 -173.040588 -22.331701 0.000000
142.140808 -173.040588 -22.331701 0.000000
155.624115 -173.040588 -22.331701 0.000000
169.107422 -173.040588 -22.331701 0.000000
182.590698 -173.040588 -22.331701 0.000000
196.074036 -173.040588 -22.331701 0.000000
209.557312 -173.040588 -22.331701 0.000000
223.040588 -173.040588 -22.331701 0.000000
236.523926 -173.040588 -22.331701 0.000000
250.007202 -173.040588 -22.331701 0.000000
263.490540 -173.040588 -22.331701 0.000000
276.973816 -173.040588 -22.331701 0.000000
290.457092 -173.040588 -22.331701 0.000000
303.940430 -173.040588 -22.331701 0.000000
317.423706 -173.040588 -22.331701 0.000000
330.907043 -173.040588 -22.331701 0.000000
344.390320 -173.040588 -22.331701 0.000000
-343.257996 -186.523926 -22.331701 0.000000
-329.774689 -186.523926 -22.331701 0.000000
-316.291382 -186.523926 -22.331701 0.000000
-302.808105 -186.523926 -22.331701 0.000000
-289.324799 -186.523926 -22.331701 0.000000
-275.841492 -186.523926 -22.331701 0.000000
-262.358185 -186.523926 -22.331701 0.000000
-248.874893 -186.523926 -22.331701 0.000000
-235.391602 -186.523926 -22.331701 0.000000
-221.908295 -186.523926 -22.331701 0.000000
-208.424988 -186.523926 -22.331701 0.000000
-194.941696 -186.523926 -22.331701 0.000000
-181.458389 -186.523926 -22.331701 0.000000
-167.975098 -186.523926 -22.331701 0.000000
-154.491791 -186.523926 -22.331701 0.000000
-141.008499 -186.523926 -22.331701 0.000000
-127.525192 -186.523926 -22.331701 0.000000
-114.041885 -186.523926 -22.331701 0.000000
-100.558594 -186.523926 -22.331701 0.000000
-87.075287 -186.523926 -22.331701 0.000000
-73.591980 -186.523926 -22.331701 0.000000
-60.108704 -186.523926 -22.331701 0.000000
-46.625397 -186.523926 -22.331701 0.000000
-33.142090 -186.523926 -22.331701 0.000000
-19.658783 -186.523926 -22.331701 0.000000
-6.175476 -186.523926 -22.331701 0.000000
7.307800 -186.523926 -22.331701 0.000000
20.791107 -186.523926 -22.331701 0.000000
34.274414 -186.523926 -22.331701 0.000000
47.757721 -186.523926 -22.331701 0.000000
61.240997 -186.523926 -22.331701 0.000000
74.724304 -186.523926 -22.331701 0.000000
88.207611 -186.523926 -22.331701 0.000000
101.690918 -186.523926 -22.331701 0.000000
115.174225 -186.523926 -22.331701 0.000000
128.657501 -186.523926 -22.331701 0.000000
142.140808 -186.523926 -22.331701 0.000000
155.624115 -186.523926 -22.331701 0.000000
169.107422 -186.523926 -22.331701 0.000000
182.590698 -186.523926 -22.331701 0.000000
196.074036 -186.523926 -22.331701 0.000000
209.557312 -186.523926 -22.331701 0.000000
223.040588 -186.523926 -22.331701 0.000000
236.523926 -186.523926 -22.331701 0.000000
250.007202 -186.523926 -22.331701 0.000000
263.490540 -186.523926 -22.331701 0.000000
276.973816 -186.523926 -22.331701 0.000000
290.457092 -186.523926 -22.331701 0.000000
303.940430 -186.523926 -22.331701 0.000000
317.423706 -186.523926 -22.331701 0.000000
330.907043 -186.523926 -22.331701 0.000000
344.390320 -186.523926 -22.331701 0.000000
-343.257996 -200.007202 -22.331701 0.000000
-329.774689 -200.007202 -22.331701 0.000000
-316.291382 -200.007202 -22.331701 0.000000
-302.808105 -200.007202 -22.331701 0.000000
-289.324799 -200.007202 -22.331701 0.000000
-275.841492 -200.007202 -22.331701 0.000000
-262.358185 -200.007202 -22.331701 0.000000
-248.874893 -200.007202 -22.331701 0.000000
-235.391602 -200.007202 -22.331701 0.000000
-221.908295 -200.007202 -22.331701 0.000000
-208.424988 -200.007202 -22.331701 0.000000
-194.941696 -200.007202 -22.331701 0.000000
-181.458389 -200.007202 -22.331701 0.000000
-167.975098 -200.007202 -22.331701 0.000000
-154.491791 -200.007202 -22.331701 0.000000
-141.008499 -200.007202 -22.331701 0.000000
-127.525192 -200.007202 -22.331701 0.000000
-114.041885 -200.007202 -22.331701 0.000000
-100.558594 -200.007202 -22.331701 0.000000
-87.075287 -200.007202 -22.331701 0.000000
-73.591980 -200.007202 -22.331701 0.000000
-60.108704 -200.007202 -22.331701 0.000000
-46.625397 -200.007202 -22.331701 0.000000
-33.142090 -200.007202 -22.331701 0.000000
-19.658783 -200.007202 -22.331701 0.000000
-6.175476 -200.007202 -22.331701 0.000000
7.307800 -200.007202 -22.331701 0.000000
20.791107 -200.007202 -22.331701 0.000000
34.274414 -200.007202 -22.331701 0.000000
47.757721 -200.007202 -22.331701 0.000000
61.240997 -200.007202 -22.331701 0.000000
74.724304 -200.007202 -22.331701 0.000000
88.207611 -200.007202 -22.331701 0.000000
101.690918 -200.007202 -22.331701 0.000000
115.174225 -200.007202 -22.331701 0.000000
128.657501 -200.007202 -22.331701 0.000000
142.140808 -200.007202 -22.331701 0.000000
155.624115 -200.007202 -22.331701 0.000000
169.107422 -200.007202 -22.331701 0.000000
182.590698 -200.007202 -22.331701 0.000000
196.074036 -200.007202 -22.331701 0.000000
209.557312 -200.007202 -22.331701 0.000000
223.040588 -200.007202 -22.331701 0.000000
236.523926 -200.007202 -22.331701 0.000000
250.007202 -200.007202 -22.331701 0.000000
263.490540 -200.007202 -22.331701 0.000000
276.973816 -200.007202 -22.331701 0.000000
290.457092 -200.007202 -22.331701 0.000000
303.940430 -200.007202 -22.331701 0.000000
317.423706 -200.007202 -22.331701 0.000000
330.907043 -200.007202 -22.331701 0.000000
344.390320 -200.007202 -22.331701 0.000000
-343.257996 393.257996 -8.848400 0.000000
-329.774689 393.257996 -8.848400 0.000000
-316.291382 393.257996 -8.848400 0.000000
-302.808105 393.257996 -8.848400 0.000000
-289.324799 393.257996 -8.848400 0.000000
-275.841492 393.257996 -8.848400 0.000000
-262.358185 393.257996 -8.848400 0.000000
-248.874893 393.257996 -8.848400 0.000000
-235.391602 393.257996 -8.848400 0.000000
-221.908295 393.257996 -8.848400 0.000000
-208.424988 393.257996 -8.848400 0.000000
-194.941696 393.257996 -8.848400 0.000000
-181.458389 393.257996 -8.848400 0.000000
-167.975098 393.257996 -8.848400 0.000000
-154.491791 393.257996 -8.848400 0.000000
-141.008499 393.257996 -8.848400 0.000000
-127.525192 393.257996 -8.848400 0.000000
-114.041885 393.257996 -8.848400 0.000000
-100.558594 393.257996 -8.848400 0.000000
-87.075287 393.257996 -8.848400 0.000000
-73.591980 393.257996 -8.848400 0.000000
-60.108704 393.257996 -8.848400 0.000000
-46.625397 393.257996 -8.848400 0.000000
-33.142090 393.257996 -8.848400 0.000000
-19.658783 393.257996 -8.848400 0.000000
-6.175476 393.257996 -8.848400 0.000000
7.307800 393.257996 -8.848400 0.000000
20.791107 393.257996 -8.848400 0.000000
34.274414 393.257996 -8.848400 0.000000
47.757721 393.257996 -8.848400 0.000000
61.240997 393.257996 -8.848400 0.000000
74.724304 393.257996 -8.848400 0.000000
88.207611 393.257996 -8.848400 0.000000
101.690918 393.257996 -8.848400 0.000000
115.174225 393.257996 -8.848400 0.000000
128.657501 393.257996 -8.848400 0.000000
142.140808 393.257996 -8.848400 0.000000
155.624115 393.257996 -8.848400 0.000000
169.107422 393.257996 -8.848400 0.000000
182.590698 393.257996 -8.848400 0.000000
196.074036 393.257996 -8.848400 0.000000
209.557312 393.257996 -8.848400 0.000000
223.040588 393.257996 -8.848400 0.000000
236.523926 393.257996 -8.848400 0.000000
250.007202 393.257996 -8.848400 0.000000
263.490540 393.257996 -8.848400 0.000000
276.973816 393.257996 -8.848400 0.000000
290.457092 393.257996 -8.848400 0.000000
303.940430 393.257996 -8.848400 0.000000
317.423706 393.257996 -8.848400 0.000000
330.907043 393.257996 -8.848400 0.000000
344.390320 393.257996 -8.848400 0.000000
-343.257996 379.774689 -8.848400 0.000000
-329.774689 379.774689 -8.848400 0.000000
-316.291382 379.774689 -8.848400 0.000000
-302.808105 379.774689 -8.848400 0.000000
-289.324799 379.774689 -8.848400 0.000000
-275.841492 379.774689 -8.848400 0.000000
-262.358185 379.774689 -8.848400 0.000000
-248.874893 379.774689 -8.848400 0.000000
-235.391602 379.774689 -8.848400 0.000000
-221.908295 379.774689 -8.848400 0.000000
-208.424988 379.774689 -8.848400 0.000000
-194.941696 379.774689 -8.848400 0.000000
-181.458389 379.774689 -8.848400 0.000000
-167.975098 379.774689 -8.848400 0.000000
-154.491791 379.774689 -8.848400 0.000000
-141.008499 379.774689 -8.848400 0.000000
-127.525192 379.774689 -8.848400 0.000000
-114.041885 379.774689 -8.848400 0.000000
-100.558594 379.774689 -8.848400 0.000000
-87.075287 379.774689 -8.848400 0.000000
-73.591980 379.774689 -8.848400 0.000000
-60.108704 379.774689 -8.848400 0.000000
-46.625397 379.774689 -8.848400 0.000000
-33.142090 379.774689 -8.848400 0.000000
-19.658783 379.774689 -8.848400 0.000000
-6.175476 379.774689 -8.848400 0.000000
7.307800 379.774689 -8.848400 0.000000
20.791107 379.774689 -8.848400 0.000000
34.274414 379.774689 -8.848400 0.000000
47.757721 379.774689 -8.848400 0.000000
61.240997 379.774689 -8.848400 0.000000
74.724304 379.774689 -8.848400 0.000000
88.207611 379.774689 -8.848400 0.000000
101.690918 379.774689 -8.848400 0.000000
115.174225 379.774689 -8.848400 0.000000
128.657501 379.774689 -8.848400 0.000000
142.140808 379.774689 -8.848400 0.000000
155.624115 379.774689 -8.848400 0.000000
169.107422 379.774689 -8.848400 0.000000
182.590698 379.774689 -8.848400 0.000000
196.074036 379.774689 -8.848400 0.000000
209.557312 379.774689 -8.848400 0.000000
223.040588 379.774689 -8.848400 0.000000
236.523926 379.774689 -8.848400 0.000000
250.007202 379.774689 -8.848400 0.000000
263.490540 379.774689 -8.848400 0.000000
276.973816 379.774689 -8.848400 0.000000
290.457092 379.774689 -8.848400 0.000000
303.940430 379.774689 -8.848400 0.000000
317.423706 379.774689 -8.848400 0.000000
330.907043 379.774689 -8.848400 0.000000
344.390320 379.774689 -8.848400 0.000000
-343.257996 366.291382 -8.848400 0.000000
-329.774689 366.291382 -8.848400 0.000000
-316.291382 366.291382 -8.848400 0.000000
-302.808105 366.291382 -8.848400 0.000000
-289.324799 366.291382 -8.848400 0.000000
-275.841492 366.291382 -8.848400 0.000000
-262.358185 366.291382 -8.848400 0.000000
-248.874893 366.291382 -8.848400 0.000000
-235.391602 366.291382 -8.848400 0.000000
-221.908295 366.291382 -8.848400 0.000000
-208.424988 366.291382 -8.848400 0.000000
-194.941696 366.291382 -8.848400 0.000000
-181.458389 366.291382 -8.848400 0.000000
-167.975098 366.291382 -8.848400 0.000000
-154.491791 366.291382 -8.848400 0.000000
-141.008499 366.291382 -8.848400 0.000000
-127.525192 366.291382 -8.848400 0.000000
-114.041885 366.291382 -8.848400 0.000000
-100.558594 366.291382 -8.848400 0.000000
-87.075287 366.291382 -8.848400 0.000000
-73.591980 366.291382 -8.848400 0.000000
-60.108704 366.291382 -8.848400 0.000000
-46.625397 366.291382 -8.848400 0.000000
-33.142090 366.291382 -8.848400 0.000000
-19.658783 366.291382 -8.848400 0.000000
-6.175476 366.291382 -8.848400 0.000000
7.307800 366.291382 -8.848400 0.000000
20.791107 366.291382 -8.848400 0.000000
34.274414 366.291382 -8.848400 0.000000
47.757721 366.291382 -8.848400 0.000000
61.240997 366.291382 -8.848400 0.000000
74.724304 366.291382 -8.848400 0.000000
88.207611 366.291382 -8.848400 0.000000
101.690918 366.291382 -8.848400 0.000000
115.174225 366.291382 -8.848400 0.000000
128.657501 366.291382 -8.848400 0.000000
142.140808 366.291382 -8.848400 0.000000
155.624115 366.291382 -8.848400 0.000000
169.107422 366.291382 -8.848400 0.000000
182.590698 366.291382 -8.848400 0.000000
196.074036 366.291382 -8.848400 0.000000
209.557312 366.291382 -8.848400 0.000000
223.040588 366.291382 -8.848400 0.000000
236.523926 366.291382 -8.848400 0.000000
250.007202 366.291382 -8.848400 0.000000
263.490540 366.291382 -8.848400 0.000000
276.973816 366.291382 -8.848400 0.000000
290.457092 366.291382 -8.848400 0.000000
303.940430 366.291382 -8.848400 0.000000
317.423706 366.291382 -8.848400 0.000000
330.907043 366.291382 -8.848400 0.000000
344.390320 366.291382 -8.848400 0.000000
-343.257996 352.808105 -8.848400 0.000000
-329.774689 352.808105 -8.848400 0.000000
-316.291382 352.808105 -8.848400 0.000000
-302.808105 352.808105 -8.848400 0.000000
-289.324799 352.808105 -8.848400 0.000000
-275.841492 352.808105 -8.848400 0.000000
-262.358185 352.808105 -8.848400 0.000000
-248.874893 352.808105 -8.848400 0.000000
-235.391602 352.808105 -8.848400 0.000000
-221.908295 352.808105 -8.848400 0.000000
-208.424988 352.808105 -8.848400 0.000000
-194.941696 352.808105 -8.848400 0.000000
-181.458389 352.808105 -8.848400 0.000000
-167.975098 352.808105 -8.848400 0.000000
-154.491791 352.808105 -8.848400 0.000000
-141.008499 352.808105 -8.848400 0.000000
-127.525192 352.808105 -8.848400 0.000000
-114.041885 352.808105 -8.848400 0.000000
-100.558594 352.808105 -8.848400 0.000000
-87.075287 352.808105 -8.848400 0.000000
-73.591980 352.808105 -8.848400 0.000000
-60.108704 352.808105 -8.848400 0.000000
-46.625397 352.808105 -8.848400 0.000000
-33.142090 352.808105 -8.848400 0.000000
-19.658783 352.808105 -8.848400 0.000000
-6.175476 352.808105 -8.848400 0.000000
7.307800 352.808105 -8.848400 0.000000
20.791107 352.808105 -8.848400 0.000000
34.274414 352.808105 -8.848400 0.000000
47.757721 352.808105 -8.848400 0.000000
61.240997 352.808105 -8.848400 0.000000
74.724304 352.808105 -8.848400 0.000000
88.207611 352.808105 -8.848400 0.000000
101.690918 352.808105 -8.848400 0.000000
115.174225 352.808105 -8.848400 0.000000
128.657501 352.808105 -8.848400 0.000000
142.140808 352.808105 -8.848400 0.000000
155.624115 352.808105 -8.848400 0.000000
169.107422 352.808105 -8.848400 0.000000
182.590698 352.808105 -8.848400 0.000000
196.074036 352.808105 -8.848400 0.000000
209.557312 352.808105 -8.848400 0.000000
223.040588 352.808105 -8.848400 0.000000
236.523926 352.808105 -8.848400 0.000000
250.007202 352.808105 -8.848400 0.000000
263.490540 352.808105 -8.848400 0.000000
276.973816 352.808105 -8.848400 0.000000
290.457092 352.808105 -8.848400 0.000000
303.940430 352.808105 -8.848400 0.000000
317.423706 352.808105 -8.848400 0.000000
330.907043 352.808105 -8.848400 0.000000
344.390320 352.808105 -8.848400 0.000000
-343.257996 339.324799 -8.848400 0.000000
-329.774689 339.324799 -8.848400 0.000000
-316.291382 339.324799 -8.848400 0.000000
-302.808105 339.324799 -8.848400 0.000000
-289.324799 339.324799 -8.848400 0.000000
-275.841492 339.324799 -8.848400 0.000000
-262.358185 339.324799 -8.848400 0.000000
-248.874893 339.324799 -8.848400 0.000000
-235.391602 339.324799 -8.848400 0.000000
-221.908295 339.324799 -8.848400 0.000000
-208.424988 339.324799 -8.848400 0.000000
-194.941696 339.324799 -8.848400 0.000000
-181.458389 339.324799 -8.848400 0.000000
-167.975098 339.324799 -8.848400 0.000000
-154.491791 339.324799 -8.848400 0.000000
-141.008499 339.324799 -8.848400 0.000000
-127.525192 339.324799 -8.848400 0.000000
-114.041885 339.324799 -8.848400 0.000000
-100.558594 339.324799 -8.848400 0.000000
-87.075287 339.324799 -8.848400 0.000000
-73.591980 339.324799 -8.848400 0.000000
-60.108704 339.324799 -8.848400 0.000000
-46.625397 339.324799 -8.848400 0.000000
-33.142090 339.324799 -8.848400 0.000000
-19.658783 339.324799 -8.848400 0.000000
-6.175476 339.324799 -8.848400 0.000000
7.307800 339.324799 -8.848400 0.000000
20.791107 339.324799 -8.848400 0.000000
34.274414 339.324799 -8.848400 0.000000
47.757721 339.324799 -8.848400 0.000000
61.240997 339.324799 -8.848400 0.000000
74.724304 339.324799 -8.848400 0.000000
88.207611 339.324799 -8.848400 0.000000
101.690918 339.324799 -8.848400 0.000000
115.174225 339.324799 -8.848400 0.000000
128.657501 339.324799 -8.848400 0.000000
142.140808 339.324799 -8.848400 0.000000
155.624115 339.324799 -8.848400 0.000000
169.107422 339.324799 -8.848400 0.000000
182.590698 339.324799 -8.848400 0.000000
196.074036 339.324799 -8.848400 0.000000
209.557312 339.324799 -8.848400 0.000000
223.040588 339.324799 -8.848400 0.000000
236.523926 339.324799 -8.848400 0.000000
250.007202 339.324799 -8.848400 0.000000
263.490540 339.324799 -8.848400 0.000000
276.973816 339.324799 -8.848400 0.000000
290.457092 339.324799 -8.848400 0.000000
303.940430 339.324799 -8.848400 0.000000
317.423706 339.324799 -8.848400 0.000000
330.907043 339.324799 -8.848400 0.000000
344.390320 339.324799 -8.848400 0.000000
-343.257996 325.841492 -8.848400 0.000000
-329.774689 325.841492 -8.848400 0.000000
-316.291382 325.841492 -8.848400 0.000000
-302.808105 325.841492 -8.848400 0.000000
-289.324799 325.841492 -8.848400 0.000000
-275.841492 325.841492 -8.848400 0.000000
-262.358185 325.841492 -8.848400 0.000000
-248.874893 325.841492 -8.848400 0.000000
-235.391602 325.841492 -8.848400 0.000000
-221.908295 325.841492 -8.848400 0.000000
-208.424988 325.841492 -8.848400 0.000000
-194.941696 325.841492 -8.848400 0.000000
-181.458389 325.841492 -8.848400 0.000000
-167.975098 325.841492 -8.848400 0.000000
-154.491791 325.841492 -8.848400 0.000000
-141.008499 325.841492 -8.848400 0.000000
-127.525192 325.841492 -8.848400 3.260673
-114.041885 325.841492 -8.848400 3.520876
-100.558594 325.841492 -8.848400 3.971020
-87.075287 325.841492 -8.848400 3.804353
-73.591980 325.841492 -8.848400 4.320506
-60.108704 325.841492 -8.848400 4.435323
-46.625397 325.841492 -8.848400 4.792046
-33.142090 325.841492 -8.848400 0.000000
-19.658783 325.841492 -8.848400 0.000000
-6.175476 325.841492 -8.848400 0.000000
7.307800 325.841492 -8.848400 0.000000
20.791107 325.841492 -8.848400 0.000000
34.274414 325.841492 -8.848400 0.000000
47.757721 325.841492 -8.848400 0.000000
61.240997 325.841492 -8.848400 0.000000
74.724304 325.841492 -8.848400 0.000000
88.207611 325.841492 -8.848400 0.000000
101.690918 325.841492 -8.848400 0.000000
115.174225 325.841492 -8.848400 0.000000
128.657501 325.841492 -8.848400 0.000000
142.140808 325.841492 -8.848400 0.000000
155.624115 325.841492 -8.848400 0.000000
169.107422 325.841492 -8.848400 0.000000
182.590698 325.841492 -8.848400 0.000000
196.074036 325.841492 -8.848400 0.000000
209.557312 325.841492 -8.848400 0.000000
223.040588 325.841492 -8.848400 0.000000
236.523926 325.841492 -8.848400 0.000000
250.007202 325.841492 -8.848400 0.000000
263.490540 325.841492 -8.848400 0.000000
276.973816 325.841492 -8.848400 0.000000
290.457092 325.841492 -8.848400 0.000000
303.940430 325.841492 -8.848400 0.000000
317.423706 325.841492 -8.848400 0.000000
330.907043 325.841492 -8.848400 0.000000
344.390320 325.841492 -8.848400 0.000000
-343.257996 312.358185 -8.848400 0.000000
-329.774689 312.358185 -8.848400 0.000000
-316.291382 312.358185 -8.848400 0.000000
-302.808105 312.358185 -8.848400 0.000000
-289.324799 312.358185 -8.848400 0.000000
-275.841492 312.358185 -8.848400 0.000000
-262.358185 312.358185 -8.848400 0.000000
-248.874893 312.358185 -8.848400 0.000000
-235.391602 312.358185 -8.848400 0.000000
-221.908295 312.358185 -8.848400 0.000000
-208.424988 312.358185 -8.848400 0.000000
-194.941696 312.358185 -8.848400 0.000000
-181.458389 312.358185 -8.848400 0.000000
-167.975098 312.358185 -8.848400 0.000000
-154.491791 312.358185 -8.848400 0.000000
-141.008499 312.358185 -8.848400 3.745523
-127.525192 312.358185 -8.848400 3.471165
-114.041885 312.358185 -8.848400 3.775219
-100.558594 312.358185 -8.848400 4.036705
-87.075287 312.358185 -8.848400 3.984097
-73.591980 312.358185 -8.848400 4.136225
-60.108704 312.358185 -8.848400 4.351140
-46.625397 312.358185 -8.848400 4.592755
-33.142090 312.358185 -8.848400 4.838501
-19.658783 312.358185 -8.848400 0.000000
-6.175476 312.358185 -8.848400 0.000000
7.307800 312.358185 -8.848400 0.000000
20.791107 312.358185 -8.848400 0.000000
34.274414 312.358185 -8.848400 0.000000
47.757721 312.358185 -8.848400 0.000000
61.240997 312.358185 -8.848400 0.000000
74.724304 312.358185 -8.848400 0.000000
88.207611 312.358185 -8.848400 0.000000
101.690918 312.358185 -8.848400 0.000000
115.174225 312.358185 -8.848400 0.000000
128.657501 312.358185 -8.848400 0.000000
142.140808 312.358185 -8.848400 0.000000
155.624115 312.358185 -8.848400 0.000000
169.107422 312.358185 -8.848400 0.000000
182.590698 312.358185 -8.848400 0.000000
196.074036 312.358185 -8.848400 0.000000
209.557312 312.358185 -8.848400 0.000000
223.040588 312.358185 -8.848400 0.000000
236.523926 312.358185 -8.848400 0.000000
250.007202 312.358185 -8.848400 0.000000
263.490540 312.358185 -8.848400 0.000000
276.973816 312.358185 -8.848400 0.000000
290.457092 312.358185 -8.848400 0.000000
303.940430 312.358185 -8.848400 0.000000
317.423706 312.358185 -8.848400 0.000000
330.907043 312.358185 -8.848400 0.000000
344.390320 312.358185 -8.848400 0.000000
-343.257996 298.874878 -8.848400 0.000000
-329.774689 298.874878 -8.848400 0.000000
-316.291382 298.874878 -8.848400 0.000000
-302.808105 298.874878 -8.848400 0.000000
-289.324799 298.874878 -8.848400 0.000000
-275.841492 298.874878 -8.848400 0.000000
-262.358185 298.874878 -8.848400 0.000000
-248.874893 298.874878 -8.848400 0.000000
-235.391602 298.874878 -8.848400 0.000000
-221.908295 298.874878 -8.848400 0.000000
-208.424988 298.874878 -8.848400 0.000000
-194.941696 298.874878 -8.848400 0.000000
-181.458389 298.874878 -8.848400 0.000000
-167.975098 298.874878 -8.848400 0.000000
-154.491791 298.874878 -8.848400 0.000000
-141.008499 298.874878 -8.848400 3.489251
-127.525192 298.874878 -8.848400 3.401945
-114.041885 298.874878 -8.848400 3.739591
-100.558594 298.874878 -8.848400 4.005566
-87.075287 298.874878 -8.848400 4.218602
-73.591980 298.874878 -8.848400 4.461174
-60.108704 298.874878 -8.848400 4.850892
-46.625397 298.874878 -8.848400 5.008097
-33.142090 298.874878 -8.848400 5.561361
-19.658783 298.874878 -8.848400 5.476592
-6.175476 298.874878 -8.848400 0.000000
7.307800 298.874878 -8.848400 0.000000
20.791107 298.874878 -8.848400 0.000000
34.274414 298.874878 -8.848400 0.000000
47.757721 298.874878 -8.848400 0.000000
61.240997 298.874878 -8.848400 0.000000
74.724304 298.874878 -8.848400 0.000000
88.207611 298.874878 -8.848400 0.000000
101.690918 298.874878 -8.848400 0.000000
115.174225 298.874878 -8.848400 0.000000
128.657501 298.874878 -8.848400 0.000000
142.140808 298.874878 -8.848400 0.000000
155.624115 298.874878 -8.848400 0.000000
169.107422 298.874878 -8.848400 0.000000
182.590698 298.874878 -8.848400 0.000000
196.074036 298.874878 -8.848400 0.000000
209.557312 298.874878 -8.848400 0.000000
223.040588 298.874878 -8.848400 0.000000
236.523926 298.874878 -8.848400 0.000000
250.007202 298.874878 -8.848400 0.000000
263.490540 298.874878 -8.848400 0.000000
276.973816 298.874878 -8.848400 0.000000
290.457092 298.874878 -8.848400 0.000000
303.940430 298.874878 -8.848400 0.000000
317.423706 298.874878 -8.848400 0.000000
330.907043 298.874878 -8.848400 0.000000
344.390320 298.874878 -8.848400 0.000000
-343.257996 285.391602 -8.848400 0.000000
-329.774689 285.391602 -8.848400 0.000000
-316.291382 285.391602 -8.848400 0.000000
-302.808105 285.391602 -8.848400 0.000000
-289.324799 285.391602 -8.848400 0.000000
-275.841492 285.391602 -8.848400 0.000000
-262.358185 285.391602 -8.848400 0.000000
-248.874893 285.391602 -8.848400 0.000000
-235.391602 285.391602 -8.848400 0.000000
-221.908295 285.391602 -8.848400 0.000000
-208.424988 285.391602 -8.848400 0.000000
-194.941696 285.391602 -8.848400 0.000000
-181.458389 285.391602 -8.848400 0.000000
-167.975098 285.391602 -8.848400 0.000000
-154.491791 285.391602 -8.848400 0.000000
-141.008499 285.391602 -8.848400 3.611341
-127.525192 285.391602 -8.848400 3.595482
-114.041885 285.391602 -8.848400 3.918871
-100.558594 285.391602 -8.848400 3.983670
-87.075287 285.391602 -8.848400 4.330558
-73.591980 285.391602 -8.848400 4.686689
-60.108704 285.391602 -8.848400 4.966188
-46.625397 285.391602 -8.848400 5.479185
-33.142090 285.391602 -8.848400 5.572987
-19.658783 285.391602 -8.848400 5.583971
-6.175476 285.391602 -8.848400 5.373912
7.307800 285.391602 -8.848400 5.436936
20.791107 285.391602 -8.848400 5.429132
34.274414 285.391602 -8.848400 0.000000
47.757721 285.391602 -8.848400 0.000000
61.240997 285.391602 -8.848400 0.000000
74.724304 285.391602 -8.848400 0.000000
88.207611 285.391602 -8.848400 0.000000
101.690918 285.391602 -8.848400 0.000000
115.174225 285.391602 -8.848400 0.000000
128.657501 285.391602 -8.848400 0.000000
142.140808 285.391602 -8.848400 0.000000
155.624115 285.391602 -8.848400 0.000000
169.107422 285.391602 -8.848400 0.000000
182.590698 285.391602 -8.848400 0.000000
196.074036 285.391602 -8.848400 0.000000
209.557312 285.391602 -8.848400 0.000000
223.040588 285.391602 -8.848400 0.000000
236.523926 285.391602 -8.848400 0.000000
250.007202 285.391602 -8.848400 0.000000
263.490540 285.391602 -8.848400 0.000000
276.973816 285.391602 -8.848400 0.000000
290.457092 285.391602 -8.848400 0.000000
303.940430 285.391602 -8.848400 0.000000
317.423706 285.391602 -8.848400 0.000000
330.907043 285.391602 -8.848400 0.000000
344.390320 285.391602 -8.848400 0.000000
-343.257996 271.908295 -8.848400 0.000000
-329.774689 271.908295 -8.848400 0.000000
-316.291382 271.908295 -8.848400 0.000000
-302.808105 271.908295 -8.848400 0.000000
-289.324799 271.908295 -8.848400 0.000000
-275.841492 271.908295 -8.848400 0.000000
-262.358185 271.908295 -8.848400 0.000000
-248.874893 271.908295 -8.848400 0.000000
-235.391602 271.908295 -8.848400 0.000000
-221.908295 271.908295 -8.848400 0.000000
-208.424988 271.908295 -8.848400 0.000000
-194.941696 271.908295 -8.848400 0.000000
-181.458389 271.908295 -8.848400 0.000000
-167.975098 271.908295 -8.848400 0.000000
-154.491791 271.908295 -8.848400 0.000000
-141.008499 271.908295 -8.848400 3.213351
-127.525192 271.908295 -8.848400 3.610558
-114.041885 271.908295 -8.848400 4.165383
-100.558594 271.908295 -8.848400 4.174718
-87.075287 271.908295 -8.848400 4.797864
-73.591980 271.908295 -8.848400 5.475509
-60.108704 271.908295 -8.848400 6.248694
-46.625397 271.908295 -8.848400 6.547077
-33.142090 271.908295 -8.848400 5.830806
-19.658783 271.908295 -8.848400 5.970326
-6.175476 271.908295 -8.848400 5.977694
7.307800 271.908295 -8.848400 6.135083
20.791107 271.908295 -8.848400 6.315202
34.274414 271.908295 -8.848400 5.451997
47.757721 271.908295 -8.848400 5.087705
61.240997 271.908295 -8.848400 0.000000
74.724304 271.908295 -8.848400 0.000000
88.207611 271.908295 -8.848400 4.246149
101.690918 271.908295 -8.848400 4.124103
115.174225 271.908295 -8.848400 4.223439
128.657501 271.908295 -8.848400 4.461947
142.140808 271.908295 -8.848400 3.930848
155.624115 271.908295 -8.848400 0.000000
169.107422 271.908295 -8.848400 0.000000
182.590698 271.908295 -8.848400 0.000000
196.074036 271.908295 -8.848400 0.000000
209.557312 271.908295 -8.848400 0.000000
223.040588 271.908295 -8.848400 0.000000
236.523926 271.908295 -8.848400 0.000000
250.007202 271.908295 -8.848400 0.000000
263.490540 271.908295 -8.848400 0.000000
276.973816 271.908295 -8.848400 0.000000
290.457092 271.908295 -8.848400 0.000000
303.940430 271.908295 -8.848400 0.000000
317.423706 271.908295 -8.848400 0.000000
330.907043 271.908295 -8.848400 0.000000
344.390320 271.908295 -8.848400 0.000000
-343.257996 258.424988 -8.848400 0.000000
-329.774689 258.424988 -8.848400 0.000000
-316.291382 258.424988 -8.848400 0.000000
-302.808105 258.424988 -8.848400 0.000000
-289.324799 258.424988 -8.848400 0.000000
-275.841492 258.424988 -8.848400 0.000000
-262.358185 258.424988 -8.848400 0.000000
-248.874893 258.424988 -8.848400 0.000000
-235.391602 258.424988 -8.848400 0.000000
-221.908295 258.424988 -8.848400 0.000000
-208.424988 258.424988 -8.848400 0.000000
-194.941696 258.424988 -8.848400 0.000000
-181.458389 258.424988 -8.848400 0.000000
-167.975098 258.424988 -8.848400 0.000000
-154.491791 258.424988 -8.848400 0.000000
-141.008499 258.424988 -8.848400 3.263446
-127.525192 258.424988 -8.848400 3.573741
-114.041885 258.424988 -8.848400 3.918334
-100.558594 258.424988 -8.848400 4.240669
-87.075287 258.424988 -8.848400 4.635180
-73.591980 258.424988 -8.848400 5.295184
-60.108704 258.424988 -8.848400 5.835037
-46.625397 258.424988 -8.848400 6.652017
-33.142090 258.424988 -8.848400 6.108253
-19.658783 258.424988 -8.848400 6.481222
-6.175476 258.424988 -8.848400 6.032655
7.307800 258.424988 -8.848400 6.063757
20.791107 258.424988 -8.848400 5.968230
34.274414 258.424988 -8.848400 5.309147
47.757721 258.424988 -8.848400 5.139216
61.240997 258.424988 -8.848400 5.056070
74.724304 258.424988 -8.848400 4.354355
88.207611 258.424988 -8.848400 4.204379
101.690918 258.424988 -8.848400 4.183280
115.174225 258.424988 -8.848400 4.492502
128.657501 258.424988 -8.848400 4.173115
142.140808 258.424988 -8.848400 4.001541
155.624115 258.424988 -8.848400 3.531182
169.107422 258.424988 -8.848400 0.000000
182.590698 258.424988 -8.848400 0.000000
196.074036 258.424988 -8.848400 0.000000
209.557312 258.424988 -8.848400 0.000000
223.040588 258.424988 -8.848400 0.000000
236.523926 258.424988 -8.848400 0.000000
250.007202 258.424988 -8.848400 0.000000
263.490540 258.424988 -8.848400 0.000000
276.973816 258.424988 -8.848400 0.000000
290.457092 258.424988 -8.848400 0.000000
303.940430 258.424988 -8.848400 0.000000
317.423706 258.424988 -8.848400 0.000000
330.907043 258.424988 -8.848400 0.000000
344.390320 258.424988 -8.848400 0.000000
-343.257996 244.941696 -8.848400 0.000000
-329.774689 244.941696 -8.848400 0.000000
-316.291382 244.941696 -8.848400 0.000000
-302.808105 244.941696 -8.848400 0.000000
-289.324799 244.941696 -8.848400 0.000000
-275.841492 244.941696 -8.848400 0.000000
-262.358185 244.941696 -8.848400 0.000000
-248.874893 244.941696 -8.848400 0.000000
-235.391602 244.941696 -8.848400 0.000000
-221.908295 244.941696 -8.848400 0.000000
-208.424988 244.941696 -8.848400 0.000000
-194.941696 244.941696 -8.848400 0.000000
-181.458389 244.941696 -8.848400 0.000000
-167.975098 244.941696 -8.848400 0.000000
-154.491791 244.941696 -8.848400 2.618214
-141.008499 244.941696 -8.848400 2.960616
-127.525192 244.941696 -8.848400 3.215378
-114.041885 244.941696 -8.848400 3.838932
-100.558594 244.941696 -8.848400 4.381375
-87.075287 244.941696 -8.848400 4.810441
-73.591980 244.941696 -8.848400 5.253851
-60.108704 244.941696 -8.848400 5.909117
-46.625397 244.941696 -8.848400 6.674996
-33.142090 244.941696 -8.848400 6.679413
-19.658783 244.941696 -8.848400 6.893977
-6.175476 244.941696 -8.848400 6.150544
7.307800 244.941696 -8.848400 5.980878
20.791107 244.941696 -8.848400 5.624840
34.274414 244.941696 -8.848400 5.199539
47.757721 244.941696 -8.848400 4.834127
61.240997 244.941696 -8.848400 4.926349
74.724304 244.941696 -8.848400 4.549448
88.207611 244.941696 -8.848400 4.359570
101.690918 244.941696 -8.848400 4.367671
115.174225 244.941696 -8.848400 4.237411
128.657501 244.941696 -8.848400 3.894916
142.140808 244.941696 -8.848400 3.832642
155.624115 244.941696 -8.848400 3.413920
169.107422 244.941696 -8.848400 3.041817
182.590698 244.941696 -8.848400 0.000000
196.074036 244.941696 -8.848400 0.000000
209.557312 244.941696 -8.848400 0.000000
223.040588 244.941696 -8.848400 0.000000
236.523926 244.941696 -8.848400 0.000000
250.007202 244.941696 -8.848400 0.000000
263.490540 244.941696 -8.848400 0.000000
276.973816 244.941696 -8.848400 0.000000
290.457092 244.941696 -8.848400 0.000000
303.940430 244.941696 -8.848400 0.000000
317.423706 244.941696 -8.848400 0.000000
330.907043 244.941696 -8.848400 0.000000
344.390320 244.941696 -8.848400 0.000000
-343.257996 231.458389 -8.848400 0.000000
-329.774689 231.458389 -8.848400 0.000000
-316.291382 231.458389 -8.848400 0.000000
-302.808105 231.458389 -8.848400 0.000000
-289.324799 231.458389 -8.848400 0.000000
-275.841492 231.458389 -8.848400 0.000000
-262.358185 231.458389 -8.848400 0.000000
-248.874893 231.458389 -8.848400 0.000000
-235.391602 231.458389 -8.848400 0.000000
-221.908295 231.458389 -8.848400 0.000000
-208.424988 231.458389 -8.848400 0.000000
-194.941696 231.458389 -8.848400 0.000000
-181.458389 231.458389 -8.848400 0.000000
-167.975098 231.458389 -8.848400 0.000000
-154.491791 231.458389 -8.848400 0.000000
-141.008499 231.458389 -8.848400 2.704703
-127.525192 231.458389 -8.848400 3.042155
-114.041885 231.458389 -8.848400 3.785238
-100.558594 231.458389 -8.848400 4.631587
-87.075287 231.458389 -8.848400 5.114861
-73.591980 231.458389 -8.848400 5.247190
-60.108704 231.458389 -8.848400 6.060440
-46.625397 231.458389 -8.848400 6.704749
-33.142090 231.458389 -8.848400 7.496935
-19.658783 231.458389 -8.848400 7.699090
-6.175476 231.458389 -8.848400 7.134383
7.307800 231.458389 -8.848400 6.889121
20.791107 231.458389 -8.848400 6.234051
34.274414 231.458389 -8.848400 5.856629
47.757721 231.458389 -8.848400 5.530384
61.240997 231.458389 -8.848400 5.214639
74.724304 231.458389 -8.848400 5.100677
88.207611 231.458389 -8.848400 4.643296
101.690918 231.458389 -8.848400 4.425477
115.174225 231.458389 -8.848400 4.340144
128.657501 231.458389 -8.848400 3.795043
142.140808 231.458389 -8.848400 3.728858
155.624115 231.458389 -8.848400 3.143370
169.107422 231.458389 -8.848400 2.882657
182.590698 231.458389 -8.848400 0.000000
196.074036 231.458389 -8.848400 0.000000
209.557312 231.458389 -8.848400 0.000000
223.040588 231.458389 -8.848400 0.000000
236.523926 231.458389 -8.848400 0.000000
250.007202 231.458389 -8.848400 0.000000
263.490540 231.458389 -8.848400 0.000000
276.973816 231.458389 -8.848400 0.000000
290.457092 231.458389 -8.848400 0.000000
303.940430 231.458389 -8.848400 0.000000
317.423706 231.458389 -8.848400 0.000000
330.907043 231.458389 -8.848400 0.000000
344.390320 231.458389 -8.848400 0.000000
-343.257996 217.975098 -8.848400 0.000000
-329.774689 217.975098 -8.848400 0.000000
-316.291382 217.975098 -8.848400 0.000000
-302.808105 217.975098 -8.848400 0.000000
-289.324799 217.975098 -8.848400 0.000000
-275.841492 217.975098 -8.848400 0.000000
-262.358185 217.975098 -8.848400 0.000000
-248.874893 217.975098 -8.848400 0.000000
-235.391602 217.975098 -8.848400 0.000000
-221.908295 217.975098 -8.848400 0.000000
-208.424988 217.975098 -8.848400 0.000000
-194.941696 217.975098 -8.848400 0.000000
-181.458389 217.975098 -8.848400 0.000000
-167.975098 217.975098 -8.848400 0.000000
-154.491791 217.975098 -8.848400 2.432387
-141.008499 217.975098 -8.848400 2.718236
-127.525192 217.975098 -8.848400 2.939121
-114.041885 217.975098 -8.848400 3.428787
-100.558594 217.975098 -8.848400 4.185050
-87.075287 217.975098 -8.848400 5.270944
-73.591980 217.975098 -8.848400 5.871347
-60.108704 217.975098 -8.848400 6.559063
-46.625397 217.975098 -8.848400 7.302417
-33.142090 217.975098 -8.848400 7.795062
-19.658783 217.975098 -8.848400 8.559815
-6.175476 217.975098 -8.848400 8.422729
7.307800 217.975098 -8.848400 7.512452
20.791107 217.975098 -8.848400 6.784086
34.274414 217.975098 -8.848400 6.713147
47.757721 217.975098 -8.848400 6.312676
61.240997 217.975098 -8.848400 5.907790
74.724304 217.975098 -8.848400 5.031697
88.207611 217.975098 -8.848400 4.872265
101.690918 217.975098 -8.848400 4.788908
115.174225 217.975098 -8.848400 4.734201
128.657501 217.975098 -8.848400 3.999785
142.140808 217.975098 -8.848400 3.259558
155.624115 217.975098 -8.848400 2.962745
169.107422 217.975098 -8.848400 2.783590
182.590698 217.975098 -8.848400 0.000000
196.074036 217.975098 -8.848400 0.000000
209.557312 217.975098 -8.848400 0.000000
223.040588 217.975098 -8.848400 0.000000
236.523926 217.975098 -8.848400 0.000000
250.007202 217.975098 -8.848400 0.000000
263.490540 217.975098 -8.848400 0.000000
276.973816 217.975098 -8.848400 0.000000
290.457092 217.975098 -8.848400 0.000000
303.940430 217.975098 -8.848400 0.000000
317.423706 217.975098 -8.848400 0.000000
330.907043 217.975098 -8.848400 0.000000
344.390320 217.975098 -8.848400 0.000000
-343.257996 204.491791 -8.848400 0.000000
-329.774689 204.491791 -8.848400 0.000000
-316.291382 204.491791 -8.848400 0.000000
-302.808105 204.491791 -8.848400 0.000000
-289.324799 204.491791 -8.848400 0.000000
-275.841492 204.491791 -8.848400 0.000000
-262.358185 204.491791 -8.848400 0.000000
-248.874893 204.491791 -8.848400 0.000000
-235.391602 204.491791 -8.848400 0.000000
-221.908295 204.491791 -8.848400 0.000000
-208.424988 204.491791 -8.848400 0.000000
-194.941696 204.491791 -8.848400 0.000000
-181.458389 204.491791 -8.848400 0.000000
-167.975098 204.491791 -8.848400 0.000000
-154.491791 204.491791 -8.848400 2.664960
-141.008499 204.491791 -8.848400 2.910755
-127.525192 204.491791 -8.848400 3.182228
-114.041885 204.491791 -8.848400 3.492867
-100.558594 204.491791 -8.848400 4.352957
-87.075287 204.491791 -8.848400 5.151278
-73.591980 204.491791 -8.848400 6.244232
-60.108704 204.491791 -8.848400 6.824002
-46.625397 204.491791 -8.848400 7.503167
-33.142090 204.491791 -8.848400 8.017308
-19.658783 204.491791 -8.848400 8.339774
-6.175476 204.491791 -8.848400 7.846883
7.307800 204.491791 -8.848400 7.019971
20.791107 204.491791 -8.848400 6.882875
34.274414 204.491791 -8.848400 6.894723
47.757721 204.491791 -8.848400 6.352216
61.240997 204.491791 -8.848400 5.986930
74.724304 204.491791 -8.848400 5.549984
88.207611 204.491791 -8.848400 5.409870
101.690918 204.491791 -8.848400 5.237063
115.174225 204.491791 -8.848400 4.768939
128.657501 204.491791 -8.848400 3.721612
142.140808 204.491791 -8.848400 3.030047
155.624115 204.491791 -8.848400 2.810858
169.107422 204.491791 -8.848400 2.757597
182.590698 204.491791 -8.848400 0.000000
196.074036 204.491791 -8.848400 0.000000
209.557312 204.491791 -8.848400 0.000000
223.040588 204.491791 -8.848400 0.000000
236.523926 204.491791 -8.848400 0.000000
250.007202 204.491791 -8.848400 0.000000
263.490540 204.491791 -8.848400 0.000000
276.973816 204.491791 -8.848400 0.000000
290.457092 204.491791 -8.848400 0.000000
303.940430 204.491791 -8.848400 0.000000
317.423706 204.491791 -8.848400 0.000000
330.907043 204.491791 -8.848400 0.000000
344.390320 204.491791 -8.848400 0.000000
-343.257996 191.008499 -8.848400 0.000000
-329.774689 191.008499 -8.848400 0.000000
-316.291382 191.008499 -8.848400 0.000000
-302.808105 191.008499 -8.848400 0.000000
-289.324799 191.008499 -8.848400 0.000000
-275.841492 191.008499 -8.848400 0.000000
-262.358185 191.008499 -8.848400 0.000000
-248.874893 191.008499 -8.848400 0.000000
-235.391602 191.008499 -8.848400 0.000000
-221.908295 191.008499 -8.848400 0.000000
-208.424988 191.008499 -8.848400 0.000000
-194.941696 191.008499 -8.848400 0.000000
-181.458389 191.008499 -8.848400 0.000000
-167.975098 191.008499 -8.848400 0.000000
-154.491791 191.008499 -8.848400 2.648612
-141.008499 191.008499 -8.848400 2.926492
-127.525192 191.008499 -8.848400 3.200767
-114.041885 191.008499 -8.848400 3.756025
-100.558594 191.008499 -8.848400 4.648056
-87.075287 191.008499 -8.848400 5.650639
-73.591980 191.008499 -8.848400 6.349255
-60.108704 191.008499 -8.848400 7.284525
-46.625397 191.008499 -8.848400 7.522101
-33.142090 191.008499 -8.848400 8.258902
-19.658783 191.008499 -8.848400 7.954237
-6.175476 191.008499 -8.848400 6.970356
7.307800 191.008499 -8.848400 7.177823
20.791107 191.008499 -8.848400 7.091102
34.274414 191.008499 -8.848400 7.036958
47.757721 191.008499 -8.848400 6.651203
61.240997 191.008499 -8.848400 6.315057
74.724304 191.008499 -8.848400 5.694078
88.207611 191.008499 -8.848400 5.483075
101.690918 191.008499 -8.848400 4.832895
115.174225 191.008499 -8.848400 4.408680
128.657501 191.008499 -8.848400 3.225911
142.140808 191.008499 -8.848400 2.665207
155.624115 191.008499 -8.848400 2.659624
169.107422 191.008499 -8.848400 0.000000
182.590698 191.008499 -8.848400 0.000000
196.074036 191.008499 -8.848400 0.000000
209.557312 191.008499 -8.848400 0.000000
223.040588 191.008499 -8.848400 0.000000
236.523926 191.008499 -8.848400 0.000000
250.007202 191.008499 -8.848400 0.000000
263.490540 191.008499 -8.848400 0.000000
276.973816 191.008499 -8.848400 0.000000
290.457092 191.008499 -8.848400 0.000000
303.940430 191.008499 -8.848400 0.000000
317.423706 191.008499 -8.848400 0.000000
330.907043 191.008499 -8.848400 0.000000
344.390320 191.008499 -8.848400 0.000000
-343.257996 177.525192 -8.848400 0.000000
-329.774689 177.525192 -8.848400 0.000000
-316.291382 177.525192 -8.848400 0.000000
-302.808105 177.525192 -8.848400 0.000000
-289.324799 177.525192 -8.848400 0.000000
-275.841492 177.525192 -8.848400 0.000000
-262.358185 177.525192 -8.848400 0.000000
-248.874893 177.525192 -8.848400 0.000000
-235.391602 177.525192 -8.848400 0.000000
-221.908295 177.525192 -8.848400 0.000000
-208.424988 177.525192 -8.848400 0.000000
-194.941696 177.525192 -8.848400 0.000000
-181.458389 177.525192 -8.848400 0.000000
-167.975098 177.525192 -8.848400 0.000000
-154.491791 177.525192 -8.848400 2.879473
-141.008499 177.525192 -8.848400 3.369301
-127.525192 177.525192 -8.848400 3.355188
-114.041885 177.525192 -8.848400 4.152942
-100.558594 177.525192 -8.848400 5.047000
-87.075287 177.525192 -8.848400 5.967824
-73.591980 177.525192 -8.848400 6.306023
-60.108704 177.525192 -8.848400 6.911372
-46.625397 177.525192 -8.848400 7.520571
-33.142090 177.525192 -8.848400 8.010521
-19.658783 177.525192 -8.848400 7.464243
-6.175476 177.525192 -8.848400 7.433628
7.307800 177.525192 -8.848400 7.265868
20.791107 177.525192 -8.848400 7.514471
34.274414 177.525192 -8.848400 7.208853
47.757721 177.525192 -8.848400 6.682309
61.240997 177.525192 -8.848400 6.078068
74.724304 177.525192 -8.848400 5.552657
88.207611 177.525192 -8.848400 5.252385
101.690918 177.525192 -8.848400 4.806036
115.174225 177.525192 -8.848400 4.059821
128.657501 177.525192 -8.848400 3.098760
142.140808 177.525192 -8.848400 2.734797
155.624115 177.525192 -8.848400 0.000000
169.107422 177.525192 -8.848400 0.000000
182.590698 177.525192 -8.848400 0.000000
196.074036 177.525192 -8.848400 0.000000
209.557312 177.525192 -8.848400 0.000000
223.040588 177.525192 -8.848400 0.000000
236.523926 177.525192 -8.848400 0.000000
250.007202 177.525192 -8.848400 0.000000
263.490540 177.525192 -8.848400 0.000000
276.973816 177.525192 -8.848400 0.000000
290.457092 177.525192 -8.848400 0.000000
303.940430 177.525192 -8.848400 0.000000
317.423706 177.525192 -8.848400 0.000000
330.907043 177.525192 -8.848400 0.000000
344.390320 177.525192 -8.848400 0.000000
-343.257996 164.041885 -8.848400 0.000000
-329.774689 164.041885 -8.848400 0.000000
-316.291382 164.041885 -8.848400 0.000000
-302.808105 164.041885 -8.848400 0.000000
-289.324799 164.041885 -8.848400 0.000000
-275.841492 164.041885 -8.848400 0.000000
-262.358185 164.041885 -8.848400 0.000000
-248.874893 164.041885 -8.848400 0.000000
-235.391602 164.041885 -8.848400 0.000000
-221.908295 164.041885 -8.848400 0.000000
-208.424988 164.041885 -8.848400 0.000000
-194.941696 164.041885 -8.848400 0.000000
-181.458389 164.041885 -8.848400 0.000000
-167.975098 164.041885 -8.848400 0.000000
-154.491791 164.041885 -8.848400 2.898140
-141.008499 164.041885 -8.848400 3.717294
-127.525192 164.041885 -8.848400 3.868303
-114.041885 164.041885 -8.848400 4.262572
-100.558594 164.041885 -8.848400 5.187717
-87.075287 164.041885 -8.848400 6.296074
-73.591980 164.041885 -8.848400 6.968486
-60.108704 164.041885 -8.848400 7.447753
-46.625397 164.041885 -8.848400 8.135905
-33.142090 164.041885 -8.848400 8.186505
-19.658783 164.041885 -8.848400 8.270152
-6.175476 164.041885 -8.848400 7.606311
7.307800 164.041885 -8.848400 7.676812
20.791107 164.041885 -8.848400 7.469770
34.274414 164.041885 -8.848400 7.081727
47.757721 164.041885 -8.848400 6.921838
61.240997 164.041885 -8.848400 6.566604
74.724304 164.041885 -8.848400 6.025071
88.207611 164.041885 -8.848400 5.174050
101.690918 164.041885 -8.848400 4.288116
115.174225 164.041885 -8.848400 3.636398
128.657501 164.041885 -8.848400 0.000000
142.140808 164.041885 -8.848400 0.000000
155.624115 164.041885 -8.848400 0.000000
169.107422 164.041885 -8.848400 0.000000
182.590698 164.041885 -8.848400 0.000000
196.074036 164.041885 -8.848400 0.000000
209.557312 164.041885 -8.848400 0.000000
223.040588 164.041885 -8.848400 0.000000
236.523926 164.041885 -8.848400 0.000000
250.007202 164.041885 -8.848400 0.000000
263.490540 164.041885 -8.848400 0.000000
276.973816 164.041885 -8.848400 0.000000
290.457092 164.041885 -8.848400 0.000000
303.940430 164.041885 -8.848400 0.000000
317.423706 164.041885 -8.848400 0.000000
330.907043 164.041885 -8.848400 0.000000
344.390320 164.041885 -8.848400 0.000000
-343.257996 150.558594 -8.848400 0.000000
-329.774689 150.558594 -8.848400 0.000000
-316.291382 150.558594 -8.848400 0.000000
-302.808105 150.558594 -8.848400 0.000000
-289.324799 150.558594 -8.848400 0.000000
-275.841492 150.558594 -8.848400 0.000000
-262.358185 150.558594 -8.848400 0.000000
-248.874893 150.558594 -8.848400 0.000000
-235.391602 150.558594 -8.848400 0.000000
-221.908295 150.558594 -8.848400 0.000000
-208.424988 150.558594 -8.848400 0.000000
-194.941696 150.558594 -8.848400 0.000000
-181.458389 150.558594 -8.848400 0.000000
-167.975098 150.558594 -8.848400 0.000000
-154.491791 150.558594 -8.848400 3.213722
-141.008499 150.558594 -8.848400 3.578083
-127.525192 150.558594 -8.848400 4.409706
-114.041885 150.558594 -8.848400 4.693367
-100.558594 150.558594 -8.848400 5.446063
-87.075287 150.558594 -8.848400 6.285794
-73.591980 150.558594 -8.848400 7.456844
-60.108704 150.558594 -8.848400 7.901957
-46.625397 150.558594 -8.848400 8.559796
-33.142090 150.558594 -8.848400 8.758843
-19.658783 150.558594 -8.848400 9.055405
-6.175476 150.558594 -8.848400 8.511151
7.307800 150.558594 -8.848400 8.088144
20.791107 150.558594 -8.848400 8.174891
34.274414 150.558594 -8.848400 7.869788
47.757721 150.558594 -8.848400 7.209080
61.240997 150.558594 -8.848400 6.622536
74.724304 150.558594 -8.848400 5.810077
88.207611 150.558594 -8.848400 4.460976
101.690918 150.558594 -8.848400 3.449800
115.174225 150.558594 -8.848400 0.000000
128.657501 150.558594 -8.848400 0.000000
142.140808 150.558594 -8.848400 0.000000
155.624115 150.558594 -8.848400 0.000000
169.107422 150.558594 -8.848400 0.000000
182.590698 150.558594 -8.848400 0.000000
196.074036 150.558594 -8.848400 0.000000
209.557312 150.558594 -8.848400 0.000000
223.040588 150.558594 -8.848400 0.000000
236.523926 150.558594 -8.848400 0.000000
250.007202 150.558594 -8.848400 0.000000
263.490540 150.558594 -8.848400 0.000000
276.973816 150.558594 -8.848400 0.000000
290.457092 150.558594 -8.848400 0.000000
303.940430 150.558594 -8.848400 0.000000
317.423706 150.558594 -8.848400 0.000000
330.907043 150.558594 -8.848400 0.000000
344.390320 150.558594 -8.848400 0.000000
-343.257996 137.075287 -8.848400 0.000000
-329.774689 137.075287 -8.848400 0.000000
-316.291382 137.075287 -8.848400 0.000000
-302.808105 137.075287 -8.848400 0.000000
-289.324799 137.075287 -8.848400 0.000000
-275.841492 137.075287 -8.848400 0.000000
-262.358185 137.075287 -8.848400 0.000000
-248.874893 137.075287 -8.848400 0.000000
-235.391602 137.075287 -8.848400 0.000000
-221.908295 137.075287 -8.848400 0.000000
-208.424988 137.075287 -8.848400 0.000000
-194.941696 137.075287 -8.848400 0.000000
-181.458389 137.075287 -8.848400 0.000000
-167.975098 137.075287 -8.848400 0.000000
-154.491791 137.075287 -8.848400 3.580148
-141.008499 137.075287 -8.848400 3.744824
-127.525192 137.075287 -8.848400 4.295078
-114.041885 137.075287 -8.848400 4.893126
-100.558594 137.075287 -8.848400 5.468145
-87.075287 137.075287 -8.848400 6.337408
-73.591980 137.075287 -8.848400 7.877209
-60.108704 137.075287 -8.848400 8.639204
-46.625397 137.075287 -8.848400 9.555708
-33.142090 137.075287 -8.848400 10.367625
-19.658783 137.075287 -8.848400 9.533070
-6.175476 137.075287 -8.848400 9.109193
7.307800 137.075287 -8.848400 8.592860
20.791107 137.075287 -8.848400 8.702957
34.274414 137.075287 -8.848400 7.981945
47.757721 137.075287 -8.848400 6.529041
61.240997 137.075287 -8.848400 6.107189
74.724304 137.075287 -8.848400 5.864529
88.207611 137.075287 -8.848400 4.502245
101.690918 137.075287 -8.848400 0.000000
115.174225 137.075287 -8.848400 0.000000
128.657501 137.075287 -8.848400 0.000000
142.140808 137.075287 -8.848400 0.000000
155.624115 137.075287 -8.848400 0.000000
169.107422 137.075287 -8.848400 0.000000
182.590698 137.075287 -8.848400 0.000000
196.074036 137.075287 -8.848400 0.000000
209.557312 137.075287 -8.848400 0.000000
223.040588 137.075287 -8.848400 0.000000
236.523926 137.075287 -8.848400 0.000000
250.007202 137.075287 -8.848400 0.000000
263.490540 137.075287 -8.848400 0.000000
276.973816 137.075287 -8.848400 0.000000
290.457092 137.075287 -8.848400 0.000000
303.940430 137.075287 -8.848400 0.000000
317.423706 137.075287 -8.848400 0.000000
330.907043 137.075287 -8.848400 0.000000
344.390320 137.075287 -8.848400 0.000000
-343.257996 123.591980 -8.848400 0.000000
-329.774689 123.591980 -8.848400 0.000000
-316.291382 123.591980 -8.848400 0.000000
-302.808105 123.591980 -8.848400 0.000000
-289.324799 123.591980 -8.848400 0.000000
-275.841492 123.591980 -8.848400 0.000000
-262.358185 123.591980 -8.848400 0.000000
-248.874893 123.591980 -8.848400 0.000000
-235.391602 123.591980 -8.848400 0.000000
-221.908295 123.591980 -8.848400 0.000000
-208.424988 123.591980 -8.848400 0.000000
-194.941696 123.591980 -8.848400 0.000000
-181.458389 123.591980 -8.848400 0.000000
-167.975098 123.591980 -8.848400 0.000000
-154.491791 123.591980 -8.848400 4.117663
-141.008499 123.591980 -8.848400 4.031122
-127.525192 123.591980 -8.848400 4.785652
-114.041885 123.591980 -8.848400 5.553667
-100.558594 123.591980 -8.848400 6.265206
-87.075287 123.591980 -8.848400 7.344575
-73.591980 123.591980 -8.848400 7.871181
-60.108704 123.591980 -8.848400 8.600487
-46.625397 123.591980 -8.848400 8.899633
-33.142090 123.591980 -8.848400 9.152930
-19.658783 123.591980 -8.848400 9.030251
-6.175476 123.591980 -8.848400 9.166932
7.307800 123.591980 -8.848400 9.002676
20.791107 123.591980 -8.848400 8.406173
34.274414 123.591980 -8.848400 7.618710
47.757721 123.591980 -8.848400 6.329594
61.240997 123.591980 -8.848400 5.583941
74.724304 123.591980 -8.848400 5.215581
88.207611 123.591980 -8.848400 4.223843
101.690918 123.591980 -8.848400 0.000000
115.174225 123.591980 -8.848400 0.000000
128.657501 123.591980 -8.848400 0.000000
142.140808 123.591980 -8.848400 0.000000
155.624115 123.591980 -8.848400 0.000000
169.107422 123.591980 -8.848400 0.000000
182.590698 123.591980 -8.848400 0.000000
196.074036 123.591980 -8.848400 0.000000
209.557312 123.591980 -8.848400 0.000000
223.040588 123.591980 -8.848400 0.000000
236.523926 123.591980 -8.848400 0.000000
250.007202 123.591980 -8.848400 0.000000
263.490540 123.591980 -8.848400 0.000000
276.973816 123.591980 -8.848400 0.000000
290.457092 123.591980 -8.848400 0.000000
303.940430 123.591980 -8.848400 0.000000
317.423706 123.591980 -8.848400 0.000000
330.907043 123.591980 -8.848400 0.000000
344.390320 123.591980 -8.848400 0.000000
-343.257996 110.108704 -8.848400 0.000000
-329.774689 110.108704 -8.848400 0.000000
-316.291382 110.108704 -8.848400 0.000000
-302.808105 110.108704 -8.848400 0.000000
-289.324799 110.108704 -8.848400 0.000000
-275.841492 110.108704 -8.848400 0.000000
-262.358185 110.108704 -8.848400 0.000000
-248.874893 110.108704 -8.848400 0.000000
-235.391602 110.108704 -8.848400 0.000000
-221.908295 110.108704 -8.848400 0.000000
-208.424988 110.108704 -8.848400 0.000000
-194.941696 110.108704 -8.848400 0.000000
-181.458389 110.108704 -8.848400 0.000000
-167.975098 110.108704 -8.848400 0.000000
-154.491791 110.108704 -8.848400 4.470505
-141.008499 110.108704 -8.848400 4.435435
-127.525192 110.108704 -8.848400 5.457686
-114.041885 110.108704 -8.848400 6.049386
-100.558594 110.108704 -8.848400 6.742995
-87.075287 110.108704 -8.848400 6.985106
-73.591980 110.108704 -8.848400 7.306210
-60.108704 110.108704 -8.848400 8.083826
-46.625397 110.108704 -8.848400 8.912461
-33.142090 110.108704 -8.848400 8.725780
-19.658783 110.108704 -8.848400 8.487796
-6.175476 110.108704 -8.848400 8.660225
7.307800 110.108704 -8.848400 8.846413
20.791107 110.108704 -8.848400 8.121402
34.274414 110.108704 -8.848400 7.430316
47.757721 110.108704 -8.848400 6.457769
61.240997 110.108704 -8.848400 5.948122
74.724304 110.108704 -8.848400 5.350416
88.207611 110.108704 -8.848400 4.595670
101.690918 110.108704 -8.848400 0.000000
115.174225 110.108704 -8.848400 0.000000
128.657501 110.108704 -8.848400 0.000000
142.140808 110.108704 -8.848400 0.000000
155.624115 110.108704 -8.848400 0.000000
169.107422 110.108704 -8.848400 0.000000
182.590698 110.108704 -8.848400 0.000000
196.074036 110.108704 -8.848400 0.000000
209.557312 110.108704 -8.848400 0.000000
223.040588 110.108704 -8.848400 0.000000
236.523926 110.108704 -8.848400 0.000000
250.007202 110.108704 -8.848400 0.000000
263.490540 110.108704 -8.848400 0.000000
276.973816 110.108704 -8.848400 0.000000
290.457092 110.108704 -8.848400 0.000000
303.940430 110.108704 -8.848400 0.000000
317.423706 110.108704 -8.848400 0.000000
330.907043 110.108704 -8.848400 0.000000
344.390320 110.108704 -8.848400 0.000000
-343.257996 96.625397 -8.848400 0.000000
-329.774689 96.625397 -8.848400 0.000000
-316.291382 96.625397 -8.848400 0.000000
-302.808105 96.625397 -8.848400 0.000000
-289.324799 96.625397 -8.848400 0.000000
-275.841492 96.625397 -8.848400 0.000000
-262.358185 96.625397 -8.848400 0.000000
-248.874893 96.625397 -8.848400 0.000000
-235.391602 96.625397 -8.848400 0.000000
-221.908295 96.625397 -8.848400 0.000000
-208.424988 96.625397 -8.848400 0.000000
-194.941696 96.625397 -8.848400 0.000000
-181.458389 96.625397 -8.848400 0.000000
-167.975098 96.625397 -8.848400 0.000000
-154.491791 96.625397 -8.848400 4.865792
-141.008499 96.625397 -8.848400 5.197656
-127.525192 96.625397 -8.848400 5.846048
-114.041885 96.625397 -8.848400 6.525596
-100.558594 96.625397 -8.848400 7.159240
-87.075287 96.625397 -8.848400 7.514441
-73.591980 96.625397 -8.848400 7.189442
-60.108704 96.625397 -8.848400 7.732485
-46.625397 96.625397 -8.848400 8.066954
-33.142090 96.625397 -8.848400 7.934790
-19.658783 96.625397 -8.848400 8.565466
-6.175476 96.625397 -8.848400 7.899286
7.307800 96.625397 -8.848400 7.791688
20.791107 96.625397 -8.848400 7.372050
34.274414 96.625397 -8.848400 7.517155
47.757721 96.625397 -8.848400 7.214096
61.240997 96.625397 -8.848400 6.431865
74.724304 96.625397 -8.848400 6.200655
88.207611 96.625397 -8.848400 5.612557
101.690918 96.625397 -8.848400 0.000000
115.174225 96.625397 -8.848400 0.000000
128.657501 96.625397 -8.848400 0.000000
142.140808 96.625397 -8.848400 0.000000
155.624115 96.625397 -8.848400 0.000000
169.107422 96.625397 -8.848400 0.000000
182.590698 96.625397 -8.848400 0.000000
196.074036 96.625397 -8.848400 0.000000
209.557312 96.625397 -8.848400 0.000000
223.040588 96.625397 -8.848400 0.000000
236.523926 96.625397 -8.848400 0.000000
250.007202 96.625397 -8.848400 0.000000
263.490540 96.625397 -8.848400 0.000000
276.973816 96.625397 -8.848400 0.000000
290.457092 96.625397 -8.848400 0.000000
303.940430 96.625397 -8.848400 0.000000
317.423706 96.625397 -8.848400 0.000000
330.907043 96.625397 -8.848400 0.000000
344.390320 96.625397 -8.848400 0.000000
-343.257996 83.142090 -8.848400 0.000000
-329.774689 83.142090 -8.848400 0.000000
-316.291382 83.142090 -8.848400 0.000000
-302.808105 83.142090 -8.848400 0.000000
-289.324799 83.142090 -8.848400 0.000000
-275.841492 83.142090 -8.848400 0.000000
-262.358185 83.142090 -8.848400 0.000000
-248.874893 83.142090 -8.848400 0.000000
-235.391602 83.142090 -8.848400 0.000000
-221.908295 83.142090 -8.848400 0.000000
-208.424988 83.142090 -8.848400 0.000000
-194.941696 83.142090 -8.848400 0.000000
-181.458389 83.142090 -8.848400 0.000000
-167.975098 83.142090 -8.848400 0.000000
-154.491791 83.142090 -8.848400 0.000000
-141.008499 83.142090 -8.848400 6.022950
-127.525192 83.142090 -8.848400 6.686731
-114.041885 83.142090 -8.848400 6.811903
-100.558594 83.142090 -8.848400 7.109334
-87.075287 83.142090 -8.848400 7.302823
-73.591980 83.142090 -8.848400 7.627926
-60.108704 83.142090 -8.848400 7.923345
-46.625397 83.142090 -8.848400 7.402255
-33.142090 83.142090 -8.848400 7.836749
-19.658783 83.142090 -8.848400 7.901767
-6.175476 83.142090 -8.848400 7.110728
7.307800 83.142090 -8.848400 7.187333
20.791107 83.142090 -8.848400 6.642420
34.274414 83.142090 -8.848400 7.409980
47.757721 83.142090 -8.848400 7.143942
61.240997 83.142090 -8.848400 6.317728
74.724304 83.142090 -8.848400 6.177480
88.207611 83.142090 -8.848400 5.848696
101.690918 83.142090 -8.848400 0.000000
115.174225 83.142090 -8.848400 0.000000
128.657501 83.142090 -8.848400 0.000000
142.140808 83.142090 -8.848400 0.000000
155.624115 83.142090 -8.848400 0.000000
169.107422 83.142090 -8.848400 0.000000
182.590698 83.142090 -8.848400 0.000000
196.074036 83.142090 -8.848400 0.000000
209.557312 83.142090 -8.848400 0.000000
223.040588 83.142090 -8.848400 0.000000
236.523926 83.142090 -8.848400 0.000000
250.007202 83.142090 -8.848400 0.000000
263.490540 83.142090 -8.848400 0.000000
276.973816 83.142090 -8.848400 0.000000
290.457092 83.142090 -8.848400 0.000000
303.940430 83.142090 -8.848400 0.000000
317.423706 83.142090 -8.848400 0.000000
330.907043 83.142090 -8.848400 0.000000
344.390320 83.142090 -8.848400 0.000000
-343.257996 69.658783 -8.848400 0.000000
-329.774689 69.658783 -8.848400 0.000000
-316.291382 69.658783 -8.848400 0.000000
-302.808105 69.658783 -8.848400 0.000000
-289.324799 69.658783 -8.848400 0.000000
-275.841492 69.658783 -8.848400 0.000000
-262.358185 69.658783 -8.848400 0.000000
-248.874893 69.658783 -8.848400 0.000000
-235.391602 69.658783 -8.848400 0.000000
-221.908295 69.658783 -8.848400 0.000000
-208.424988 69.658783 -8.848400 0.000000
-194.941696 69.658783 -8.848400 0.000000
-181.458389 69.658783 -8.848400 0.000000
-167.975098 69.658783 -8.848400 0.000000
-154.491791 69.658783 -8.848400 0.000000
-141.008499 69.658783 -8.848400 6.504433
-127.525192 69.658783 -8.848400 6.958312
-114.041885 69.658783 -8.848400 7.451312
-100.558594 69.658783 -8.848400 7.275960
-87.075287 69.658783 -8.848400 7.526006
-73.591980 69.658783 -8.848400 7.535752
-60.108704 69.658783 -8.848400 7.141863
-46.625397 69.658783 -8.848400 6.347127
-33.142090 69.658783 -8.848400 7.313865
-19.658783 69.658783 -8.848400 7.798629
-6.175476 69.658783 -8.848400 6.828251
7.307800 69.658783 -8.848400 7.026226
20.791107 69.658783 -8.848400 6.775721
34.274414 69.658783 -8.848400 7.309165
47.757721 69.658783 -8.848400 7.408297
61.240997 69.658783 -8.848400 6.980458
74.724304 69.658783 -8.848400 6.857044
88.207611 69.658783 -8.848400 6.441779
101.690918 69.658783 -8.848400 0.000000
115.174225 69.658783 -8.848400 0.000000
128.657501 69.658783 -8.848400 0.000000
142.140808 69.658783 -8.848400 0.000000
155.624115 69.658783 -8.848400 0.000000
169.107422 69.658783 -8.848400 0.000000
182.590698 69.658783 -8.848400 0.000000
196.074036 69.658783 -8.848400 0.000000
209.557312 69.658783 -8.848400 0.000000
223.040588 69.658783 -8.848400 0.000000
236.523926 69.658783 -8.848400 0.000000
250.007202 69.658783 -8.848400 0.000000
263.490540 69.658783 -8.848400 0.000000
276.973816 69.658783 -8.848400 0.000000
290.457092 69.658783 -8.848400 0.000000
303.940430 69.658783 -8.848400 0.000000
317.423706 69.658783 -8.848400 0.000000
330.907043 69.658783 -8.848400 0.000000
344.390320 69.658783 -8.848400 0.000000
-343.257996 56.175476 -8.848400 0.000000
-329.774689 56.175476 -8.848400 0.000000
-316.291382 56.175476 -8.848400 0.000000
-302.808105 56.175476 -8.848400 0.000000
-289.324799 56.175476 -8.848400 0.000000
-275.841492 56.175476 -8.848400 0.000000
-262.358185 56.175476 -8.848400 0.000000
-248.874893 56.175476 -8.848400 0.000000
-235.391602 56.175476 -8.848400 0.000000
-221.908295 56.175476 -8.848400 0.000000
-208.424988 56.175476 -8.848400 0.000000
-194.941696 56.175476 -8.848400 0.000000
-181.458389 56.175476 -8.848400 0.000000
-167.975098 56.175476 -8.848400 0.000000
-154.491791 56.175476 -8.848400 0.000000
-141.008499 56.175476 -8.848400 6.663298
-127.525192 56.175476 -8.848400 7.251860
-114.041885 56.175476 -8.848400 7.503779
-100.558594 56.175476 -8.848400 7.571972
-87.075287 56.175476 -8.848400 7.183796
-73.591980 56.175476 -8.848400 7.538972
-60.108704 56.175476 -8.848400 7.220498
-46.625397 56.175476 -8.848400 6.775960
-33.142090 56.175476 -8.848400 7.075109
-19.658783 56.175476 -8.848400 6.964165
-6.175476 56.175476 -8.848400 6.964386
7.307800 56.175476 -8.848400 6.859296
20.791107 56.175476 -8.848400 7.180348
34.274414 56.175476 -8.848400 7.193220
47.757721 56.175476 -8.848400 6.952787
61.240997 56.175476 -8.848400 6.611042
74.724304 56.175476 -8.848400 6.720160
88.207611 56.175476 -8.848400 6.054578
101.690918 56.175476 -8.848400 5.274011
115.174225 56.175476 -8.848400 0.000000
128.657501 56.175476 -8.848400 0.000000
142.140808 56.175476 -8.848400 0.000000
155.624115 56.175476 -8.848400 0.000000
169.107422 56.175476 -8.848400 0.000000
182.590698 56.175476 -8.848400 0.000000
196.074036 56.175476 -8.848400 0.000000
209.557312 56.175476 -8.848400 0.000000
223.040588 56.175476 -8.848400 0.000000
236.523926 56.175476 -8.848400 0.000000
250.007202 56.175476 -8.848400 0.000000
263.490540 56.175476 -8.848400 0.000000
276.973816 56.175476 -8.848400 0.000000
290.457092 56.175476 -8.848400 0.000000
303.940430 56.175476 -8.848400 0.000000
317.423706 56.175476 -8.848400 0.000000
330.907043 56.175476 -8.848400 0.000000
344.390320 56.175476 -8.848400 0.000000
-343.257996 42.692200 -8.848400 0.000000
-329.774689 42.692200 -8.848400 0.000000
-316.291382 42.692200 -8.848400 0.000000
-302.808105 42.692200 -8.848400 0.000000
-289.324799 42.692200 -8.848400 0.000000
-275.841492 42.692200 -8.848400 0.000000
-262.358185 42.692200 -8.848400 0.000000
-248.874893 42.692200 -8.848400 0.000000
-235.391602 42.692200 -8.848400 0.000000
-221.908295 42.692200 -8.848400 0.000000
-208.424988 42.692200 -8.848400 0.000000
-194.941696 42.692200 -8.848400 0.000000
-181.458389 42.692200 -8.848400 0.000000
-167.975098 42.692200 -8.848400 0.000000
-154.491791 42.692200 -8.848400 0.000000
-141.008499 42.692200 -8.848400 6.804824
-127.525192 42.692200 -8.848400 7.386320
-114.041885 42.692200 -8.848400 7.140237
-100.558594 42.692200 -8.848400 7.508495
-87.075287 42.692200 -8.848400 7.562018
-73.591980 42.692200 -8.848400 7.377001
-60.108704 42.692200 -8.848400 7.587308
-46.625397 42.692200 -8.848400 7.182052
-33.142090 42.692200 -8.848400 7.178956
-19.658783 42.692200 -8.848400 7.292672
-6.175476 42.692200 -8.848400 7.088751
7.307800 42.692200 -8.848400 6.693678
20.791107 42.692200 -8.848400 7.057118
34.274414 42.692200 -8.848400 6.917130
47.757721 42.692200 -8.848400 6.260080
61.240997 42.692200 -8.848400 6.743841
74.724304 42.692200 -8.848400 6.156658
88.207611 42.692200 -8.848400 5.541682
101.690918 42.692200 -8.848400 4.347980
115.174225 42.692200 -8.848400 0.000000
128.657501 42.692200 -8.848400 0.000000
142.140808 42.692200 -8.848400 0.000000
155.624115 42.692200 -8.848400 0.000000
169.107422 42.692200 -8.848400 0.000000
182.590698 42.692200 -8.848400 0.000000
196.074036 42.692200 -8.848400 0.000000
209.557312 42.692200 -8.848400 0.000000
223.040588 42.692200 -8.848400 0.000000
236.523926 42.692200 -8.848400 0.000000
250.007202 42.692200 -8.848400 0.000000
263.490540 42.692200 -8.848400 0.000000
276.973816 42.692200 -8.848400 0.000000
290.457092 42.692200 -8.848400 0.000000
303.940430 42.692200 -8.848400 0.000000
317.423706 42.692200 -8.848400 0.000000
330.907043 42.692200 -8.848400 0.000000
344.390320 42.692200 -8.848400 0.000000
-343.257996 29.208893 -8.848400 0.000000
-329.774689 29.208893 -8.848400 0.000000
-316.291382 29.208893 -8.848400 0.000000
-302.808105 29.208893 -8.848400 0.000000
-289.324799 29.208893 -8.848400 0.000000
-275.841492 29.208893 -8.848400 0.000000
-262.358185 29.208893 -8.848400 0.000000
-248.874893 29.208893 -8.848400 0.000000
-235.391602 29.208893 -8.848400 0.000000
-221.908295 29.208893 -8.848400 0.000000
-208.424988 29.208893 -8.848400 0.000000
-194.941696 29.208893 -8.848400 0.000000
-181.458389 29.208893 -8.848400 0.000000
-167.975098 29.208893 -8.848400 0.000000
-154.491791 29.208893 -8.848400 0.000000
-141.008499 29.208893 -8.848400 0.000000
-127.525192 29.208893 -8.848400 7.658608
-114.041885 29.208893 -8.848400 7.385102
-100.558594 29.208893 -8.848400 7.528351
-87.075287 29.208893 -8.848400 7.433619
-73.591980 29.208893 -8.848400 7.069709
-60.108704 29.208893 -8.848400 6.855056
-46.625397 29.208893 -8.848400 6.837380
-33.142090 29.208893 -8.848400 6.988042
-19.658783 29.208893 -8.848400 7.030344
-6.175476 29.208893 -8.848400 7.018137
7.307800 29.208893 -8.848400 7.095662
20.791107 29.208893 -8.848400 6.511986
34.274414 29.208893 -8.848400 6.074925
47.757721 29.208893 -8.848400 5.536922
61.240997 29.208893 -8.848400 5.999458
74.724304 29.208893 -8.848400 5.576304
88.207611 29.208893 -8.848400 4.757741
101.690918 29.208893 -8.848400 4.130478
115.174225 29.208893 -8.848400 3.414794
128.657501 29.208893 -8.848400 0.000000
142.140808 29.208893 -8.848400 0.000000
155.624115 29.208893 -8.848400 0.000000
169.107422 29.208893 -8.848400 0.000000
182.590698 29.208893 -8.848400 0.000000
196.074036 29.208893 -8.848400 0.000000
209.557312 29.208893 -8.848400 0.000000
223.040588 29.208893 -8.848400 0.000000
236.523926 29.208893 -8.848400 0.000000
250.007202 29.208893 -8.848400 0.000000
263.490540 29.208893 -8.848400 0.000000
276.973816 29.208893 -8.848400 0.000000
290.457092 29.208893 -8.848400 0.000000
303.940430 29.208893 -8.848400 0.000000
317.423706 29.208893 -8.848400 0.000000
330.907043 29.208893 -8.848400 0.000000
344.390320 29.208893 -8.848400 0.000000
-343.257996 15.725586 -8.848400 0.000000
-329.774689 15.725586 -8.848400 0.000000
-316.291382 15.725586 -8.848400 0.000000
-302.808105 15.725586 -8.848400 0.000000
-289.324799 15.725586 -8.848400 0.000000
-275.841492 15.725586 -8.848400 0.000000
-262.358185 15.725586 -8.848400 0.000000
-248.874893 15.725586 -8.848400 0.000000
-235.391602 15.725586 -8.848400 0.000000
-221.908295 15.725586 -8.848400 0.000000
-208.424988 15.725586 -8.848400 0.000000
-194.941696 15.725586 -8.848400 0.000000
-181.458389 15.725586 -8.848400 0.000000
-167.975098 15.725586 -8.848400 0.000000
-154.491791 15.725586 -8.848400 0.000000
-141.008499 15.725586 -8.848400 0.000000
-127.525192 15.725586 -8.848400 8.160936
-114.041885 15.725586 -8.848400 7.686837
-100.558594 15.725586 -8.848400 7.630800
-87.075287 15.725586 -8.848400 6.844214
-73.591980 15.725586 -8.848400 7.248068
-60.108704 15.725586 -8.848400 6.922575
-46.625397 15.725586 -8.848400 6.925165
-33.142090 15.725586 -8.848400 6.872647
-19.658783 15.725586 -8.848400 6.808342
-6.175476 15.725586 -8.848400 6.432518
7.307800 15.725586 -8.848400 6.454447
20.791107 15.725586 -8.848400 6.132803
34.274414 15.725586 -8.848400 5.507657
47.757721 15.725586 -8.848400 5.325963
61.240997 15.725586 -8.848400 5.601576
74.724304 15.725586 -8.848400 5.114682
88.207611 15.725586 -8.848400 4.376515
101.690918 15.725586 -8.848400 3.537452
115.174225 15.725586 -8.848400 3.201379
128.657501 15.725586 -8.848400 0.000000
142.140808 15.725586 -8.848400 0.000000
155.624115 15.725586 -8.848400 0.000000
169.107422 15.725586 -8.848400 0.000000
182.590698 15.725586 -8.848400 0.000000
196.074036 15.725586 -8.848400 0.000000
209.557312 15.725586 -8.848400 0.000000
223.040588 15.725586 -8.848400 0.000000
236.523926 15.725586 -8.848400 0.000000
250.007202 15.725586 -8.848400 0.000000
263.490540 15.725586 -8.848400 0.000000
276.973816 15.725586 -8.848400 0.000000
290.457092 15.725586 -8.848400 0.000000
303.940430 15.725586 -8.848400 0.000000
317.423706 15.725586 -8.848400 0.000000
330.907043 15.725586 -8.848400 0.000000
344.390320 15.725586 -8.848400 0.000000
-343.257996 2.242279 -8.848400 0.000000
-329.774689 2.242279 -8.848400 0.000000
-316.291382 2.242279 -8.848400 0.000000
-302.808105 2.242279 -8.848400 0.000000
-289.324799 2.242279 -8.848400 0.000000
-275.841492 2.242279 -8.848400 0.000000
-262.358185 2.242279 -8.848400 0.000000
-248.874893 2.242279 -8.848400 0.000000
-235.391602 2.242279 -8.848400 0.000000
-221.908295 2.242279 -8.848400 0.000000
-208.424988 2.242279 -8.848400 0.000000
-194.941696 2.242279 -8.848400 0.000000
-181.458389 2.242279 -8.848400 0.000000
-167.975098 2.242279 -8.848400 0.000000
-154.491791 2.242279 -8.848400 0.000000
-141.008499 2.242279 -8.848400 0.000000
-127.525192 2.242279 -8.848400 0.000000
-114.041885 2.242279 -8.848400 8.030193
-100.558594 2.242279 -8.848400 7.570763
-87.075287 2.242279 -8.848400 7.248199
-73.591980 2.242279 -8.848400 7.229986
-60.108704 2.242279 -8.848400 6.973283
-46.625397 2.242279 -8.848400 7.044948
-33.142090 2.242279 -8.848400 6.355726
-19.658783 2.242279 -8.848400 6.039047
-6.175476 2.242279 -8.848400 5.864224
7.307800 2.242279 -8.848400 5.766724
20.791107 2.242279 -8.848400 5.510298
34.274414 2.242279 -8.848400 5.248931
47.757721 2.242279 -8.848400 4.767394
61.240997 2.242279 -8.848400 5.011433
74.724304 2.242279 -8.848400 4.917753
88.207611 2.242279 -8.848400 4.121940
101.690918 2.242279 -8.848400 3.300306
115.174225 2.242279 -8.848400 3.098245
128.657501 2.242279 -8.848400 0.000000
142.140808 2.242279 -8.848400 0.000000
155.624115 2.242279 -8.848400 0.000000
169.107422 2.242279 -8.848400 0.000000
182.590698 2.242279 -8.848400 0.000000
196.074036 2.242279 -8.848400 0.000000
209.557312 2.242279 -8.848400 0.000000
223.040588 2.242279 -8.848400 0.000000
236.523926 2.242279 -8.848400 0.000000
250.007202 2.242279 -8.848400 0.000000
263.490540 2.242279 -8.848400 0.000000
276.973816 2.242279 -8.848400 0.000000
290.457092 2.242279 -8.848400 0.000000
303.940430 2.242279 -8.848400 0.000000
317.423706 2.242279 -8.848400 0.000000
330.907043 2.242279 -8.848400 0.000000
344.390320 2.242279 -8.848400 0.000000
-343.257996 -11.240997 -8.848400 0.000000
-329.774689 -11.240997 -8.848400 0.000000
-316.291382 -11.240997 -8.848400 0.000000
-302.808105 -11.240997 -8.848400 0.000000
-289.324799 -11.240997 -8.848400 0.000000
-275.841492 -11.240997 -8.848400 0.000000
-262.358185 -11.240997 -8.848400 0.000000
-248.874893 -11.240997 -8.848400 0.000000
-235.391602 -11.240997 -8.848400 0.000000
-221.908295 -11.240997 -8.848400 0.000000
-208.424988 -11.240997 -8.848400 0.000000
-194.941696 -11.240997 -8.848400 0.000000
-181.458389 -11.240997 -8.848400 0.000000
-167.975098 -11.240997 -8.848400 0.000000
-154.491791 -11.240997 -8.848400 0.000000
-141.008499 -11.240997 -8.848400 0.000000
-127.525192 -11.240997 -8.848400 0.000000
-114.041885 -11.240997 -8.848400 0.000000
-100.558594 -11.240997 -8.848400 8.483912
-87.075287 -11.240997 -8.848400 7.638287
-73.591980 -11.240997 -8.848400 7.349992
-60.108704 -11.240997 -8.848400 7.217337
-46.625397 -11.240997 -8.848400 6.835276
-33.142090 -11.240997 -8.848400 6.889758
-19.658783 -11.240997 -8.848400 6.148957
-6.175476 -11.240997 -8.848400 5.881851
7.307800 -11.240997 -8.848400 5.632501
20.791107 -11.240997 -8.848400 5.142321
34.274414 -11.240997 -8.848400 4.716115
47.757721 -11.240997 -8.848400 4.646468
61.240997 -11.240997 -8.848400 4.255830
74.724304 -11.240997 -8.848400 4.312521
88.207611 -11.240997 -8.848400 3.874471
101.690918 -11.240997 -8.848400 3.378225
115.174225 -11.240997 -8.848400 0.000000
128.657501 -11.240997 -8.848400 0.000000
142.140808 -11.240997 -8.848400 0.000000
155.624115 -11.240997 -8.848400 0.000000
169.107422 -11.240997 -8.848400 0.000000
182.590698 -11.240997 -8.848400 0.000000
196.074036 -11.240997 -8.848400 0.000000
209.557312 -11.240997 -8.848400 0.000000
223.040588 -11.240997 -8.848400 0.000000
236.523926 -11.240997 -8.848400 0.000000
250.007202 -11.240997 -8.848400 0.000000
263.490540 -11.240997 -8.848400 0.000000
276.973816 -11.240997 -8.848400 0.000000
290.457092 -11.240997 -8.848400 0.000000
303.940430 -11.240997 -8.848400 0.000000
317.423706 -11.240997 -8.848400 0.000000
330.907043 -11.240997 -8.848400 0.000000
344.390320 -11.240997 -8.848400 0.000000
-343.257996 -24.724304 -8.848400 0.000000
-329.774689 -24.724304 -8.848400 0.000000
-316.291382 -24.724304 -8.848400 0.000000
-302.808105 -24.724304 -8.848400 0.000000
-289.324799 -24.724304 -8.848400 0.000000
-275.841492 -24.724304 -8.848400 0.000000
-262.358185 -24.724304 -8.848400 0.000000
-248.874893 -24.724304 -8.848400 0.000000
-235.391602 -24.724304 -8.848400 0.000000
-221.908295 -24.724304 -8.848400 0.000000
-208.424988 -24.724304 -8.848400 0.000000
-194.941696 -24.724304 -8.848400 0.000000
-181.458389 -24.724304 -8.848400 0.000000
-167.975098 -24.724304 -8.848400 0.000000
-154.491791 -24.724304 -8.848400 0.000000
-141.008499 -24.724304 -8.848400 0.000000
-127.525192 -24.724304 -8.848400 0.000000
-114.041885 -24.724304 -8.848400 0.000000
-100.558594 -24.724304 -8.848400 8.795115
-87.075287 -24.724304 -8.848400 8.498715
-73.591980 -24.724304 -8.848400 7.941836
-60.108704 -24.724304 -8.848400 7.722917
-46.625397 -24.724304 -8.848400 6.482600
-33.142090 -24.724304 -8.848400 7.089839
-19.658783 -24.724304 -8.848400 6.365231
-6.175476 -24.724304 -8.848400 5.709126
7.307800 -24.724304 -8.848400 5.529602
20.791107 -24.724304 -8.848400 4.961902
34.274414 -24.724304 -8.848400 4.773956
47.757721 -24.724304 -8.848400 4.685964
61.240997 -24.724304 -8.848400 4.450547
74.724304 -24.724304 -8.848400 4.387193
88.207611 -24.724304 -8.848400 3.523373
101.690918 -24.724304 -8.848400 3.121995
115.174225 -24.724304 -8.848400 0.000000
128.657501 -24.724304 -8.848400 0.000000
142.140808 -24.724304 -8.848400 0.000000
155.624115 -24.724304 -8.848400 0.000000
169.107422 -24.724304 -8.848400 0.000000
182.590698 -24.724304 -8.848400 0.000000
196.074036 -24.724304 -8.848400 0.000000
209.557312 -24.724304 -8.848400 0.000000
223.040588 -24.724304 -8.848400 0.000000
236.523926 -24.724304 -8.848400 0.000000
250.007202 -24.724304 -8.848400 0.000000
263.490540 -24.724304 -8.848400 0.000000
276.973816 -24.724304 -8.848400 0.000000
290.457092 -24.724304 -8.848400 0.000000
303.940430 -24.724304 -8.848400 0.000000
317.423706 -24.724304 -8.848400 0.000000
330.907043 -24.724304 -8.848400 0.000000
344.390320 -24.724304 -8.848400 0.000000
-343.257996 -38.207611 -8.848400 0.000000
-329.774689 -38.207611 -8.848400 0.000000
-316.291382 -38.207611 -8.848400 0.000000
-302.808105 -38.207611 -8.848400 0.000000
-289.324799 -38.207611 -8.848400 0.000000
-275.841492 -38.207611 -8.848400 0.000000
-262.358185 -38.207611 -8.848400 0.000000
-248.874893 -38.207611 -8.848400 0.000000
-235.391602 -38.207611 -8.848400 0.000000
-221.908295 -38.207611 -8.848400 0.000000
-208.424988 -38.207611 -8.848400 0.000000
-194.941696 -38.207611 -8.848400 0.000000
-181.458389 -38.207611 -8.848400 0.000000
-167.975098 -38.207611 -8.848400 0.000000
-154.491791 -38.207611 -8.848400 0.000000
-141.008499 -38.207611 -8.848400 0.000000
-127.525192 -38.207611 -8.848400 0.000000
-114.041885 -38.207611 -8.848400 0.000000
-100.558594 -38.207611 -8.848400 8.845462
-87.075287 -38.207611 -8.848400 8.850121
-73.591980 -38.207611 -8.848400 7.891008
-60.108704 -38.207611 -8.848400 7.349568
-46.625397 -38.207611 -8.848400 6.585537
-33.142090 -38.207611 -8.848400 5.778938
-19.658783 -38.207611 -8.848400 5.321876
-6.175476 -38.207611 -8.848400 5.407072
7.307800 -38.207611 -8.848400 5.198164
20.791107 -38.207611 -8.848400 4.836708
34.274414 -38.207611 -8.848400 4.474907
47.757721 -38.207611 -8.848400 4.276239
61.240997 -38.207611 -8.848400 3.869850
74.724304 -38.207611 -8.848400 3.497430
88.207611 -38.207611 -8.848400 3.364882
101.690918 -38.207611 -8.848400 0.000000
115.174225 -38.207611 -8.848400 0.000000
128.657501 -38.207611 -8.848400 0.000000
142.140808 -38.207611 -8.848400 0.000000
155.624115 -38.207611 -8.848400 0.000000
169.107422 -38.207611 -8.848400 0.000000
182.590698 -38.207611 -8.848400 0.000000
196.074036 -38.207611 -8.848400 0.000000
209.557312 -38.207611 -8.848400 0.000000
223.040588 -38.207611 -8.848400 0.000000
236.523926 -38.207611 -8.848400 0.000000
250.007202 -38.207611 -8.848400 0.000000
263.490540 -38.207611 -8.848400 0.000000
276.973816 -38.207611 -8.848400 0.000000
290.457092 -38.207611 -8.848400 0.000000
303.940430 -38.207611 -8.848400 0.000000
317.423706 -38.207611 -8.848400 0.000000
330.907043 -38.207611 -8.848400 0.000000
344.390320 -38.207611 -8.848400 0.000000
-343.257996 -51.690918 -8.848400 0.000000
-329.774689 -51.690918 -8.848400 0.000000
-316.291382 -51.690918 -8.848400 0.000000
-302.808105 -51.690918 -8.848400 0.000000
-289.324799 -51.690918 -8.848400 0.000000
-275.841492 -51.690918 -8.848400 0.000000
-262.358185 -51.690918 -8.848400 0.000000
-248.874893 -51.690918 -8.848400 0.000000
-235.391602 -51.690918 -8.848400 0.000000
-221.908295 -51.690918 -8.848400 0.000000
-208.424988 -51.690918 -8.848400 0.000000
-194.941696 -51.690918 -8.848400 0.000000
-181.458389 -51.690918 -8.848400 0.000000
-167.975098 -51.690918 -8.848400 0.000000
-154.491791 -51.690918 -8.848400 0.000000
-141.008499 -51.690918 -8.848400 0.000000
-127.525192 -51.690918 -8.848400 0.000000
-114.041885 -51.690918 -8.848400 0.000000
-100.558594 -51.690918 -8.848400 0.000000
-87.075287 -51.690918 -8.848400 8.120638
-73.591980 -51.690918 -8.848400 8.260246
-60.108704 -51.690918 -8.848400 7.480488
-46.625397 -51.690918 -8.848400 6.330126
-33.142090 -51.690918 -8.848400 5.232853
-19.658783 -51.690918 -8.848400 5.218411
-6.175476 -51.690918 -8.848400 5.129818
7.307800 -51.690918 -8.848400 4.619957
20.791107 -51.690918 -8.848400 4.244303
34.274414 -51.690918 -8.848400 4.269985
47.757721 -51.690918 -8.848400 3.870211
61.240997 -51.690918 -8.848400 3.546012
74.724304 -51.690918 -8.848400 3.277540
88.207611 -51.690918 -8.848400 0.000000
101.690918 -51.690918 -8.848400 0.000000
115.174225 -51.690918 -8.848400 0.000000
128.657501 -51.690918 -8.848400 0.000000
142.140808 -51.690918 -8.848400 0.000000
155.624115 -51.690918 -8.848400 0.000000
169.107422 -51.690918 -8.848400 0.000000
182.590698 -51.690918 -8.848400 0.000000
196.074036 -51.690918 -8.848400 0.000000
209.557312 -51.690918 -8.848400 0.000000
223.040588 -51.690918 -8.848400 0.000000
236.523926 -51.690918 -8.848400 0.000000
250.007202 -51.690918 -8.848400 0.000000
263.490540 -51.690918 -8.848400 0.000000
276.973816 -51.690918 -8.848400 0.000000
290.457092 -51.690918 -8.848400 0.000000
303.940430 -51.690918 -8.848400 0.000000
317.423706 -51.690918 -8.848400 0.000000
330.907043 -51.690918 -8.848400 0.000000
344.390320 -51.690918 -8.848400 0.000000
-343.257996 -65.174225 -8.848400 0.000000
-329.774689 -65.174225 -8.848400 0.000000
-316.291382 -65.174225 -8.848400 0.000000
-302.808105 -65.174225 -8.848400 0.000000
-289.324799 -65.174225 -8.848400 0.000000
-275.841492 -65.174225 -8.848400 0.000000
-262.358185 -65.174225 -8.848400 0.000000
-248.874893 -65.174225 -8.848400 0.000000
-235.391602 -65.174225 -8.848400 0.000000
-221.908295 -65.174225 -8.848400 0.000000
-208.424988 -65.174225 -8.848400 0.000000
-194.941696 -65.174225 -8.848400 0.000000
-181.458389 -65.174225 -8.848400 0.000000
-167.975098 -65.174225 -8.848400 0.000000
-154.491791 -65.174225 -8.848400 0.000000
-141.008499 -65.174225 -8.848400 0.000000
-127.525192 -65.174225 -8.848400 0.000000
-114.041885 -65.174225 -8.848400 0.000000
-100.558594 -65.174225 -8.848400 0.000000
-87.075287 -65.174225 -8.848400 7.261903
-73.591980 -65.174225 -8.848400 7.136394
-60.108704 -65.174225 -8.848400 6.747886
-46.625397 -65.174225 -8.848400 5.840557
-33.142090 -65.174225 -8.848400 5.244402
-19.658783 -65.174225 -8.848400 5.173942
-6.175476 -65.174225 -8.848400 4.911816
7.307800 -65.174225 -8.848400 4.398453
20.791107 -65.174225 -8.848400 4.285738
34.274414 -65.174225 -8.848400 3.872299
47.757721 -65.174225 -8.848400 3.687358
61.240997 -65.174225 -8.848400 0.000000
74.724304 -65.174225 -8.848400 0.000000
88.207611 -65.174225 -8.848400 0.000000
101.690918 -65.174225 -8.848400 0.000000
115.174225 -65.174225 -8.848400 0.000000
128.657501 -65.174225 -8.848400 0.000000
142.140808 -65.174225 -8.848400 0.000000
155.624115 -65.174225 -8.848400 0.000000
169.107422 -65.174225 -8.848400 0.000000
182.590698 -65.174225 -8.848400 0.000000
196.074036 -65.174225 -8.848400 0.000000
209.557312 -65.174225 -8.848400 0.000000
223.040588 -65.174225 -8.848400 0.000000
236.523926 -65.174225 -8.848400 0.000000
250.007202 -65.174225 -8.848400 0.000000
263.490540 -65.174225 -8.848400 0.000000
276.973816 -65.174225 -8.848400 0.000000
290.457092 -65.174225 -8.848400 0.000000
303.940430 -65.174225 -8.848400 0.000000
317.423706 -65.174225 -8.848400 0.000000
330.907043 -65.174225 -8.848400 0.000000
344.390320 -65.174225 -8.848400 0.000000
-343.257996 -78.657501 -8.848400 0.000000
-329.774689 -78.657501 -8.848400 0.000000
-316.291382 -78.657501 -8.848400 0.000000
-302.808105 -78.657501 -8.848400 0.000000
-289.324799 -78.657501 -8.848400 0.000000
-275.841492 -78.657501 -8.848400 0.000000
-262.358185 -78.657501 -8.848400 0.000000
-248.874893 -78.657501 -8.848400 0.000000
-235.391602 -78.657501 -8.848400 0.000000
-221.908295 -78.657501 -8.848400 0.000000
-208.424988 -78.657501 -8.848400 0.000000
-194.941696 -78.657501 -8.848400 0.000000
-181.458389 -78.657501 -8.848400 0.000000
-167.975098 -78.657501 -8.848400 0.000000
-154.491791 -78.657501 -8.848400 0.000000
-141.008499 -78.657501 -8.848400 0.000000
-127.525192 -78.657501 -8.848400 0.000000
-114.041885 -78.657501 -8.848400 0.000000
-100.558594 -78.657501 -8.848400 0.000000
-87.075287 -78.657501 -8.848400 0.000000
-73.591980 -78.657501 -8.848400 6.956495
-60.108704 -78.657501 -8.848400 6.146071
-46.625397 -78.657501 -8.848400 5.370658
-33.142090 -78.657501 -8.848400 5.035794
-19.658783 -78.657501 -8.848400 4.815849
-6.175476 -78.657501 -8.848400 5.020494
7.307800 -78.657501 -8.848400 4.604598
20.791107 -78.657501 -8.848400 4.048338
34.274414 -78.657501 -8.848400 3.990806
47.757721 -78.657501 -8.848400 0.000000
61.240997 -78.657501 -8.848400 0.000000
74.724304 -78.657501 -8.848400 0.000000
88.207611 -78.657501 -8.848400 0.000000
101.690918 -78.657501 -8.848400 0.000000
115.174225 -78.657501 -8.848400 0.000000
128.657501 -78.657501 -8.848400 0.000000
142.140808 -78.657501 -8.848400 0.000000
155.624115 -78.657501 -8.848400 0.000000
169.107422 -78.657501 -8.848400 0.000000
182.590698 -78.657501 -8.848400 0.000000
196.074036 -78.657501 -8.848400 0.000000
209.557312 -78.657501 -8.848400 0.000000
223.040588 -78.657501 -8.848400 0.000000
236.523926 -78.657501 -8.848400 0.000000
250.007202 -78.657501 -8.848400 0.000000
263.490540 -78.657501 -8.848400 0.000000
276.973816 -78.657501 -8.848400 0.000000
290.457092 -78.657501 -8.848400 0.000000
303.940430 -78.657501 -8.848400 0.000000
317.423706 -78.657501 -8.848400 0.000000
330.907043 -78.657501 -8.848400 0.000000
344.390320 -78.657501 -8.848400 0.000000
-343.257996 -92.140808 -8.848400 0.000000
-329.774689 -92.140808 -8.848400 0.000000
-316.291382 -92.140808 -8.848400 0.000000
-302.808105 -92.140808 -8.848400 0.000000
-289.324799 -92.140808 -8.848400 0.000000
-275.841492 -92.140808 -8.848400 0.000000
-262.358185 -92.140808 -8.848400 0.000000
-248.874893 -92.140808 -8.848400 0.000000
-235.391602 -92.140808 -8.848400 0.000000
-221.908295 -92.140808 -8.848400 0.000000
-208.424988 -92.140808 -8.848400 0.000000
-194.941696 -92.140808 -8.848400 0.000000
-181.458389 -92.140808 -8.848400 0.000000
-167.975098 -92.140808 -8.848400 0.000000
-154.491791 -92.140808 -8.848400 0.000000
-141.008499 -92.140808 -8.848400 0.000000
-127.525192 -92.140808 -8.848400 0.000000
-114.041885 -92.140808 -8.848400 0.000000
-100.558594 -92.140808 -8.848400 0.000000
-87.075287 -92.140808 -8.848400 0.000000
-73.591980 -92.140808 -8.848400 6.823272
-60.108704 -92.140808 -8.848400 5.988155
-46.625397 -92.140808 -8.848400 6.013118
-33.142090 -92.140808 -8.848400 5.112039
-19.658783 -92.140808 -8.848400 4.890697
-6.175476 -92.140808 -8.848400 5.004187
7.307800 -92.140808 -8.848400 0.000000
20.791107 -92.140808 -8.848400 0.000000
34.274414 -92.140808 -8.848400 0.000000
47.757721 -92.140808 -8.848400 0.000000
61.240997 -92.140808 -8.848400 0.000000
74.724304 -92.140808 -8.848400 0.000000
88.207611 -92.140808 -8.848400 0.000000
101.690918 -92.140808 -8.848400 0.000000
115.174225 -92.140808 -8.848400 0.000000
128.657501 -92.140808 -8.848400 0.000000
142.140808 -92.140808 -8.848400 0.000000
155.624115 -92.140808 -8.848400 0.000000
169.107422 -92.140808 -8.848400 0.000000
182.590698 -92.140808 -8.848400 0.000000
196.074036 -92.140808 -8.848400 0.000000
209.557312 -92.140808 -8.848400 0.000000
223.040588 -92.140808 -8.848400 0.000000
236.523926 -92.140808 -8.848400 0.000000
250.007202 -92.140808 -8.848400 0.000000
263.490540 -92.140808 -8.848400 0.000000
276.973816 -92.140808 -8.848400 0.000000
290.457092 -92.140808 -8.848400 0.000000
303.940430 -92.140808 -8.848400 0.000000
317.423706 -92.140808 -8.848400 0.000000
330.907043 -92.140808 -8.848400 0.000000
344.390320 -92.140808 -8.848400 0.000000
-343.257996 -105.624115 -8.848400 0.000000
-329.774689 -105.624115 -8.848400 0.000000
-316.291382 -105.624115 -8.848400 0.000000
-302.808105 -105.624115 -8.848400 0.000000
-289.324799 -105.624115 -8.848400 0.000000
-275.841492 -105.624115 -8.848400 0.000000
-262.358185 -105.624115 -8.848400 0.000000
-248.874893 -105.624115 -8.848400 0.000000
-235.391602 -105.624115 -8.848400 0.000000
-221.908295 -105.624115 -8.848400 0.000000
-208.424988 -105.624115 -8.848400 0.000000
-194.941696 -105.624115 -8.848400 0.000000
-181.458389 -105.624115 -8.848400 0.000000
-167.975098 -105.624115 -8.848400 0.000000
-154.491791 -105.624115 -8.848400 0.000000
-141.008499 -105.624115 -8.848400 0.000000
-127.525192 -105.624115 -8.848400 0.000000
-114.041885 -105.624115 -8.848400 0.000000
-100.558594 -105.624115 -8.848400 0.000000
-87.075287 -105.624115 -8.848400 0.000000
-73.591980 -105.624115 -8.848400 0.000000
-60.108704 -105.624115 -8.848400 0.000000
-46.625397 -105.624115 -8.848400 0.000000
-33.142090 -105.624115 -8.848400 0.000000
-19.658783 -105.624115 -8.848400 0.000000
-6.175476 -105.624115 -8.848400 0.000000
7.307800 -105.624115 -8.848400 0.000000
20.791107 -105.624115 -8.848400 0.000000
34.274414 -105.624115 -8.848400 0.000000
47.757721 -105.624115 -8.848400 0.000000
61.240997 -105.624115 -8.848400 0.000000
74.724304 -105.624115 -8.848400 0.000000
88.207611 -105.624115 -8.848400 0.000000
101.690918 -105.624115 -8.848400 0.000000
115.174225 -105.624115 -8.848400 0.000000
128.657501 -105.624115 -8.848400 0.000000
142.140808 -105.624115 -8.848400 0.000000
155.624115 -105.624115 -8.848400 0.000000
169.107422 -105.624115 -8.848400 0.000000
182.590698 -105.624115 -8.848400 0.000000
196.074036 -105.624115 -8.848400 0.000000
209.557312 -105.624115 -8.848400 0.000000
223.040588 -105.624115 -8.848400 0.000000
236.523926 -105.624115 -8.848400 0.000000
250.007202 -105.624115 -8.848400 0.000000
263.490540 -105.624115 -8.848400 0.000000
276.973816 -105.624115 -8.848400 0.000000
290.457092 -105.624115 -8.848400 0.000000
303.940430 -105.624115 -8.848400 0.000000
317.423706 -105.624115 -8.848400 0.000000
330.907043 -105.624115 -8.848400 0.000000
344.390320 -105.624115 -8.848400 0.000000
-343.257996 -119.107422 -8.848400 0.000000
-329.774689 -119.107422 -8.848400 0.000000
-316.291382 -119.107422 -8.848400 0.000000
-302.808105 -119.107422 -8.848400 0.000000
-289.324799 -119.107422 -8.848400 0.000000
-275.841492 -119.107422 -8.848400 0.000000
-262.358185 -119.107422 -8.848400 0.000000
-248.874893 -119.107422 -8.848400 0.000000
-235.391602 -119.107422 -8.848400 0.000000
-221.908295 -119.107422 -8.848400 0.000000
-208.424988 -119.107422 -8.848400 0.000000
-194.941696 -119.107422 -8.848400 0.000000
-181.458389 -119.107422 -8.848400 0.000000
-167.975098 -119.107422 -8.848400 0.000000
-154.491791 -119.107422 -8.848400 0.000000
-141.008499 -119.107422 -8.848400 0.000000
-127.525192 -119.107422 -8.848400 0.000000
-114.041885 -119.107422 -8.848400 0.000000
-100.558594 -119.107422 -8.848400 0.000000
-87.075287 -119.107422 -8.848400 0.000000
-73.591980 -119.107422 -8.848400 0.000000
-60.108704 -119.107422 -8.848400 0.000000
-46.625397 -119.107422 -8.848400 0.000000
-33.142090 -119.107422 -8.848400 0.000000
-19.658783 -119.107422 -8.848400 0.000000
-6.175476 -119.107422 -8.848400 0.000000
7.307800 -119.107422 -8.848400 0.000000
20.791107 -119.107422 -8.848400 0.000000
34.274414 -119.107422 -8.848400 0.000000
47.757721 -119.107422 -8.848400 0.000000
61.240997 -119.107422 -8.848400 0.000000
74.724304 -119.107422 -8.848400 0.000000
88.207611 -119.107422 -8.848400 0.000000
101.690918 -119.107422 -8.848400 0.000000
115.174225 -119.107422 -8.848400 0.000000
128.657501 -119.107422 -8.848400 0.000000
142.140808 -119.107422 -8.848400 0.000000
155.624115 -119.107422 -8.848400 0.000000
169.107422 -119.107422 -8.848400 0.000000
182.590698 -119.107422 -8.848400 0.000000
196.074036 -119.107422 -8.848400 0.000000
209.557312 -119.107422 -8.848400 0.000000
223.040588 -119.107422 -8.848400 0.000000
236.523926 -119.107422 -8.848400 0.000000
250.007202 -119.107422 -8.848400 0.000000
263.490540 -119.107422 -8.848400 0.000000
276.973816 -119.107422 -8.848400 0.000000
290.457092 -119.107422 -8.848400 0.000000
303.940430 -119.107422 -8.848400 0.000000
317.423706 -119.107422 -8.848400 0.000000
330.907043 -119.107422 -8.848400 0.000000
344.390320 -119.107422 -8.848400 0.000000
-343.257996 -132.590698 -8.848400 0.000000
-329.774689 -132.590698 -8.848400 0.000000
-316.291382 -132.590698 -8.848400 0.000000
-302.808105 -132.590698 -8.848400 0.000000
-289.324799 -132.590698 -8.848400 0.000000
-275.841492 -132.590698 -8.848400 0.000000
-262.358185 -132.590698 -8.848400 0.000000
-248.874893 -132.590698 -8.848400 0.000000
-235.391602 -132.590698 -8.848400 0.000000
-221.908295 -132.590698 -8.848400 0.000000
-208.424988 -132.590698 -8.848400 0.000000
-194.941696 -132.590698 -8.848400 0.000000
-181.458389 -132.590698 -8.848400 0.000000
-167.975098 -132.590698 -8.848400 0.000000
-154.491791 -132.590698 -8.848400 0.000000
-141.008499 -132.590698 -8.848400 0.000000
-127.525192 -132.590698 -8.848400 0.000000
-114.041885 -132.590698 -8.848400 0.000000
-100.558594 -132.590698 -8.848400 0.000000
-87.075287 -132.590698 -8.848400 0.000000
-73.591980 -132.590698 -8.848400 0.000000
-60.108704 -132.590698 -8.848400 0.000000
-46.625397 -132.590698 -8.848400 0.000000
-33.142090 -132.590698 -8.848400 0.000000
-19.658783 -132.590698 -8.848400 0.000000
-6.175476 -132.590698 -8.848400 0.000000
7.307800 -132.590698 -8.848400 0.000000
20.791107 -132.590698 -8.848400 0.000000
34.274414 -132.590698 -8.848400 0.000000
47.757721 -132.590698 -8.848400 0.000000
61.240997 -132.590698 -8.848400 0.000000
74.724304 -132.590698 -8.848400 0.000000
88.207611 -132.590698 -8.848400 0.000000
101.690918 -132.590698 -8.848400 0.000000
115.174225 -132.590698 -8.848400 0.000000
128.657501 -132.590698 -8.848400 0.000000
142.140808 -132.590698 -8.848400 0.000000
155.624115 -132.590698 -8.848400 0.000000
169.107422 -132.590698 -8.848400 0.000000
182.590698 -132.590698 -8.848400 0.000000
196.074036 -132.590698 -8.848400 0.000000
209.557312 -132.590698 -8.848400 0.000000
223.040588 -132.590698 -8.848400 0.000000
236.523926 -132.590698 -8.848400 0.000000
250.007202 -132.590698 -8.848400 0.000000
263.490540 -132.590698 -8.848400 0.000000
276.973816 -132.590698 -8.848400 0.000000
290.457092 -132.590698 -8.848400 0.000000
303.940430 -132.590698 -8.848400 0.000000
317.423706 -132.590698 -8.848400 0.000000
330.907043 -132.590698 -8.848400 0.000000
344.390320 -132.590698 -8.848400 0.000000
-343.257996 -146.074036 -8.848400 0.000000
-329.774689 -146.074036 -8.848400 0.000000
-316.291382 -146.074036 -8.848400 0.000000
-302.808105 -146.074036 -8.848400 0.000000
-289.324799 -146.074036 -8.848400 0.000000
-275.841492 -146.074036 -8.848400 0.000000
-262.358185 -146.074036 -8.848400 0.000000
-248.874893 -146.074036 -8.848400 0.000000
-235.391602 -146.074036 -8.848400 0.000000
-221.908295 -146.074036 -8.848400 0.000000
-208.424988 -146.074036 -8.848400 0.000000
-194.941696 -146.074036 -8.848400 0.000000
-181.458389 -146.074036 -8.848400 0.000000
-167.975098 -146.074036 -8.848400 0.000000
-154.491791 -146.074036 -8.848400 0.000000
-141.008499 -146.074036 -8.848400 0.000000
-127.525192 -146.074036 -8.848400 0.000000
-114.041885 -146.074036 -8.848400 0.000000
-100.558594 -146.074036 -8.848400 0.000000
-87.075287 -146.074036 -8.848400 0.000000
-73.591980 -146.074036 -8.848400 0.000000
-60.108704 -146.074036 -8.848400 0.000000
-46.625397 -146.074036 -8.848400 0.000000
-33.142090 -146.074036 -8.848400 0.000000
-19.658783 -146.074036 -8.848400 0.000000
-6.175476 -146.074036 -8.848400 0.000000
7.307800 -146.074036 -8.848400 0.000000
20.791107 -146.074036 -8.848400 0.000000
34.274414 -146.074036 -8.848400 0.000000
47.757721 -146.074036 -8.848400 0.000000
61.240997 -146.074036 -8.848400 0.000000
74.724304 -146.074036 -8.848400 0.000000
88.207611 -146.074036 -8.848400 0.000000
101.690918 -146.074036 -8.848400 0.000000
115.174225 -146.074036 -8.848400 0.000000
128.657501 -146.074036 -8.848400 0.000000
142.140808 -146.074036 -8.848400 0.000000
155.624115 -146.074036 -8.848400 0.000000
169.107422 -146.074036 -8.848400 0.000000
182.590698 -146.074036 -8.848400 0.000000
196.074036 -146.074036 -8.848400 0.000000
209.557312 -146.074036 -8.848400 0.000000
223.040588 -146.074036 -8.848400 0.000000
236.523926 -146.074036 -8.848400 0.000000
250.007202 -146.074036 -8.848400 0.000000
263.490540 -146.074036 -8.848400 0.000000
276.973816 -146.074036 -8.848400 0.000000
290.457092 -146.074036 -8.848400 0.000000
303.940430 -146.074036 -8.848400 0.000000
317.423706 -146.074036 -8.848400 0.000000
330.907043 -146.074036 -8.848400 0.000000
344.390320 -146.074036 -8.848400 0.000000
-343.257996 -159.557312 -8.848400 0.000000
-329.774689 -159.557312 -8.848400 0.000000
-316.291382 -159.557312 -8.848400 0.000000
-302.808105 -159.557312 -8.848400 0.000000
-289.324799 -159.557312 -8.848400 0.000000
-275.841492 -159.557312 -8.848400 0.000000
-262.358185 -159.557312 -8.848400 0.000000
-248.874893 -159.557312 -8.848400 0.000000
-235.391602 -159.557312 -8.848400 0.000000
-221.908295 -159.557312 -8.848400 0.000000
-208.424988 -159.557312 -8.848400 0.000000
-194.941696 -159.557312 -8.848400 0.000000
-181.458389 -159.557312 -8.848400 0.000000
-167.975098 -159.557312 -8.848400 0.000000
-154.491791 -159.557312 -8.848400 0.000000
-141.008499 -159.557312 -8.848400 0.000000
-127.525192 -159.557312 -8.848400 0.000000
-114.041885 -159.557312 -8.848400 0.000000
-100.558594 -159.557312 -8.848400 0.000000
-87.075287 -159.557312 -8.848400 0.000000
-73.591980 -159.557312 -8.848400 0.000000
-60.108704 -159.557312 -8.848400 0.000000
-46.625397 -159.557312 -8.848400 0.000000
-33.142090 -159.557312 -8.848400 0.000000
-19.658783 -159.557312 -8.848400 0.000000
-6.175476 -159.557312 -8.848400 0.000000
7.307800 -159.557312 -8.848400 0.000000
20.791107 -159.557312 -8.848400 0.000000
34.274414 -159.557312 -8.848400 0.000000
47.757721 -159.557312 -8.848400 0.000000
61.240997 -159.557312 -8.848400 0.000000
74.724304 -159.557312 -8.848400 0.000000
88.207611 -159.557312 -8.848400 0.000000
101.690918 -159.557312 -8.848400 0.000000
115.174225 -159.557312 -8.848400 0.000000
128.657501 -159.557312 -8.848400 0.000000
142.140808 -159.557312 -8.848400 0.000000
155.624115 -159.557312 -8.848400 0.000000
169.107422 -159.557312 -8.848400 0.000000
182.590698 -159.557312 -8.848400 0.000000
196.074036 -159.557312 -8.848400 0.000000
209.557312 -159.557312 -8.848400 0.000000
223.040588 -159.557312 -8.848400 0.000000
236.523926 -159.557312 -8.848400 0.000000
250.007202 -159.557312 -8.848400 0.000000
263.490540 -159.557312 -8.848400 0.000000
276.973816 -159.557312 -8.848400 0.000000
290.457092 -159.557312 -8.848400 0.000000
303.940430 -159.557312 -8.848400 0.000000
317.423706 -159.557312 -8.848400 0.000000
330.907043 -159.557312 -8.848400 0.000000
344.390320 -159.557312 -8.848400 0.000000
-343.257996 -173.040588 -8.848400 0.000000
-329.774689 -173.040588 -8.848400 0.000000
-316.291382 -173.040588 -8.848400 0.000000
-302.808105 -173.040588 -8.848400 0.000000
-289.324799 -173.040588 -8.848400 0.000000
-275.841492 -173.040588 -8.848400 0.000000
-262.358185 -173.040588 -8.848400 0.000000
-248.874893 -173.040588 -8.848400 0.000000
-235.391602 -173.040588 -8.848400 0.000000
-221.908295 -173.040588 -8.848400 0.000000
-208.424988 -173.040588 -8.848400 0.000000
-194.941696 -173.040588 -8.848400 0.000000
-181.458389 -173.040588 -8.848400 0.000000
-167.975098 -173.040588 -8.848400 0.000000
-154.491791 -173.040588 -8.848400 0.000000
-141.008499 -173.040588 -8.848400 0.000000
-127.525192 -173.040588 -8.848400 0.000000
-114.041885 -173.040588 -8.848400 0.000000
-100.558594 -173.040588 -8.848400 0.000000
-87.075287 -173.040588 -8.848400 0.000000
-73.591980 -173.040588 -8.848400 0.000000
-60.108704 -173.040588 -8.848400 0.000000
-46.625397 -173.040588 -8.848400 0.000000
-33.142090 -173.040588 -8.848400 0.000000
-19.658783 -173.040588 -8.848400 0.000000
-6.175476 -173.040588 -8.848400 0.000000
7.307800 -173.040588 -8.848400 0.000000
20.791107 -173.040588 -8.848400 0.000000
34.274414 -173.040588 -8.848400 0.000000
47.757721 -173.040588 -8.848400 0.000000
61.240997 -173.040588 -8.848400 0.000000
74.724304 -173.040588 -8.848400 0.000000
88.207611 -173.040588 -8.848400 0.000000
101.690918 -173.040588 -8.848400 0.000000
115.174225 -173.040588 -8.848400 0.000000
128.657501 -173.040588 -8.848400 0.000000
142.140808 -173.040588 -8.848400 0.000000
155.624115 -173.040588 -8.848400 0.000000
169.107422 -173.040588 -8.848400 0.000000
182.590698 -173.040588 -8.848400 0.000000
196.074036 -173.040588 -8.848400 0.000000
209.557312 -173.040588 -8.848400 0.000000
223.040588 -173.040588 -8.848400 0.000000
236.523926 -173.040588 -8.848400 0.000000
250.007202 -173.040588 -8.848400 0.000000
263.490540 -173.040588 -8.848400 0.000000
276.973816 -173.040588 -8.848400 0.000000
290.457092 -173.040588 -8.848400 0.000000
303.940430 -173.040588 -8.848400 0.000000
317.423706 -173.040588 -8.848400 0.000000
330.907043 -173.040588 -8.848400 0.000000
344.390320 -173.040588 -8.848400 0.000000
-343.257996 -186.523926 -8.848400 0.000000
-329.774689 -186.523926 -8.848400 0.000000
-316.291382 -186.523926 -8.848400 0.000000
-302.808105 -186.523926 -8.848400 0.000000
-289.324799 -186.523926 -8.848400 0.000000
-275.841492 -186.523926 -8.848400 0.000000
-262.358185 -186.523926 -8.848400 0.000000
-248.874893 -186.523926 -8.848400 0.000000
-235.391602 -186.523926 -8.848400 0.000000
-221.908295 -186.523926 -8.848400 0.000000
-208.424988 -186.523926 -8.848400 0.000000
-194.941696 -186.523926 -8.848400 0.000000
-181.458389 -186.523926 -8.848400 0.000000
-167.975098 -186.523926 -8.848400 0.000000
-154.491791 -186.523926 -8.848400 0.000000
-141.008499 -186.523926 -8.848400 0.000000
-127.525192 -186.523926 -8.848400 0.000000
-114.041885 -186.523926 -8.848400 0.000000
-100.558594 -186.523926 -8.848400 0.000000
-87.075287 -186.523926 -8.848400 0.000000
-73.591980 -186.523926 -8.848400 0.000000
-60.108704 -186.523926 -8.848400 0.000000
-46.625397 -186.523926 -8.848400 0.000000
-33.142090 -186.523926 -8.848400 0.000000
-19.658783 -186.523926 -8.848400 0.000000
-6.175476 -186.523926 -8.848400 0.000000
7.307800 -186.523926 -8.848400 0.000000
20.791107 -186.523926 -8.848400 0.000000
34.274414 -186.523926 -8.848400 0.000000
47.757721 -186.523926 -8.848400 0.000000
61.240997 -186.523926 -8.848400 0.000000
74.724304 -186.523926 -8.848400 0.000000
88.207611 -186.523926 -8.848400 0.000000
101.690918 -186.523926 -8.848400 0.000000
115.174225 -186.523926 -8.848400 0.000000
128.657501 -186.523926 -8.848400 0.000000
142.140808 -186.523926 -8.848400 0.000000
155.624115 -186.523926 -8.848400 0.000000
169.107422 -186.523926 -8.848400 0.000000
182.590698 -186.523926 -8.848400 0.000000
196.074036 -186.523926 -8.848400 0.000000
209.557312 -186.523926 -8.848400 0.000000
223.040588 -186.523926 -8.848400 0.000000
236.523926 -186.523926 -8.848400 0.000000
250.007202 -186.523926 -8.848400 0.000000
263.490540 -186.523926 -8.848400 0.000000
276.973816 -186.523926 -8.848400 0.000000
290.457092 -186.523926 -8.848400 0.000000
303.940430 -186.523926 -8.848400 0.000000
317.423706 -186.523926 -8.848400 0.000000
330.907043 -186.523926 -8.848400 0.000000
344.390320 -186.523926 -8.848400 0.000000
-343.257996 -200.007202 -8.848400 0.000000
-329.774689 -200.007202 -8.848400 0.000000
-316.291382 -200.007202 -8.848400 0.000000
-302.808105 -200.007202 -8.848400 0.000000
-289.324799 -200.007202 -8.848400 0.000000
-275.841492 -200.007202 -8.848400 0.000000
-262.358185 -200.007202 -8.848400 0.000000
-248.874893 -200.007202 -8.848400 0.000000
-235.391602 -200.007202 -8.848400 0.000000
-221.908295 -200.007202 -8.848400 0.000000
-208.424988 -200.007202 -8.848400 0.000000
-194.941696 -200.007202 -8.848400 0.000000
-181.458389 -200.007202 -8.848400 0.000000
-167.975098 -200.007202 -8.848400 0.000000
-154.491791 -200.007202 -8.848400 0.000000
-141.008499 -200.007202 -8.848400 0.000000
-127.525192 -200.007202 -8.848400 0.000000
-114.041885 -200.007202 -8.848400 0.000000
-100.558594 -200.007202 -8.848400 0.000000
-87.075287 -200.007202 -8.848400 0.000000
-73.591980 -200.007202 -8.848400 0.000000
-60.108704 -200.007202 -8.848400 0.000000
-46.625397 -200.007202 -8.848400 0.000000
-33.142090 -200.007202 -8.848400 0.000000
-19.658783 -200.007202 -8.848400 0.000000
-6.175476 -200.007202 -8.848400 0.000000
7.307800 -200.007202 -8.848400 0.000000
20.791107 -200.007202 -8.848400 0.000000
34.274414 -200.007202 -8.848400 0.000000
47.757721 -200.007202 -8.848400 0.000000
61.240997 -200.007202 -8.848400 0.000000
74.724304 -200.007202 -8.848400 0.000000
88.207611 -200.007202 -8.848400 0.000000
101.690918 -200.007202 -8.848400 0.000000
115.174225 -200.007202 -8.848400 0.000000
128.657501 -200.007202 -8.848400 0.000000
142.140808 -200.007202 -8.848400 0.000000
155.624115 -200.007202 -8.848400 0.000000
169.107422 -200.007202 -8.848400 0.000000
182.590698 -200.007202 -8.848400 0.000000
196.074036 -200.007202 -8.848400 0.000000
209.557312 -200.007202 -8.848400 0.000000
223.040588 -200.007202 -8.848400 0.000000
236.523926 -200.007202 -8.848400 0.000000
250.007202 -200.007202 -8.848400 0.000000
263.490540 -200.007202 -8.848400 0.000000
276.973816 -200.007202 -8.848400 0.000000
290.457092 -200.007202 -8.848400 0.000000
303.940430 -200.007202 -8.848400 0.000000
317.423706 -200.007202 -8.848400 0.000000
330.907043 -200.007202 -8.848400 0.000000
344.390320 -200.007202 -8.848400 0.000000
