TITLE = "B00002"
VARIABLES = "X", "Y", "Z", "Reynold stress XZ"
ZONE T="Frame 1" I=52, J=45, K=4, F=POINT
-343.257996 393.257996 -49.298302 0.000000
-329.774689 393.257996 -49.298302 0.000000
-316.291382 393.257996 -49.298302 0.000000
-302.808105 393.257996 -49.298302 0.000000
-289.324799 393.257996 -49.298302 0.000000
-275.841492 393.257996 -49.298302 0.000000
-262.358185 393.257996 -49.298302 0.000000
-248.874893 393.257996 -49.298302 0.000000
-235.391602 393.257996 -49.298302 0.000000
-221.908295 393.257996 -49.298302 0.000000
-208.424988 393.257996 -49.298302 0.000000
-194.941696 393.257996 -49.298302 0.000000
-181.458389 393.257996 -49.298302 0.000000
-167.975098 393.257996 -49.298302 0.000000
-154.491791 393.257996 -49.298302 0.000000
-141.008499 393.257996 -49.298302 0.000000
-127.525192 393.257996 -49.298302 0.000000
-114.041885 393.257996 -49.298302 0.000000
-100.558594 393.257996 -49.298302 0.000000
-87.075287 393.257996 -49.298302 0.000000
-73.591980 393.257996 -49.298302 0.000000
-60.108704 393.257996 -49.298302 0.000000
-46.625397 393.257996 -49.298302 0.000000
-33.142090 393.257996 -49.298302 0.000000
-19.658783 393.257996 -49.298302 0.000000
-6.175476 393.257996 -49.298302 0.000000
7.307800 393.257996 -49.298302 0.000000
20.791107 393.257996 -49.298302 0.000000
34.274414 393.257996 -49.298302 0.000000
47.757721 393.257996 -49.298302 0.000000
61.240997 393.257996 -49.298302 0.000000
74.724304 393.257996 -49.298302 0.000000
88.207611 393.257996 -49.298302 0.000000
101.690918 393.257996 -49.298302 0.000000
115.174225 393.257996 -49.298302 0.000000
128.657501 393.257996 -49.298302 0.000000
142.140808 393.257996 -49.298302 0.000000
155.624115 393.257996 -49.298302 0.000000
169.107422 393.257996 -49.298302 0.000000
182.590698 393.257996 -49.298302 0.000000
196.074036 393.257996 -49.298302 0.000000
209.557312 393.257996 -49.298302 0.000000
223.040588 393.257996 -49.298302 0.000000
236.523926 393.257996 -49.298302 0.000000
250.007202 393.257996 -49.298302 0.000000
263.490540 393.257996 -49.298302 0.000000
276.973816 393.257996 -49.298302 0.000000
290.457092 393.257996 -49.298302 0.000000
303.940430 393.257996 -49.298302 0.000000
317.423706 393.257996 -49.298302 0.000000
330.907043 393.257996 -49.298302 0.000000
344.390320 393.257996 -49.298302 0.000000
-343.257996 379.774689 -49.298302 0.000000
-329.774689 379.774689 -49.298302 0.000000
-316.291382 379.774689 -49.298302 0.000000
-302.808105 379.774689 -49.298302 0.000000
-289.324799 379.774689 -49.298302 0.000000
-275.841492 379.774689 -49.298302 0.000000
-262.358185 379.774689 -49.298302 0.000000
-248.874893 379.774689 -49.298302 0.000000
-235.391602 379.774689 -49.298302 0.000000
-221.908295 379.774689 -49.298302 0.000000
-208.424988 379.774689 -49.298302 0.000000
-194.941696 379.774689 -49.298302 0.000000
-181.458389 379.774689 -49.298302 0.000000
-167.975098 379.774689 -49.298302 0.000000
-154.491791 379.774689 -49.298302 0.000000
-141.008499 379.774689 -49.298302 0.000000
-127.525192 379.774689 -49.298302 0.000000
-114.041885 379.774689 -49.298302 0.000000
-100.558594 379.774689 -49.298302 0.000000
-87.075287 379.774689 -49.298302 0.000000
-73.591980 379.774689 -49.298302 0.000000
-60.108704 379.774689 -49.298302 0.000000
-46.625397 379.774689 -49.298302 0.000000
-33.142090 379.774689 -49.298302 0.000000
-19.658783 379.774689 -49.298302 0.000000
-6.175476 379.774689 -49.298302 0.000000
7.307800 379.774689 -49.298302 0.000000
20.791107 379.774689 -49.298302 0.000000
34.274414 379.774689 -49.298302 0.000000
47.757721 379.774689 -49.298302 0.000000
61.240997 379.774689 -49.298302 0.000000
74.724304 379.774689 -49.298302 0.000000
88.207611 379.774689 -49.298302 0.000000
101.690918 379.774689 -49.298302 0.000000
115.174225 379.774689 -49.298302 0.000000
128.657501 379.774689 -49.298302 0.000000
142.140808 379.774689 -49.298302 0.000000
155.624115 379.774689 -49.298302 0.000000
169.107422 379.774689 -49.298302 0.000000
182.590698 379.774689 -49.298302 0.000000
196.074036 379.774689 -49.298302 0.000000
209.557312 379.774689 -49.298302 0.000000
223.040588 379.774689 -49.298302 0.000000
236.523926 379.774689 -49.298302 0.000000
250.007202 379.774689 -49.298302 0.000000
263.490540 379.774689 -49.298302 0.000000
276.973816 379.774689 -49.298302 0.000000
290.457092 379.774689 -49.298302 0.000000
303.940430 379.774689 -49.298302 0.000000
317.423706 379.774689 -49.298302 0.000000
330.907043 379.774689 -49.298302 0.000000
344.390320 379.774689 -49.298302 0.000000
-343.257996 366.291382 -49.298302 0.000000
-329.774689 366.291382 -49.298302 0.000000
-316.291382 366.291382 -49.298302 0.000000
-302.808105 366.291382 -49.298302 0.000000
-289.324799 366.291382 -49.298302 0.000000
-275.841492 366.291382 -49.298302 0.000000
-262.358185 366.291382 -49.298302 0.000000
-248.874893 366.291382 -49.298302 0.000000
-235.391602 366.291382 -49.298302 0.000000
-221.908295 366.291382 -49.298302 0.000000
-208.424988 366.291382 -49.298302 0.000000
-194.941696 366.291382 -49.298302 0.000000
-181.458389 366.291382 -49.298302 0.000000
-167.975098 366.291382 -49.298302 0.000000
-154.491791 366.291382 -49.298302 0.000000
-141.008499 366.291382 -49.298302 0.000000
-127.525192 366.291382 -49.298302 0.000000
-114.041885 366.291382 -49.298302 0.000000
-100.558594 366.291382 -49.298302 0.000000
-87.075287 366.291382 -49.298302 0.000000
-73.591980 366.291382 -49.298302 0.000000
-60.108704 366.291382 -49.298302 0.000000
-46.625397 366.291382 -49.298302 0.000000
-33.142090 366.291382 -49.298302 0.000000
-19.658783 366.291382 -49.298302 0.000000
-6.175476 366.291382 -49.298302 0.000000
7.307800 366.291382 -49.298302 0.000000
20.791107 366.291382 -49.298302 0.000000
34.274414 366.291382 -49.298302 0.000000
47.757721 366.291382 -49.298302 0.000000
61.240997 366.291382 -49.298302 0.000000
74.724304 366.291382 -49.298302 0.000000
88.207611 366.291382 -49.298302 0.000000
101.690918 366.291382 -49.298302 0.000000
115.174225 366.291382 -49.298302 0.000000
128.657501 366.291382 -49.298302 0.000000
142.140808 366.291382 -49.298302 0.000000
155.624115 366.291382 -49.298302 0.000000
169.107422 366.291382 -49.298302 0.000000
182.590698 366.291382 -49.298302 0.000000
196.074036 366.291382 -49.298302 0.000000
209.557312 366.291382 -49.298302 0.000000
223.040588 366.291382 -49.298302 0.000000
236.523926 366.291382 -49.298302 0.000000
250.007202 366.291382 -49.298302 0.000000
263.490540 366.291382 -49.298302 0.000000
276.973816 366.291382 -49.298302 0.000000
290.457092 366.291382 -49.298302 0.000000
303.940430 366.291382 -49.298302 0.000000
317.423706 366.291382 -49.298302 0.000000
330.907043 366.291382 -49.298302 0.000000
344.390320 366.291382 -49.298302 0.000000
-343.257996 352.808105 -49.298302 0.000000
-329.774689 352.808105 -49.298302 0.000000
-316.291382 352.808105 -49.298302 0.000000
-302.808105 352.808105 -49.298302 0.000000
-289.324799 352.808105 -49.298302 0.000000
-275.841492 352.808105 -49.298302 0.000000
-262.358185 352.808105 -49.298302 0.000000
-248.874893 352.808105 -49.298302 0.000000
-235.391602 352.808105 -49.298302 0.000000
-221.908295 352.808105 -49.298302 0.000000
-208.424988 352.808105 -49.298302 0.000000
-194.941696 352.808105 -49.298302 0.000000
-181.458389 352.808105 -49.298302 1.328030
-167.975098 352.808105 -49.298302 1.609903
-154.491791 352.808105 -49.298302 1.860534
-141.008499 352.808105 -49.298302 2.130732
-127.525192 352.808105 -49.298302 1.964797
-114.041885 352.808105 -49.298302 1.103512
-100.558594 352.808105 -49.298302 0.443689
-87.075287 352.808105 -49.298302 0.193886
-73.591980 352.808105 -49.298302 0.228463
-60.108704 352.808105 -49.298302 -0.366702
-46.625397 352.808105 -49.298302 -0.544401
-33.142090 352.808105 -49.298302 -0.422427
-19.658783 352.808105 -49.298302 -0.151273
-6.175476 352.808105 -49.298302 -0.015370
7.307800 352.808105 -49.298302 0.076087
20.791107 352.808105 -49.298302 -0.039847
34.274414 352.808105 -49.298302 -0.257368
47.757721 352.808105 -49.298302 -0.381869
61.240997 352.808105 -49.298302 -0.264806
74.724304 352.808105 -49.298302 -0.277534
88.207611 352.808105 -49.298302 -0.067986
101.690918 352.808105 -49.298302 0.380652
115.174225 352.808105 -49.298302 0.439092
128.657501 352.808105 -49.298302 0.641160
142.140808 352.808105 -49.298302 0.000000
155.624115 352.808105 -49.298302 0.000000
169.107422 352.808105 -49.298302 0.000000
182.590698 352.808105 -49.298302 0.000000
196.074036 352.808105 -49.298302 0.000000
209.557312 352.808105 -49.298302 0.000000
223.040588 352.808105 -49.298302 0.000000
236.523926 352.808105 -49.298302 0.000000
250.007202 352.808105 -49.298302 0.000000
263.490540 352.808105 -49.298302 0.000000
276.973816 352.808105 -49.298302 0.000000
290.457092 352.808105 -49.298302 0.000000
303.940430 352.808105 -49.298302 0.000000
317.423706 352.808105 -49.298302 0.000000
330.907043 352.808105 -49.298302 0.000000
344.390320 352.808105 -49.298302 0.000000
-343.257996 339.324799 -49.298302 0.000000
-329.774689 339.324799 -49.298302 0.000000
-316.291382 339.324799 -49.298302 0.000000
-302.808105 339.324799 -49.298302 0.000000
-289.324799 339.324799 -49.298302 0.000000
-275.841492 339.324799 -49.298302 0.000000
-262.358185 339.324799 -49.298302 1.315283
-248.874893 339.324799 -49.298302 1.350085
-235.391602 339.324799 -49.298302 1.467625
-221.908295 339.324799 -49.298302 1.426399
-208.424988 339.324799 -49.298302 1.355187
-194.941696 339.324799 -49.298302 1.673978
-181.458389 339.324799 -49.298302 1.604370
-167.975098 339.324799 -49.298302 1.987943
-154.491791 339.324799 -49.298302 2.137691
-141.008499 339.324799 -49.298302 2.216511
-127.525192 339.324799 -49.298302 1.756470
-114.041885 339.324799 -49.298302 1.319677
-100.558594 339.324799 -49.298302 0.679229
-87.075287 339.324799 -49.298302 0.363630
-73.591980 339.324799 -49.298302 -0.017937
-60.108704 339.324799 -49.298302 -0.387288
-46.625397 339.324799 -49.298302 -0.636030
-33.142090 339.324799 -49.298302 -0.584690
-19.658783 339.324799 -49.298302 -0.271124
-6.175476 339.324799 -49.298302 -0.205141
7.307800 339.324799 -49.298302 -0.152251
20.791107 339.324799 -49.298302 -0.083012
34.274414 339.324799 -49.298302 -0.278795
47.757721 339.324799 -49.298302 -0.448828
61.240997 339.324799 -49.298302 -0.388573
74.724304 339.324799 -49.298302 -0.243805
88.207611 339.324799 -49.298302 -0.107893
101.690918 339.324799 -49.298302 0.464605
115.174225 339.324799 -49.298302 0.661635
128.657501 339.324799 -49.298302 0.417181
142.140808 339.324799 -49.298302 0.131793
155.624115 339.324799 -49.298302 0.023446
169.107422 339.324799 -49.298302 -0.067589
182.590698 339.324799 -49.298302 -0.184079
196.074036 339.324799 -49.298302 -0.184933
209.557312 339.324799 -49.298302 0.002118
223.040588 339.324799 -49.298302 -0.127429
236.523926 339.324799 -49.298302 -0.237966
250.007202 339.324799 -49.298302 0.731636
263.490540 339.324799 -49.298302 1.055749
276.973816 339.324799 -49.298302 0.000000
290.457092 339.324799 -49.298302 0.000000
303.940430 339.324799 -49.298302 0.000000
317.423706 339.324799 -49.298302 0.000000
330.907043 339.324799 -49.298302 0.000000
344.390320 339.324799 -49.298302 0.000000
-343.257996 325.841492 -49.298302 0.000000
-329.774689 325.841492 -49.298302 0.000000
-316.291382 325.841492 -49.298302 0.000000
-302.808105 325.841492 -49.298302 0.000000
-289.324799 325.841492 -49.298302 0.709280
-275.841492 325.841492 -49.298302 1.091638
-262.358185 325.841492 -49.298302 0.871437
-248.874893 325.841492 -49.298302 0.775855
-235.391602 325.841492 -49.298302 0.911298
-221.908295 325.841492 -49.298302 0.899791
-208.424988 325.841492 -49.298302 1.358606
-194.941696 325.841492 -49.298302 1.484587
-181.458389 325.841492 -49.298302 1.679711
-167.975098 325.841492 -49.298302 1.890918
-154.491791 325.841492 -49.298302 2.055902
-141.008499 325.841492 -49.298302 2.188112
-127.525192 325.841492 -49.298302 1.993010
-114.041885 325.841492 -49.298302 1.264976
-100.558594 325.841492 -49.298302 0.679366
-87.075287 325.841492 -49.298302 0.293071
-73.591980 325.841492 -49.298302 -0.030258
-60.108704 325.841492 -49.298302 -0.290828
-46.625397 325.841492 -49.298302 -0.432815
-33.142090 325.841492 -49.298302 -0.429591
-19.658783 325.841492 -49.298302 -0.263986
-6.175476 325.841492 -49.298302 -0.479667
7.307800 325.841492 -49.298302 -0.239644
20.791107 325.841492 -49.298302 -0.218881
34.274414 325.841492 -49.298302 -0.333142
47.757721 325.841492 -49.298302 -0.442041
61.240997 325.841492 -49.298302 -0.392343
74.724304 325.841492 -49.298302 -0.045904
88.207611 325.841492 -49.298302 0.056451
101.690918 325.841492 -49.298302 0.309559
115.174225 325.841492 -49.298302 0.091777
128.657501 325.841492 -49.298302 0.115087
142.140808 325.841492 -49.298302 -0.421936
155.624115 325.841492 -49.298302 -0.439796
169.107422 325.841492 -49.298302 -0.363350
182.590698 325.841492 -49.298302 -0.410825
196.074036 325.841492 -49.298302 -0.067105
209.557312 325.841492 -49.298302 -0.094795
223.040588 325.841492 -49.298302 -0.290293
236.523926 325.841492 -49.298302 -0.009659
250.007202 325.841492 -49.298302 0.162354
263.490540 325.841492 -49.298302 0.497706
276.973816 325.841492 -49.298302 0.465019
290.457092 325.841492 -49.298302 0.000000
303.940430 325.841492 -49.298302 0.000000
317.423706 325.841492 -49.298302 0.000000
330.907043 325.841492 -49.298302 0.000000
344.390320 325.841492 -49.298302 0.000000
-343.257996 312.358185 -49.298302 0.000000
-329.774689 312.358185 -49.298302 0.000000
-316.291382 312.358185 -49.298302 0.000000
-302.808105 312.358185 -49.298302 0.000000
-289.324799 312.358185 -49.298302 0.431091
-275.841492 312.358185 -49.298302 0.696130
-262.358185 312.358185 -49.298302 0.707580
-248.874893 312.358185 -49.298302 0.626855
-235.391602 312.358185 -49.298302 0.630830
-221.908295 312.358185 -49.298302 0.646777
-208.424988 312.358185 -49.298302 1.131292
-194.941696 312.358185 -49.298302 1.431817
-181.458389 312.358185 -49.298302 1.973057
-167.975098 312.358185 -49.298302 2.216682
-154.491791 312.358185 -49.298302 2.354417
-141.008499 312.358185 -49.298302 2.228214
-127.525192 312.358185 -49.298302 1.983441
-114.041885 312.358185 -49.298302 1.451405
-100.558594 312.358185 -49.298302 0.912390
-87.075287 312.358185 -49.298302 0.476182
-73.591980 312.358185 -49.298302 0.348351
-60.108704 312.358185 -49.298302 -0.180569
-46.625397 312.358185 -49.298302 -0.160590
-33.142090 312.358185 -49.298302 0.050297
-19.658783 312.358185 -49.298302 -0.329463
-6.175476 312.358185 -49.298302 -0.633531
7.307800 312.358185 -49.298302 -0.504352
20.791107 312.358185 -49.298302 -0.228269
34.274414 312.358185 -49.298302 -0.125990
47.757721 312.358185 -49.298302 -0.477397
61.240997 312.358185 -49.298302 -0.559724
74.724304 312.358185 -49.298302 -0.147772
88.207611 312.358185 -49.298302 0.034734
101.690918 312.358185 -49.298302 0.030030
115.174225 312.358185 -49.298302 -0.187153
128.657501 312.358185 -49.298302 -0.389854
142.140808 312.358185 -49.298302 -0.738992
155.624115 312.358185 -49.298302 -0.883747
169.107422 312.358185 -49.298302 -0.672904
182.590698 312.358185 -49.298302 -0.775834
196.074036 312.358185 -49.298302 -0.564984
209.557312 312.358185 -49.298302 -0.347421
223.040588 312.358185 -49.298302 -0.117141
236.523926 312.358185 -49.298302 -0.129405
250.007202 312.358185 -49.298302 -0.006507
263.490540 312.358185 -49.298302 0.058242
276.973816 312.358185 -49.298302 0.246231
290.457092 312.358185 -49.298302 0.379817
303.940430 312.358185 -49.298302 0.000000
317.423706 312.358185 -49.298302 0.000000
330.907043 312.358185 -49.298302 0.000000
344.390320 312.358185 -49.298302 0.000000
-343.257996 298.874878 -49.298302 0.000000
-329.774689 298.874878 -49.298302 0.000000
-316.291382 298.874878 -49.298302 0.000000
-302.808105 298.874878 -49.298302 0.000000
-289.324799 298.874878 -49.298302 0.330984
-275.841492 298.874878 -49.298302 0.321408
-262.358185 298.874878 -49.298302 0.521042
-248.874893 298.874878 -49.298302 0.463716
-235.391602 298.874878 -49.298302 0.442461
-221.908295 298.874878 -49.298302 0.460668
-208.424988 298.874878 -49.298302 0.813615
-194.941696 298.874878 -49.298302 1.303639
-181.458389 298.874878 -49.298302 1.697400
-167.975098 298.874878 -49.298302 2.131999
-154.491791 298.874878 -49.298302 2.046297
-141.008499 298.874878 -49.298302 1.972374
-127.525192 298.874878 -49.298302 1.882912
-114.041885 298.874878 -49.298302 1.550053
-100.558594 298.874878 -49.298302 1.286844
-87.075287 298.874878 -49.298302 0.764682
-73.591980 298.874878 -49.298302 0.379463
-60.108704 298.874878 -49.298302 0.061298
-46.625397 298.874878 -49.298302 0.137660
-33.142090 298.874878 -49.298302 -0.076972
-19.658783 298.874878 -49.298302 -0.501285
-6.175476 298.874878 -49.298302 -0.580856
7.307800 298.874878 -49.298302 -0.357992
20.791107 298.874878 -49.298302 -0.075521
34.274414 298.874878 -49.298302 -0.367873
47.757721 298.874878 -49.298302 -0.739727
61.240997 298.874878 -49.298302 -0.654547
74.724304 298.874878 -49.298302 -0.130715
88.207611 298.874878 -49.298302 -0.059191
101.690918 298.874878 -49.298302 -0.109205
115.174225 298.874878 -49.298302 -0.477405
128.657501 298.874878 -49.298302 -0.868337
142.140808 298.874878 -49.298302 -1.398607
155.624115 298.874878 -49.298302 -1.686182
169.107422 298.874878 -49.298302 -1.313220
182.590698 298.874878 -49.298302 -1.165872
196.074036 298.874878 -49.298302 -0.856242
209.557312 298.874878 -49.298302 -0.626165
223.040588 298.874878 -49.298302 -0.633666
236.523926 298.874878 -49.298302 -0.406534
250.007202 298.874878 -49.298302 -0.095889
263.490540 298.874878 -49.298302 0.308632
276.973816 298.874878 -49.298302 0.194436
290.457092 298.874878 -49.298302 0.153798
303.940430 298.874878 -49.298302 0.000000
317.423706 298.874878 -49.298302 0.000000
330.907043 298.874878 -49.298302 0.000000
344.390320 298.874878 -49.298302 0.000000
-343.257996 285.391602 -49.298302 0.000000
-329.774689 285.391602 -49.298302 0.000000
-316.291382 285.391602 -49.298302 0.000000
-302.808105 285.391602 -49.298302 0.338393
-289.324799 285.391602 -49.298302 0.306736
-275.841492 285.391602 -49.298302 0.253751
-262.358185 285.391602 -49.298302 0.346193
-248.874893 285.391602 -49.298302 0.384170
-235.391602 285.391602 -49.298302 0.343060
-221.908295 285.391602 -49.298302 0.494597
-208.424988 285.391602 -49.298302 0.717551
-194.941696 285.391602 -49.298302 0.936757
-181.458389 285.391602 -49.298302 1.284569
-167.975098 285.391602 -49.298302 1.867765
-154.491791 285.391602 -49.298302 2.051476
-141.008499 285.391602 -49.298302 1.988901
-127.525192 285.391602 -49.298302 1.761670
-114.041885 285.391602 -49.298302 1.774451
-100.558594 285.391602 -49.298302 1.240917
-87.075287 285.391602 -49.298302 1.142451
-73.591980 285.391602 -49.298302 0.609200
-60.108704 285.391602 -49.298302 0.518295
-46.625397 285.391602 -49.298302 0.293083
-33.142090 285.391602 -49.298302 -0.238317
-19.658783 285.391602 -49.298302 -0.220124
-6.175476 285.391602 -49.298302 -0.332666
7.307800 285.391602 -49.298302 -0.222306
20.791107 285.391602 -49.298302 -0.053758
34.274414 285.391602 -49.298302 -0.235474
47.757721 285.391602 -49.298302 -0.375501
61.240997 285.391602 -49.298302 -0.522545
74.724304 285.391602 -49.298302 -0.079888
88.207611 285.391602 -49.298302 0.124688
101.690918 285.391602 -49.298302 -0.295729
115.174225 285.391602 -49.298302 -0.693501
128.657501 285.391602 -49.298302 -1.174875
142.140808 285.391602 -49.298302 -1.484668
155.624115 285.391602 -49.298302 -1.565262
169.107422 285.391602 -49.298302 -1.629146
182.590698 285.391602 -49.298302 -1.555303
196.074036 285.391602 -49.298302 -1.073852
209.557312 285.391602 -49.298302 -1.060757
223.040588 285.391602 -49.298302 -1.001471
236.523926 285.391602 -49.298302 -0.504454
250.007202 285.391602 -49.298302 -0.126457
263.490540 285.391602 -49.298302 0.167544
276.973816 285.391602 -49.298302 0.185797
290.457092 285.391602 -49.298302 0.180824
303.940430 285.391602 -49.298302 0.000000
317.423706 285.391602 -49.298302 0.000000
330.907043 285.391602 -49.298302 0.000000
344.390320 285.391602 -49.298302 0.000000
-343.257996 271.908295 -49.298302 0.000000
-329.774689 271.908295 -49.298302 0.000000
-316.291382 271.908295 -49.298302 0.000000
-302.808105 271.908295 -49.298302 0.237043
-289.324799 271.908295 -49.298302 0.225711
-275.841492 271.908295 -49.298302 0.206260
-262.358185 271.908295 -49.298302 0.294828
-248.874893 271.908295 -49.298302 0.375852
-235.391602 271.908295 -49.298302 0.345991
-221.908295 271.908295 -49.298302 0.274585
-208.424988 271.908295 -49.298302 0.568439
-194.941696 271.908295 -49.298302 0.755550
-181.458389 271.908295 -49.298302 1.183078
-167.975098 271.908295 -49.298302 1.569213
-154.491791 271.908295 -49.298302 1.783403
-141.008499 271.908295 -49.298302 1.777981
-127.525192 271.908295 -49.298302 1.557980
-114.041885 271.908295 -49.298302 1.611899
-100.558594 271.908295 -49.298302 1.177020
-87.075287 271.908295 -49.298302 1.217408
-73.591980 271.908295 -49.298302 0.885190
-60.108704 271.908295 -49.298302 0.908276
-46.625397 271.908295 -49.298302 0.282498
-33.142090 271.908295 -49.298302 -0.231329
-19.658783 271.908295 -49.298302 -0.309104
-6.175476 271.908295 -49.298302 -0.290004
7.307800 271.908295 -49.298302 -0.256471
20.791107 271.908295 -49.298302 -0.186707
34.274414 271.908295 -49.298302 -0.089599
47.757721 271.908295 -49.298302 -0.235292
61.240997 271.908295 -49.298302 -0.063293
74.724304 271.908295 -49.298302 0.163797
88.207611 271.908295 -49.298302 0.195927
101.690918 271.908295 -49.298302 -0.250030
115.174225 271.908295 -49.298302 -0.354346
128.657501 271.908295 -49.298302 -1.076476
142.140808 271.908295 -49.298302 -1.192232
155.624115 271.908295 -49.298302 -1.418313
169.107422 271.908295 -49.298302 -1.997637
182.590698 271.908295 -49.298302 -1.973737
196.074036 271.908295 -49.298302 -1.629110
209.557312 271.908295 -49.298302 -1.194237
223.040588 271.908295 -49.298302 -0.825799
236.523926 271.908295 -49.298302 -0.480128
250.007202 271.908295 -49.298302 -0.218564
263.490540 271.908295 -49.298302 0.091579
276.973816 271.908295 -49.298302 0.059269
290.457092 271.908295 -49.298302 0.197672
303.940430 271.908295 -49.298302 0.000000
317.423706 271.908295 -49.298302 0.000000
330.907043 271.908295 -49.298302 0.000000
344.390320 271.908295 -49.298302 0.000000
-343.257996 258.424988 -49.298302 0.000000
-329.774689 258.424988 -49.298302 0.000000
-316.291382 258.424988 -49.298302 0.000000
-302.808105 258.424988 -49.298302 0.160698
-289.324799 258.424988 -49.298302 0.162346
-275.841492 258.424988 -49.298302 0.183227
-262.358185 258.424988 -49.298302 0.190983
-248.874893 258.424988 -49.298302 0.220907
-235.391602 258.424988 -49.298302 0.285765
-221.908295 258.424988 -49.298302 0.312455
-208.424988 258.424988 -49.298302 0.416608
-194.941696 258.424988 -49.298302 0.658425
-181.458389 258.424988 -49.298302 1.064827
-167.975098 258.424988 -49.298302 1.264748
-154.491791 258.424988 -49.298302 1.600101
-141.008499 258.424988 -49.298302 1.581354
-127.525192 258.424988 -49.298302 1.693050
-114.041885 258.424988 -49.298302 1.565681
-100.558594 258.424988 -49.298302 1.674206
-87.075287 258.424988 -49.298302 1.569010
-73.591980 258.424988 -49.298302 1.037393
-60.108704 258.424988 -49.298302 0.599356
-46.625397 258.424988 -49.298302 0.263599
-33.142090 258.424988 -49.298302 -0.234411
-19.658783 258.424988 -49.298302 -0.803078
-6.175476 258.424988 -49.298302 -0.605942
7.307800 258.424988 -49.298302 -0.273723
20.791107 258.424988 -49.298302 0.046203
34.274414 258.424988 -49.298302 0.133918
47.757721 258.424988 -49.298302 -0.042393
61.240997 258.424988 -49.298302 -0.003115
74.724304 258.424988 -49.298302 0.274526
88.207611 258.424988 -49.298302 0.148202
101.690918 258.424988 -49.298302 0.045669
115.174225 258.424988 -49.298302 -0.195339
128.657501 258.424988 -49.298302 -0.916545
142.140808 258.424988 -49.298302 -1.343822
155.624115 258.424988 -49.298302 -1.646281
169.107422 258.424988 -49.298302 -1.960939
182.590698 258.424988 -49.298302 -2.327604
196.074036 258.424988 -49.298302 -2.016281
209.557312 258.424988 -49.298302 -1.484011
223.040588 258.424988 -49.298302 -0.999770
236.523926 258.424988 -49.298302 -0.574396
250.007202 258.424988 -49.298302 -0.274643
263.490540 258.424988 -49.298302 -0.002897
276.973816 258.424988 -49.298302 0.011167
290.457092 258.424988 -49.298302 0.118268
303.940430 258.424988 -49.298302 0.000000
317.423706 258.424988 -49.298302 0.000000
330.907043 258.424988 -49.298302 0.000000
344.390320 258.424988 -49.298302 0.000000
-343.257996 244.941696 -49.298302 0.000000
-329.774689 244.941696 -49.298302 0.000000
-316.291382 244.941696 -49.298302 0.000000
-302.808105 244.941696 -49.298302 0.059535
-289.324799 244.941696 -49.298302 0.072322
-275.841492 244.941696 -49.298302 0.105083
-262.358185 244.941696 -49.298302 0.077834
-248.874893 244.941696 -49.298302 0.121921
-235.391602 244.941696 -49.298302 0.200919
-221.908295 244.941696 -49.298302 0.252840
-208.424988 244.941696 -49.298302 0.378146
-194.941696 244.941696 -49.298302 0.470333
-181.458389 244.941696 -49.298302 0.837191
-167.975098 244.941696 -49.298302 1.106758
-154.491791 244.941696 -49.298302 1.336520
-141.008499 244.941696 -49.298302 1.452679
-127.525192 244.941696 -49.298302 1.700943
-114.041885 244.941696 -49.298302 1.687831
-100.558594 244.941696 -49.298302 1.497808
-87.075287 244.941696 -49.298302 1.534129
-73.591980 244.941696 -49.298302 0.959074
-60.108704 244.941696 -49.298302 0.878141
-46.625397 244.941696 -49.298302 0.351961
-33.142090 244.941696 -49.298302 -0.101090
-19.658783 244.941696 -49.298302 -0.367767
-6.175476 244.941696 -49.298302 -0.531349
7.307800 244.941696 -49.298302 -0.341803
20.791107 244.941696 -49.298302 -0.187446
34.274414 244.941696 -49.298302 0.063080
47.757721 244.941696 -49.298302 0.083451
61.240997 244.941696 -49.298302 0.114600
74.724304 244.941696 -49.298302 0.111632
88.207611 244.941696 -49.298302 0.130216
101.690918 244.941696 -49.298302 -0.022805
115.174225 244.941696 -49.298302 -0.578080
128.657501 244.941696 -49.298302 -1.033370
142.140808 244.941696 -49.298302 -1.393211
155.624115 244.941696 -49.298302 -1.845105
169.107422 244.941696 -49.298302 -2.164974
182.590698 244.941696 -49.298302 -2.087106
196.074036 244.941696 -49.298302 -2.091033
209.557312 244.941696 -49.298302 -1.481979
223.040588 244.941696 -49.298302 -0.933669
236.523926 244.941696 -49.298302 -0.489653
250.007202 244.941696 -49.298302 -0.161728
263.490540 244.941696 -49.298302 -0.026943
276.973816 244.941696 -49.298302 0.058667
290.457092 244.941696 -49.298302 0.163451
303.940430 244.941696 -49.298302 0.000000
317.423706 244.941696 -49.298302 0.000000
330.907043 244.941696 -49.298302 0.000000
344.390320 244.941696 -49.298302 0.000000
-343.257996 231.458389 -49.298302 0.000000
-329.774689 231.458389 -49.298302 0.000000
-316.291382 231.458389 -49.298302 0.000000
-302.808105 231.458389 -49.298302 0.068160
-289.324799 231.458389 -49.298302 0.051369
-275.841492 231.458389 -49.298302 0.077727
-262.358185 231.458389 -49.298302 0.063463
-248.874893 231.458389 -49.298302 0.114737
-235.391602 231.458389 -49.298302 0.183660
-221.908295 231.458389 -49.298302 0.237135
-208.424988 231.458389 -49.298302 0.420729
-194.941696 231.458389 -49.298302 0.540926
-181.458389 231.458389 -49.298302 0.885775
-167.975098 231.458389 -49.298302 1.031670
-154.491791 231.458389 -49.298302 1.026884
-141.008499 231.458389 -49.298302 1.359794
-127.525192 231.458389 -49.298302 1.515081
-114.041885 231.458389 -49.298302 1.709826
-100.558594 231.458389 -49.298302 1.766145
-87.075287 231.458389 -49.298302 1.923727
-73.591980 231.458389 -49.298302 1.335135
-60.108704 231.458389 -49.298302 1.114213
-46.625397 231.458389 -49.298302 0.359393
-33.142090 231.458389 -49.298302 0.130301
-19.658783 231.458389 -49.298302 -0.576967
-6.175476 231.458389 -49.298302 -0.649562
7.307800 231.458389 -49.298302 -0.711234
20.791107 231.458389 -49.298302 -0.116102
34.274414 231.458389 -49.298302 0.043011
47.757721 231.458389 -49.298302 0.121334
61.240997 231.458389 -49.298302 0.091556
74.724304 231.458389 -49.298302 -0.280749
88.207611 231.458389 -49.298302 -0.070162
101.690918 231.458389 -49.298302 -0.497256
115.174225 231.458389 -49.298302 -0.985634
128.657501 231.458389 -49.298302 -1.284839
142.140808 231.458389 -49.298302 -1.799533
155.624115 231.458389 -49.298302 -1.924479
169.107422 231.458389 -49.298302 -2.178909
182.590698 231.458389 -49.298302 -2.000492
196.074036 231.458389 -49.298302 -1.778280
209.557312 231.458389 -49.298302 -1.236737
223.040588 231.458389 -49.298302 -0.673759
236.523926 231.458389 -49.298302 -0.242902
250.007202 231.458389 -49.298302 -0.109767
263.490540 231.458389 -49.298302 0.014512
276.973816 231.458389 -49.298302 0.093123
290.457092 231.458389 -49.298302 0.122701
303.940430 231.458389 -49.298302 0.000000
317.423706 231.458389 -49.298302 0.000000
330.907043 231.458389 -49.298302 0.000000
344.390320 231.458389 -49.298302 0.000000
-343.257996 217.975098 -49.298302 0.000000
-329.774689 217.975098 -49.298302 0.000000
-316.291382 217.975098 -49.298302 0.000000
-302.808105 217.975098 -49.298302 0.081237
-289.324799 217.975098 -49.298302 0.108176
-275.841492 217.975098 -49.298302 0.051266
-262.358185 217.975098 -49.298302 0.095143
-248.874893 217.975098 -49.298302 0.103661
-235.391602 217.975098 -49.298302 0.201865
-221.908295 217.975098 -49.298302 0.276668
-208.424988 217.975098 -49.298302 0.383172
-194.941696 217.975098 -49.298302 0.751758
-181.458389 217.975098 -49.298302 0.819277
-167.975098 217.975098 -49.298302 1.134414
-154.491791 217.975098 -49.298302 1.137307
-141.008499 217.975098 -49.298302 1.282881
-127.525192 217.975098 -49.298302 1.526959
-114.041885 217.975098 -49.298302 1.742461
-100.558594 217.975098 -49.298302 1.871804
-87.075287 217.975098 -49.298302 2.009608
-73.591980 217.975098 -49.298302 1.678705
-60.108704 217.975098 -49.298302 0.886273
-46.625397 217.975098 -49.298302 0.561736
-33.142090 217.975098 -49.298302 0.111044
-19.658783 217.975098 -49.298302 -0.342417
-6.175476 217.975098 -49.298302 -0.713252
7.307800 217.975098 -49.298302 -0.402796
20.791107 217.975098 -49.298302 -0.251889
34.274414 217.975098 -49.298302 0.024646
47.757721 217.975098 -49.298302 0.044112
61.240997 217.975098 -49.298302 -0.115520
74.724304 217.975098 -49.298302 -0.346707
88.207611 217.975098 -49.298302 -0.479084
101.690918 217.975098 -49.298302 -0.970401
115.174225 217.975098 -49.298302 -1.526907
128.657501 217.975098 -49.298302 -1.582005
142.140808 217.975098 -49.298302 -1.821844
155.624115 217.975098 -49.298302 -1.739122
169.107422 217.975098 -49.298302 -1.853851
182.590698 217.975098 -49.298302 -1.840855
196.074036 217.975098 -49.298302 -1.817737
209.557312 217.975098 -49.298302 -1.346533
223.040588 217.975098 -49.298302 -0.601221
236.523926 217.975098 -49.298302 -0.199790
250.007202 217.975098 -49.298302 -0.089261
263.490540 217.975098 -49.298302 -0.067765
276.973816 217.975098 -49.298302 0.015625
290.457092 217.975098 -49.298302 0.039335
303.940430 217.975098 -49.298302 0.000000
317.423706 217.975098 -49.298302 0.000000
330.907043 217.975098 -49.298302 0.000000
344.390320 217.975098 -49.298302 0.000000
-343.257996 204.491791 -49.298302 0.000000
-329.774689 204.491791 -49.298302 0.000000
-316.291382 204.491791 -49.298302 0.000000
-302.808105 204.491791 -49.298302 0.122008
-289.324799 204.491791 -49.298302 0.154212
-275.841492 204.491791 -49.298302 0.115598
-262.358185 204.491791 -49.298302 0.114267
-248.874893 204.491791 -49.298302 0.187279
-235.391602 204.491791 -49.298302 0.149976
-221.908295 204.491791 -49.298302 0.417306
-208.424988 204.491791 -49.298302 0.530384
-194.941696 204.491791 -49.298302 0.697165
-181.458389 204.491791 -49.298302 0.786898
-167.975098 204.491791 -49.298302 1.130732
-154.491791 204.491791 -49.298302 1.141128
-141.008499 204.491791 -49.298302 1.462847
-127.525192 204.491791 -49.298302 1.671553
-114.041885 204.491791 -49.298302 1.779555
-100.558594 204.491791 -49.298302 2.271980
-87.075287 204.491791 -49.298302 2.378336
-73.591980 204.491791 -49.298302 1.811173
-60.108704 204.491791 -49.298302 1.308931
-46.625397 204.491791 -49.298302 0.886323
-33.142090 204.491791 -49.298302 0.306100
-19.658783 204.491791 -49.298302 -0.149079
-6.175476 204.491791 -49.298302 -0.281727
7.307800 204.491791 -49.298302 -0.496958
20.791107 204.491791 -49.298302 -0.398083
34.274414 204.491791 -49.298302 -0.457387
47.757721 204.491791 -49.298302 -0.347150
61.240997 204.491791 -49.298302 -0.535715
74.724304 204.491791 -49.298302 -0.781722
88.207611 204.491791 -49.298302 -1.189220
101.690918 204.491791 -49.298302 -1.533700
115.174225 204.491791 -49.298302 -1.948014
128.657501 204.491791 -49.298302 -1.825101
142.140808 204.491791 -49.298302 -1.569264
155.624115 204.491791 -49.298302 -1.472582
169.107422 204.491791 -49.298302 -1.619367
182.590698 204.491791 -49.298302 -1.635262
196.074036 204.491791 -49.298302 -1.521384
209.557312 204.491791 -49.298302 -1.159838
223.040588 204.491791 -49.298302 -0.550598
236.523926 204.491791 -49.298302 -0.035310
250.007202 204.491791 -49.298302 -0.039032
263.490540 204.491791 -49.298302 -0.066519
276.973816 204.491791 -49.298302 -0.043603
290.457092 204.491791 -49.298302 0.015665
303.940430 204.491791 -49.298302 0.000000
317.423706 204.491791 -49.298302 0.000000
330.907043 204.491791 -49.298302 0.000000
344.390320 204.491791 -49.298302 0.000000
-343.257996 191.008499 -49.298302 0.000000
-329.774689 191.008499 -49.298302 0.000000
-316.291382 191.008499 -49.298302 0.000000
-302.808105 191.008499 -49.298302 0.088931
-289.324799 191.008499 -49.298302 0.157920
-275.841492 191.008499 -49.298302 0.132959
-262.358185 191.008499 -49.298302 0.141387
-248.874893 191.008499 -49.298302 0.235620
-235.391602 191.008499 -49.298302 0.321271
-221.908295 191.008499 -49.298302 0.560513
-208.424988 191.008499 -49.298302 0.569997
-194.941696 191.008499 -49.298302 0.764109
-181.458389 191.008499 -49.298302 0.826015
-167.975098 191.008499 -49.298302 0.972644
-154.491791 191.008499 -49.298302 1.203170
-141.008499 191.008499 -49.298302 1.435533
-127.525192 191.008499 -49.298302 1.619370
-114.041885 191.008499 -49.298302 2.082172
-100.558594 191.008499 -49.298302 2.678432
-87.075287 191.008499 -49.298302 2.542561
-73.591980 191.008499 -49.298302 2.364586
-60.108704 191.008499 -49.298302 1.748192
-46.625397 191.008499 -49.298302 1.233670
-33.142090 191.008499 -49.298302 0.557118
-19.658783 191.008499 -49.298302 -0.228872
-6.175476 191.008499 -49.298302 -0.471949
7.307800 191.008499 -49.298302 -0.697915
20.791107 191.008499 -49.298302 -0.798064
34.274414 191.008499 -49.298302 -0.803386
47.757721 191.008499 -49.298302 -0.926717
61.240997 191.008499 -49.298302 -1.215935
74.724304 191.008499 -49.298302 -1.525129
88.207611 191.008499 -49.298302 -1.653012
101.690918 191.008499 -49.298302 -1.846187
115.174225 191.008499 -49.298302 -1.990318
128.657501 191.008499 -49.298302 -1.708472
142.140808 191.008499 -49.298302 -1.284702
155.624115 191.008499 -49.298302 -1.123879
169.107422 191.008499 -49.298302 -1.280345
182.590698 191.008499 -49.298302 -1.138940
196.074036 191.008499 -49.298302 -1.002274
209.557312 191.008499 -49.298302 -0.726402
223.040588 191.008499 -49.298302 -0.306117
236.523926 191.008499 -49.298302 -0.037591
250.007202 191.008499 -49.298302 0.006172
263.490540 191.008499 -49.298302 -0.015970
276.973816 191.008499 -49.298302 -0.022705
290.457092 191.008499 -49.298302 0.002420
303.940430 191.008499 -49.298302 0.000000
317.423706 191.008499 -49.298302 0.000000
330.907043 191.008499 -49.298302 0.000000
344.390320 191.008499 -49.298302 0.000000
-343.257996 177.525192 -49.298302 0.000000
-329.774689 177.525192 -49.298302 0.000000
-316.291382 177.525192 -49.298302 0.000000
-302.808105 177.525192 -49.298302 0.143419
-289.324799 177.525192 -49.298302 0.186776
-275.841492 177.525192 -49.298302 0.162191
-262.358185 177.525192 -49.298302 0.134759
-248.874893 177.525192 -49.298302 0.257956
-235.391602 177.525192 -49.298302 0.476074
-221.908295 177.525192 -49.298302 0.507703
-208.424988 177.525192 -49.298302 0.564637
-194.941696 177.525192 -49.298302 0.681538
-181.458389 177.525192 -49.298302 0.819037
-167.975098 177.525192 -49.298302 0.945433
-154.491791 177.525192 -49.298302 1.347983
-141.008499 177.525192 -49.298302 1.603778
-127.525192 177.525192 -49.298302 1.795585
-114.041885 177.525192 -49.298302 2.291294
-100.558594 177.525192 -49.298302 2.873137
-87.075287 177.525192 -49.298302 2.725372
-73.591980 177.525192 -49.298302 2.483894
-60.108704 177.525192 -49.298302 2.301317
-46.625397 177.525192 -49.298302 1.710974
-33.142090 177.525192 -49.298302 0.775551
-19.658783 177.525192 -49.298302 -0.128453
-6.175476 177.525192 -49.298302 -0.783565
7.307800 177.525192 -49.298302 -0.915679
20.791107 177.525192 -49.298302 -0.895447
34.274414 177.525192 -49.298302 -1.176934
47.757721 177.525192 -49.298302 -1.225093
61.240997 177.525192 -49.298302 -1.509828
74.724304 177.525192 -49.298302 -1.756538
88.207611 177.525192 -49.298302 -1.940506
101.690918 177.525192 -49.298302 -2.140107
115.174225 177.525192 -49.298302 -1.666912
128.657501 177.525192 -49.298302 -1.480544
142.140808 177.525192 -49.298302 -1.191064
155.624115 177.525192 -49.298302 -0.834679
169.107422 177.525192 -49.298302 -0.801814
182.590698 177.525192 -49.298302 -0.753340
196.074036 177.525192 -49.298302 -0.634508
209.557312 177.525192 -49.298302 -0.317588
223.040588 177.525192 -49.298302 -0.192670
236.523926 177.525192 -49.298302 0.076666
250.007202 177.525192 -49.298302 0.038208
263.490540 177.525192 -49.298302 -0.002967
276.973816 177.525192 -49.298302 -0.026250
290.457092 177.525192 -49.298302 -0.002244
303.940430 177.525192 -49.298302 0.000000
317.423706 177.525192 -49.298302 0.000000
330.907043 177.525192 -49.298302 0.000000
344.390320 177.525192 -49.298302 0.000000
-343.257996 164.041885 -49.298302 0.000000
-329.774689 164.041885 -49.298302 0.000000
-316.291382 164.041885 -49.298302 0.000000
-302.808105 164.041885 -49.298302 0.201335
-289.324799 164.041885 -49.298302 0.229231
-275.841492 164.041885 -49.298302 0.238348
-262.358185 164.041885 -49.298302 0.227128
-248.874893 164.041885 -49.298302 0.349830
-235.391602 164.041885 -49.298302 0.432746
-221.908295 164.041885 -49.298302 0.546125
-208.424988 164.041885 -49.298302 0.667001
-194.941696 164.041885 -49.298302 0.687754
-181.458389 164.041885 -49.298302 0.860356
-167.975098 164.041885 -49.298302 1.079946
-154.491791 164.041885 -49.298302 1.431461
-141.008499 164.041885 -49.298302 1.710261
-127.525192 164.041885 -49.298302 1.989994
-114.041885 164.041885 -49.298302 2.419679
-100.558594 164.041885 -49.298302 2.753661
-87.075287 164.041885 -49.298302 2.870520
-73.591980 164.041885 -49.298302 3.029401
-60.108704 164.041885 -49.298302 2.706649
-46.625397 164.041885 -49.298302 1.915362
-33.142090 164.041885 -49.298302 1.125683
-19.658783 164.041885 -49.298302 -0.051448
-6.175476 164.041885 -49.298302 -0.568402
7.307800 164.041885 -49.298302 -0.943614
20.791107 164.041885 -49.298302 -1.322062
34.274414 164.041885 -49.298302 -1.367949
47.757721 164.041885 -49.298302 -1.768032
61.240997 164.041885 -49.298302 -1.834984
74.724304 164.041885 -49.298302 -1.967120
88.207611 164.041885 -49.298302 -1.693293
101.690918 164.041885 -49.298302 -1.700484
115.174225 164.041885 -49.298302 -1.309186
128.657501 164.041885 -49.298302 -1.160084
142.140808 164.041885 -49.298302 -0.920683
155.624115 164.041885 -49.298302 -0.629661
169.107422 164.041885 -49.298302 -0.562996
182.590698 164.041885 -49.298302 -0.509513
196.074036 164.041885 -49.298302 -0.416520
209.557312 164.041885 -49.298302 -0.223558
223.040588 164.041885 -49.298302 -0.102933
236.523926 164.041885 -49.298302 0.003241
250.007202 164.041885 -49.298302 0.013201
263.490540 164.041885 -49.298302 -0.010287
276.973816 164.041885 -49.298302 -0.001460
290.457092 164.041885 -49.298302 -0.002238
303.940430 164.041885 -49.298302 0.000000
317.423706 164.041885 -49.298302 0.000000
330.907043 164.041885 -49.298302 0.000000
344.390320 164.041885 -49.298302 0.000000
-343.257996 150.558594 -49.298302 0.000000
-329.774689 150.558594 -49.298302 0.000000
-316.291382 150.558594 -49.298302 0.000000
-302.808105 150.558594 -49.298302 0.274176
-289.324799 150.558594 -49.298302 0.279379
-275.841492 150.558594 -49.298302 0.322665
-262.358185 150.558594 -49.298302 0.304348
-248.874893 150.558594 -49.298302 0.350739
-235.391602 150.558594 -49.298302 0.469638
-221.908295 150.558594 -49.298302 0.656630
-208.424988 150.558594 -49.298302 0.901498
-194.941696 150.558594 -49.298302 0.914136
-181.458389 150.558594 -49.298302 0.995094
-167.975098 150.558594 -49.298302 1.181222
-154.491791 150.558594 -49.298302 1.433477
-141.008499 150.558594 -49.298302 1.793721
-127.525192 150.558594 -49.298302 2.156564
-114.041885 150.558594 -49.298302 2.079559
-100.558594 150.558594 -49.298302 2.574806
-87.075287 150.558594 -49.298302 2.989284
-73.591980 150.558594 -49.298302 3.039014
-60.108704 150.558594 -49.298302 2.819930
-46.625397 150.558594 -49.298302 1.711251
-33.142090 150.558594 -49.298302 0.874496
-19.658783 150.558594 -49.298302 0.227957
-6.175476 150.558594 -49.298302 -0.617377
7.307800 150.558594 -49.298302 -1.201858
20.791107 150.558594 -49.298302 -1.729108
34.274414 150.558594 -49.298302 -2.057343
47.757721 150.558594 -49.298302 -1.865821
61.240997 150.558594 -49.298302 -2.275971
74.724304 150.558594 -49.298302 -1.865233
88.207611 150.558594 -49.298302 -1.567891
101.690918 150.558594 -49.298302 -1.531862
115.174225 150.558594 -49.298302 -1.111167
128.657501 150.558594 -49.298302 -0.881300
142.140808 150.558594 -49.298302 -0.649961
155.624115 150.558594 -49.298302 -0.505002
169.107422 150.558594 -49.298302 -0.390824
182.590698 150.558594 -49.298302 -0.423129
196.074036 150.558594 -49.298302 -0.341513
209.557312 150.558594 -49.298302 -0.227498
223.040588 150.558594 -49.298302 -0.100696
236.523926 150.558594 -49.298302 0.015492
250.007202 150.558594 -49.298302 0.032205
263.490540 150.558594 -49.298302 0.006067
276.973816 150.558594 -49.298302 -0.016085
290.457092 150.558594 -49.298302 -0.020688
303.940430 150.558594 -49.298302 0.000000
317.423706 150.558594 -49.298302 0.000000
330.907043 150.558594 -49.298302 0.000000
344.390320 150.558594 -49.298302 0.000000
-343.257996 137.075287 -49.298302 0.000000
-329.774689 137.075287 -49.298302 0.000000
-316.291382 137.075287 -49.298302 0.000000
-302.808105 137.075287 -49.298302 0.331695
-289.324799 137.075287 -49.298302 0.507686
-275.841492 137.075287 -49.298302 0.428823
-262.358185 137.075287 -49.298302 0.502933
-248.874893 137.075287 -49.298302 0.529677
-235.391602 137.075287 -49.298302 0.514243
-221.908295 137.075287 -49.298302 0.687306
-208.424988 137.075287 -49.298302 0.865865
-194.941696 137.075287 -49.298302 0.953290
-181.458389 137.075287 -49.298302 1.195391
-167.975098 137.075287 -49.298302 1.380883
-154.491791 137.075287 -49.298302 1.511481
-141.008499 137.075287 -49.298302 2.014699
-127.525192 137.075287 -49.298302 2.091638
-114.041885 137.075287 -49.298302 2.369021
-100.558594 137.075287 -49.298302 2.575843
-87.075287 137.075287 -49.298302 2.868804
-73.591980 137.075287 -49.298302 2.930157
-60.108704 137.075287 -49.298302 2.484741
-46.625397 137.075287 -49.298302 1.566862
-33.142090 137.075287 -49.298302 0.421191
-19.658783 137.075287 -49.298302 -0.230030
-6.175476 137.075287 -49.298302 -0.985064
7.307800 137.075287 -49.298302 -1.406207
20.791107 137.075287 -49.298302 -1.822346
34.274414 137.075287 -49.298302 -2.208730
47.757721 137.075287 -49.298302 -2.244764
61.240997 137.075287 -49.298302 -2.056335
74.724304 137.075287 -49.298302 -2.231047
88.207611 137.075287 -49.298302 -1.571072
101.690918 137.075287 -49.298302 -1.190397
115.174225 137.075287 -49.298302 -0.997160
128.657501 137.075287 -49.298302 -0.697873
142.140808 137.075287 -49.298302 -0.717196
155.624115 137.075287 -49.298302 -0.452982
169.107422 137.075287 -49.298302 -0.326677
182.590698 137.075287 -49.298302 -0.335916
196.074036 137.075287 -49.298302 -0.297041
209.557312 137.075287 -49.298302 -0.160954
223.040588 137.075287 -49.298302 -0.065784
236.523926 137.075287 -49.298302 0.010910
250.007202 137.075287 -49.298302 0.028901
263.490540 137.075287 -49.298302 -0.012737
276.973816 137.075287 -49.298302 -0.015772
290.457092 137.075287 -49.298302 -0.027173
303.940430 137.075287 -49.298302 0.000000
317.423706 137.075287 -49.298302 0.000000
330.907043 137.075287 -49.298302 0.000000
344.390320 137.075287 -49.298302 0.000000
-343.257996 123.591980 -49.298302 0.000000
-329.774689 123.591980 -49.298302 0.000000
-316.291382 123.591980 -49.298302 0.000000
-302.808105 123.591980 -49.298302 0.000000
-289.324799 123.591980 -49.298302 0.593164
-275.841492 123.591980 -49.298302 0.506207
-262.358185 123.591980 -49.298302 0.600097
-248.874893 123.591980 -49.298302 0.572950
-235.391602 123.591980 -49.298302 0.630784
-221.908295 123.591980 -49.298302 0.903198
-208.424988 123.591980 -49.298302 1.074235
-194.941696 123.591980 -49.298302 1.254976
-181.458389 123.591980 -49.298302 1.218250
-167.975098 123.591980 -49.298302 1.514639
-154.491791 123.591980 -49.298302 1.716728
-141.008499 123.591980 -49.298302 2.275561
-127.525192 123.591980 -49.298302 2.556616
-114.041885 123.591980 -49.298302 2.646446
-100.558594 123.591980 -49.298302 3.023141
-87.075287 123.591980 -49.298302 3.007710
-73.591980 123.591980 -49.298302 2.732435
-60.108704 123.591980 -49.298302 2.415697
-46.625397 123.591980 -49.298302 1.268165
-33.142090 123.591980 -49.298302 0.446172
-19.658783 123.591980 -49.298302 -0.138938
-6.175476 123.591980 -49.298302 -0.812411
7.307800 123.591980 -49.298302 -1.311869
20.791107 123.591980 -49.298302 -2.033355
34.274414 123.591980 -49.298302 -2.321113
47.757721 123.591980 -49.298302 -2.380421
61.240997 123.591980 -49.298302 -2.221683
74.724304 123.591980 -49.298302 -1.948900
88.207611 123.591980 -49.298302 -1.893718
101.690918 123.591980 -49.298302 -1.236073
115.174225 123.591980 -49.298302 -0.774794
128.657501 123.591980 -49.298302 -0.570226
142.140808 123.591980 -49.298302 -0.554369
155.624115 123.591980 -49.298302 -0.382667
169.107422 123.591980 -49.298302 -0.320371
182.590698 123.591980 -49.298302 -0.266883
196.074036 123.591980 -49.298302 -0.149934
209.557312 123.591980 -49.298302 -0.131314
223.040588 123.591980 -49.298302 -0.015362
236.523926 123.591980 -49.298302 0.017091
250.007202 123.591980 -49.298302 -0.000110
263.490540 123.591980 -49.298302 -0.003863
276.973816 123.591980 -49.298302 0.002050
290.457092 123.591980 -49.298302 -0.019829
303.940430 123.591980 -49.298302 0.000000
317.423706 123.591980 -49.298302 0.000000
330.907043 123.591980 -49.298302 0.000000
344.390320 123.591980 -49.298302 0.000000
-343.257996 110.108704 -49.298302 0.000000
-329.774689 110.108704 -49.298302 0.000000
-316.291382 110.108704 -49.298302 0.000000
-302.808105 110.108704 -49.298302 0.000000
-289.324799 110.108704 -49.298302 0.640716
-275.841492 110.108704 -49.298302 0.639151
-262.358185 110.108704 -49.298302 0.646275
-248.874893 110.108704 -49.298302 0.718314
-235.391602 110.108704 -49.298302 0.754568
-221.908295 110.108704 -49.298302 0.971843
-208.424988 110.108704 -49.298302 1.013573
-194.941696 110.108704 -49.298302 1.547228
-181.458389 110.108704 -49.298302 1.537395
-167.975098 110.108704 -49.298302 2.026011
-154.491791 110.108704 -49.298302 2.428518
-141.008499 110.108704 -49.298302 2.510490
-127.525192 110.108704 -49.298302 3.178962
-114.041885 110.108704 -49.298302 3.246388
-100.558594 110.108704 -49.298302 3.356228
-87.075287 110.108704 -49.298302 3.186562
-73.591980 110.108704 -49.298302 2.802896
-60.108704 110.108704 -49.298302 2.182997
-46.625397 110.108704 -49.298302 1.273467
-33.142090 110.108704 -49.298302 0.405531
-19.658783 110.108704 -49.298302 0.175906
-6.175476 110.108704 -49.298302 -0.270931
7.307800 110.108704 -49.298302 -1.077042
20.791107 110.108704 -49.298302 -1.675499
34.274414 110.108704 -49.298302 -2.115723
47.757721 110.108704 -49.298302 -2.750551
61.240997 110.108704 -49.298302 -2.514947
74.724304 110.108704 -49.298302 -2.355866
88.207611 110.108704 -49.298302 -2.277534
101.690918 110.108704 -49.298302 -1.573977
115.174225 110.108704 -49.298302 -1.032460
128.657501 110.108704 -49.298302 -0.590488
142.140808 110.108704 -49.298302 -0.346924
155.624115 110.108704 -49.298302 -0.289712
169.107422 110.108704 -49.298302 -0.193555
182.590698 110.108704 -49.298302 -0.162819
196.074036 110.108704 -49.298302 -0.111188
209.557312 110.108704 -49.298302 -0.126773
223.040588 110.108704 -49.298302 -0.024765
236.523926 110.108704 -49.298302 -0.009048
250.007202 110.108704 -49.298302 0.004630
263.490540 110.108704 -49.298302 0.001309
276.973816 110.108704 -49.298302 0.008038
290.457092 110.108704 -49.298302 -0.001869
303.940430 110.108704 -49.298302 0.000000
317.423706 110.108704 -49.298302 0.000000
330.907043 110.108704 -49.298302 0.000000
344.390320 110.108704 -49.298302 0.000000
-343.257996 96.625397 -49.298302 0.000000
-329.774689 96.625397 -49.298302 0.000000
-316.291382 96.625397 -49.298302 0.000000
-302.808105 96.625397 -49.298302 0.000000
-289.324799 96.625397 -49.298302 0.472559
-275.841492 96.625397 -49.298302 0.539939
-262.358185 96.625397 -49.298302 0.683434
-248.874893 96.625397 -49.298302 0.795858
-235.391602 96.625397 -49.298302 0.736147
-221.908295 96.625397 -49.298302 0.908868
-208.424988 96.625397 -49.298302 1.261268
-194.941696 96.625397 -49.298302 1.482904
-181.458389 96.625397 -49.298302 1.549721
-167.975098 96.625397 -49.298302 2.278893
-154.491791 96.625397 -49.298302 3.078461
-141.008499 96.625397 -49.298302 3.437295
-127.525192 96.625397 -49.298302 3.688435
-114.041885 96.625397 -49.298302 3.748167
-100.558594 96.625397 -49.298302 3.822735
-87.075287 96.625397 -49.298302 3.341188
-73.591980 96.625397 -49.298302 2.934708
-60.108704 96.625397 -49.298302 2.491248
-46.625397 96.625397 -49.298302 1.850925
-33.142090 96.625397 -49.298302 0.950041
-19.658783 96.625397 -49.298302 0.482331
-6.175476 96.625397 -49.298302 -0.391218
7.307800 96.625397 -49.298302 -1.033062
20.791107 96.625397 -49.298302 -1.546898
34.274414 96.625397 -49.298302 -2.033248
47.757721 96.625397 -49.298302 -2.762418
61.240997 96.625397 -49.298302 -2.949316
74.724304 96.625397 -49.298302 -2.763553
88.207611 96.625397 -49.298302 -2.884655
101.690918 96.625397 -49.298302 -2.195437
115.174225 96.625397 -49.298302 -1.393902
128.657501 96.625397 -49.298302 -0.646008
142.140808 96.625397 -49.298302 -0.354289
155.624115 96.625397 -49.298302 -0.221660
169.107422 96.625397 -49.298302 -0.200294
182.590698 96.625397 -49.298302 -0.211424
196.074036 96.625397 -49.298302 -0.099217
209.557312 96.625397 -49.298302 -0.076401
223.040588 96.625397 -49.298302 -0.030831
236.523926 96.625397 -49.298302 0.000530
250.007202 96.625397 -49.298302 -0.002130
263.490540 96.625397 -49.298302 -0.001601
276.973816 96.625397 -49.298302 -0.002527
290.457092 96.625397 -49.298302 -0.005290
303.940430 96.625397 -49.298302 0.000000
317.423706 96.625397 -49.298302 0.000000
330.907043 96.625397 -49.298302 0.000000
344.390320 96.625397 -49.298302 0.000000
-343.257996 83.142090 -49.298302 0.000000
-329.774689 83.142090 -49.298302 0.000000
-316.291382 83.142090 -49.298302 0.000000
-302.808105 83.142090 -49.298302 0.000000
-289.324799 83.142090 -49.298302 0.357678
-275.841492 83.142090 -49.298302 0.598008
-262.358185 83.142090 -49.298302 0.614555
-248.874893 83.142090 -49.298302 0.643139
-235.391602 83.142090 -49.298302 0.643466
-221.908295 83.142090 -49.298302 0.960022
-208.424988 83.142090 -49.298302 1.163108
-194.941696 83.142090 -49.298302 1.206638
-181.458389 83.142090 -49.298302 1.616843
-167.975098 83.142090 -49.298302 2.793315
-154.491791 83.142090 -49.298302 3.502887
-141.008499 83.142090 -49.298302 4.157242
-127.525192 83.142090 -49.298302 4.780812
-114.041885 83.142090 -49.298302 4.088965
-100.558594 83.142090 -49.298302 4.111664
-87.075287 83.142090 -49.298302 3.385603
-73.591980 83.142090 -49.298302 3.155565
-60.108704 83.142090 -49.298302 2.677768
-46.625397 83.142090 -49.298302 1.941023
-33.142090 83.142090 -49.298302 1.173127
-19.658783 83.142090 -49.298302 0.417854
-6.175476 83.142090 -49.298302 -0.095605
7.307800 83.142090 -49.298302 -0.762758
20.791107 83.142090 -49.298302 -1.490849
34.274414 83.142090 -49.298302 -2.194449
47.757721 83.142090 -49.298302 -2.416098
61.240997 83.142090 -49.298302 -2.908068
74.724304 83.142090 -49.298302 -2.944502
88.207611 83.142090 -49.298302 -3.000046
101.690918 83.142090 -49.298302 -2.429765
115.174225 83.142090 -49.298302 -1.856983
128.657501 83.142090 -49.298302 -1.104834
142.140808 83.142090 -49.298302 -0.777521
155.624115 83.142090 -49.298302 -0.350418
169.107422 83.142090 -49.298302 -0.259656
182.590698 83.142090 -49.298302 -0.317613
196.074036 83.142090 -49.298302 -0.158197
209.557312 83.142090 -49.298302 -0.103497
223.040588 83.142090 -49.298302 -0.022941
236.523926 83.142090 -49.298302 -0.001426
250.007202 83.142090 -49.298302 0.009602
263.490540 83.142090 -49.298302 0.006098
276.973816 83.142090 -49.298302 0.012330
290.457092 83.142090 -49.298302 0.004515
303.940430 83.142090 -49.298302 0.000000
317.423706 83.142090 -49.298302 0.000000
330.907043 83.142090 -49.298302 0.000000
344.390320 83.142090 -49.298302 0.000000
-343.257996 69.658783 -49.298302 0.000000
-329.774689 69.658783 -49.298302 0.000000
-316.291382 69.658783 -49.298302 0.000000
-302.808105 69.658783 -49.298302 0.000000
-289.324799 69.658783 -49.298302 0.426598
-275.841492 69.658783 -49.298302 0.566862
-262.358185 69.658783 -49.298302 0.488349
-248.874893 69.658783 -49.298302 0.605671
-235.391602 69.658783 -49.298302 0.575885
-221.908295 69.658783 -49.298302 0.748060
-208.424988 69.658783 -49.298302 1.037561
-194.941696 69.658783 -49.298302 1.308832
-181.458389 69.658783 -49.298302 1.936302
-167.975098 69.658783 -49.298302 2.885500
-154.491791 69.658783 -49.298302 3.852947
-141.008499 69.658783 -49.298302 5.022153
-127.525192 69.658783 -49.298302 5.691452
-114.041885 69.658783 -49.298302 5.109600
-100.558594 69.658783 -49.298302 4.731217
-87.075287 69.658783 -49.298302 4.164067
-73.591980 69.658783 -49.298302 3.063850
-60.108704 69.658783 -49.298302 2.725768
-46.625397 69.658783 -49.298302 1.984795
-33.142090 69.658783 -49.298302 1.229843
-19.658783 69.658783 -49.298302 0.720775
-6.175476 69.658783 -49.298302 0.133399
7.307800 69.658783 -49.298302 -0.413173
20.791107 69.658783 -49.298302 -0.730250
34.274414 69.658783 -49.298302 -1.670711
47.757721 69.658783 -49.298302 -2.309848
61.240997 69.658783 -49.298302 -2.982330
74.724304 69.658783 -49.298302 -3.150183
88.207611 69.658783 -49.298302 -3.029417
101.690918 69.658783 -49.298302 -2.604444
115.174225 69.658783 -49.298302 -2.285598
128.657501 69.658783 -49.298302 -1.497810
142.140808 69.658783 -49.298302 -1.040279
155.624115 69.658783 -49.298302 -0.826730
169.107422 69.658783 -49.298302 -0.584867
182.590698 69.658783 -49.298302 -0.579761
196.074036 69.658783 -49.298302 -0.375202
209.557312 69.658783 -49.298302 -0.116857
223.040588 69.658783 -49.298302 0.000591
236.523926 69.658783 -49.298302 -0.009392
250.007202 69.658783 -49.298302 0.013387
263.490540 69.658783 -49.298302 0.029490
276.973816 69.658783 -49.298302 0.020639
290.457092 69.658783 -49.298302 0.020355
303.940430 69.658783 -49.298302 0.000000
317.423706 69.658783 -49.298302 0.000000
330.907043 69.658783 -49.298302 0.000000
344.390320 69.658783 -49.298302 0.000000
-343.257996 56.175476 -49.298302 0.000000
-329.774689 56.175476 -49.298302 0.000000
-316.291382 56.175476 -49.298302 0.000000
-302.808105 56.175476 -49.298302 0.000000
-289.324799 56.175476 -49.298302 0.362923
-275.841492 56.175476 -49.298302 0.464293
-262.358185 56.175476 -49.298302 0.526855
-248.874893 56.175476 -49.298302 0.420728
-235.391602 56.175476 -49.298302 0.435721
-221.908295 56.175476 -49.298302 0.695572
-208.424988 56.175476 -49.298302 1.179040
-194.941696 56.175476 -49.298302 1.430079
-181.458389 56.175476 -49.298302 2.286728
-167.975098 56.175476 -49.298302 3.880867
-154.491791 56.175476 -49.298302 4.858531
-141.008499 56.175476 -49.298302 5.610024
-127.525192 56.175476 -49.298302 5.352160
-114.041885 56.175476 -49.298302 5.166866
-100.558594 56.175476 -49.298302 5.053541
-87.075287 56.175476 -49.298302 4.785903
-73.591980 56.175476 -49.298302 3.269011
-60.108704 56.175476 -49.298302 2.535151
-46.625397 56.175476 -49.298302 2.032214
-33.142090 56.175476 -49.298302 1.668409
-19.658783 56.175476 -49.298302 0.874223
-6.175476 56.175476 -49.298302 0.211589
7.307800 56.175476 -49.298302 -0.547010
20.791107 56.175476 -49.298302 -0.814130
34.274414 56.175476 -49.298302 -1.326650
47.757721 56.175476 -49.298302 -2.004806
61.240997 56.175476 -49.298302 -2.891122
74.724304 56.175476 -49.298302 -3.082748
88.207611 56.175476 -49.298302 -3.046805
101.690918 56.175476 -49.298302 -2.856495
115.174225 56.175476 -49.298302 -2.019265
128.657501 56.175476 -49.298302 -1.604707
142.140808 56.175476 -49.298302 -1.472458
155.624115 56.175476 -49.298302 -1.234199
169.107422 56.175476 -49.298302 -1.074625
182.590698 56.175476 -49.298302 -0.945929
196.074036 56.175476 -49.298302 -0.624201
209.557312 56.175476 -49.298302 -0.287923
223.040588 56.175476 -49.298302 -0.035100
236.523926 56.175476 -49.298302 -0.045519
250.007202 56.175476 -49.298302 -0.043666
263.490540 56.175476 -49.298302 0.022254
276.973816 56.175476 -49.298302 0.049022
290.457092 56.175476 -49.298302 0.019703
303.940430 56.175476 -49.298302 0.000000
317.423706 56.175476 -49.298302 0.000000
330.907043 56.175476 -49.298302 0.000000
344.390320 56.175476 -49.298302 0.000000
-343.257996 42.692200 -49.298302 0.000000
-329.774689 42.692200 -49.298302 0.000000
-316.291382 42.692200 -49.298302 0.000000
-302.808105 42.692200 -49.298302 0.000000
-289.324799 42.692200 -49.298302 0.313054
-275.841492 42.692200 -49.298302 0.485954
-262.358185 42.692200 -49.298302 0.523488
-248.874893 42.692200 -49.298302 0.465004
-235.391602 42.692200 -49.298302 0.715412
-221.908295 42.692200 -49.298302 0.916605
-208.424988 42.692200 -49.298302 1.528258
-194.941696 42.692200 -49.298302 1.958619
-181.458389 42.692200 -49.298302 2.898731
-167.975098 42.692200 -49.298302 4.424076
-154.491791 42.692200 -49.298302 5.082089
-141.008499 42.692200 -49.298302 5.781878
-127.525192 42.692200 -49.298302 5.855173
-114.041885 42.692200 -49.298302 5.675265
-100.558594 42.692200 -49.298302 5.173443
-87.075287 42.692200 -49.298302 4.318855
-73.591980 42.692200 -49.298302 3.367971
-60.108704 42.692200 -49.298302 2.665815
-46.625397 42.692200 -49.298302 2.070056
-33.142090 42.692200 -49.298302 1.774287
-19.658783 42.692200 -49.298302 1.126285
-6.175476 42.692200 -49.298302 0.308320
7.307800 42.692200 -49.298302 -0.226440
20.791107 42.692200 -49.298302 -0.970345
34.274414 42.692200 -49.298302 -1.315276
47.757721 42.692200 -49.298302 -1.690858
61.240997 42.692200 -49.298302 -2.411204
74.724304 42.692200 -49.298302 -2.409930
88.207611 42.692200 -49.298302 -2.529312
101.690918 42.692200 -49.298302 -2.413954
115.174225 42.692200 -49.298302 -1.997920
128.657501 42.692200 -49.298302 -1.806141
142.140808 42.692200 -49.298302 -1.769619
155.624115 42.692200 -49.298302 -1.565472
169.107422 42.692200 -49.298302 -1.456805
182.590698 42.692200 -49.298302 -1.259512
196.074036 42.692200 -49.298302 -0.781747
209.557312 42.692200 -49.298302 -0.388991
223.040588 42.692200 -49.298302 -0.161118
236.523926 42.692200 -49.298302 -0.159251
250.007202 42.692200 -49.298302 -0.012369
263.490540 42.692200 -49.298302 -0.005222
276.973816 42.692200 -49.298302 0.006972
290.457092 42.692200 -49.298302 0.030050
303.940430 42.692200 -49.298302 0.000000
317.423706 42.692200 -49.298302 0.000000
330.907043 42.692200 -49.298302 0.000000
344.390320 42.692200 -49.298302 0.000000
-343.257996 29.208893 -49.298302 0.000000
-329.774689 29.208893 -49.298302 0.000000
-316.291382 29.208893 -49.298302 0.000000
-302.808105 29.208893 -49.298302 0.000000
-289.324799 29.208893 -49.298302 -0.014328
-275.841492 29.208893 -49.298302 0.260610
-262.358185 29.208893 -49.298302 0.446971
-248.874893 29.208893 -49.298302 0.535042
-235.391602 29.208893 -49.298302 0.832005
-221.908295 29.208893 -49.298302 1.336107
-208.424988 29.208893 -49.298302 1.336469
-194.941696 29.208893 -49.298302 2.076841
-181.458389 29.208893 -49.298302 3.055674
-167.975098 29.208893 -49.298302 4.063897
-154.491791 29.208893 -49.298302 5.007261
-141.008499 29.208893 -49.298302 5.910132
-127.525192 29.208893 -49.298302 5.834045
-114.041885 29.208893 -49.298302 5.833539
-100.558594 29.208893 -49.298302 5.390224
-87.075287 29.208893 -49.298302 4.275713
-73.591980 29.208893 -49.298302 3.174289
-60.108704 29.208893 -49.298302 2.236933
-46.625397 29.208893 -49.298302 1.926174
-33.142090 29.208893 -49.298302 1.731264
-19.658783 29.208893 -49.298302 0.952708
-6.175476 29.208893 -49.298302 0.301950
7.307800 29.208893 -49.298302 -0.209852
20.791107 29.208893 -49.298302 -0.892526
34.274414 29.208893 -49.298302 -0.950314
47.757721 29.208893 -49.298302 -1.291757
61.240997 29.208893 -49.298302 -1.964686
74.724304 29.208893 -49.298302 -2.202868
88.207611 29.208893 -49.298302 -2.448474
101.690918 29.208893 -49.298302 -2.342311
115.174225 29.208893 -49.298302 -1.869995
128.657501 29.208893 -49.298302 -1.602052
142.140808 29.208893 -49.298302 -1.733948
155.624115 29.208893 -49.298302 -1.492404
169.107422 29.208893 -49.298302 -1.598760
182.590698 29.208893 -49.298302 -1.325448
196.074036 29.208893 -49.298302 -1.056769
209.557312 29.208893 -49.298302 -0.632534
223.040588 29.208893 -49.298302 -0.403230
236.523926 29.208893 -49.298302 -0.302466
250.007202 29.208893 -49.298302 -0.135624
263.490540 29.208893 -49.298302 -0.018503
276.973816 29.208893 -49.298302 -0.016558
290.457092 29.208893 -49.298302 0.000076
303.940430 29.208893 -49.298302 0.000000
317.423706 29.208893 -49.298302 0.000000
330.907043 29.208893 -49.298302 0.000000
344.390320 29.208893 -49.298302 0.000000
-343.257996 15.725586 -49.298302 0.000000
-329.774689 15.725586 -49.298302 0.000000
-316.291382 15.725586 -49.298302 0.000000
-302.808105 15.725586 -49.298302 0.000000
-289.324799 15.725586 -49.298302 0.064530
-275.841492 15.725586 -49.298302 0.006629
-262.358185 15.725586 -49.298302 0.270922
-248.874893 15.725586 -49.298302 0.701430
-235.391602 15.725586 -49.298302 0.464435
-221.908295 15.725586 -49.298302 0.737925
-208.424988 15.725586 -49.298302 1.323515
-194.941696 15.725586 -49.298302 2.111798
-181.458389 15.725586 -49.298302 2.878804
-167.975098 15.725586 -49.298302 4.119696
-154.491791 15.725586 -49.298302 5.567726
-141.008499 15.725586 -49.298302 6.043840
-127.525192 15.725586 -49.298302 6.130464
-114.041885 15.725586 -49.298302 5.286765
-100.558594 15.725586 -49.298302 4.573622
-87.075287 15.725586 -49.298302 3.997483
-73.591980 15.725586 -49.298302 3.516054
-60.108704 15.725586 -49.298302 2.175816
-46.625397 15.725586 -49.298302 1.976300
-33.142090 15.725586 -49.298302 1.526187
-19.658783 15.725586 -49.298302 0.998697
-6.175476 15.725586 -49.298302 0.341512
7.307800 15.725586 -49.298302 -0.169982
20.791107 15.725586 -49.298302 -0.932614
34.274414 15.725586 -49.298302 -1.090478
47.757721 15.725586 -49.298302 -1.300952
61.240997 15.725586 -49.298302 -1.923138
74.724304 15.725586 -49.298302 -2.266948
88.207611 15.725586 -49.298302 -2.290756
101.690918 15.725586 -49.298302 -2.167687
115.174225 15.725586 -49.298302 -1.857859
128.657501 15.725586 -49.298302 -1.620002
142.140808 15.725586 -49.298302 -1.662952
155.624115 15.725586 -49.298302 -1.472433
169.107422 15.725586 -49.298302 -1.545502
182.590698 15.725586 -49.298302 -1.298789
196.074036 15.725586 -49.298302 -1.138614
209.557312 15.725586 -49.298302 -0.785851
223.040588 15.725586 -49.298302 -0.571153
236.523926 15.725586 -49.298302 -0.391320
250.007202 15.725586 -49.298302 -0.230957
263.490540 15.725586 -49.298302 -0.104735
276.973816 15.725586 -49.298302 -0.024901
290.457092 15.725586 -49.298302 0.039244
303.940430 15.725586 -49.298302 0.000000
317.423706 15.725586 -49.298302 0.000000
330.907043 15.725586 -49.298302 0.000000
344.390320 15.725586 -49.298302 0.000000
-343.257996 2.242279 -49.298302 0.000000
-329.774689 2.242279 -49.298302 0.000000
-316.291382 2.242279 -49.298302 0.000000
-302.808105 2.242279 -49.298302 0.000000
-289.324799 2.242279 -49.298302 0.301835
-275.841492 2.242279 -49.298302 0.181139
-262.358185 2.242279 -49.298302 0.301359
-248.874893 2.242279 -49.298302 0.710539
-235.391602 2.242279 -49.298302 0.881960
-221.908295 2.242279 -49.298302 1.397555
-208.424988 2.242279 -49.298302 1.813776
-194.941696 2.242279 -49.298302 2.248365
-181.458389 2.242279 -49.298302 3.154947
-167.975098 2.242279 -49.298302 4.396429
-154.491791 2.242279 -49.298302 5.003216
-141.008499 2.242279 -49.298302 6.121020
-127.525192 2.242279 -49.298302 6.265885
-114.041885 2.242279 -49.298302 5.026925
-100.558594 2.242279 -49.298302 3.140148
-87.075287 2.242279 -49.298302 2.866822
-73.591980 2.242279 -49.298302 2.064544
-60.108704 2.242279 -49.298302 2.246867
-46.625397 2.242279 -49.298302 1.810974
-33.142090 2.242279 -49.298302 1.153000
-19.658783 2.242279 -49.298302 0.669725
-6.175476 2.242279 -49.298302 -0.057822
7.307800 2.242279 -49.298302 -0.645893
20.791107 2.242279 -49.298302 -0.815132
34.274414 2.242279 -49.298302 -1.378855
47.757721 2.242279 -49.298302 -1.537348
61.240997 2.242279 -49.298302 -1.943222
74.724304 2.242279 -49.298302 -2.570314
88.207611 2.242279 -49.298302 -2.162052
101.690918 2.242279 -49.298302 -1.958909
115.174225 2.242279 -49.298302 -1.869999
128.657501 2.242279 -49.298302 -1.597880
142.140808 2.242279 -49.298302 -1.402659
155.624115 2.242279 -49.298302 -1.237457
169.107422 2.242279 -49.298302 -1.344374
182.590698 2.242279 -49.298302 -1.262819
196.074036 2.242279 -49.298302 -1.159199
209.557312 2.242279 -49.298302 -0.908951
223.040588 2.242279 -49.298302 -0.628024
236.523926 2.242279 -49.298302 -0.425187
250.007202 2.242279 -49.298302 -0.303361
263.490540 2.242279 -49.298302 -0.196779
276.973816 2.242279 -49.298302 -0.142507
290.457092 2.242279 -49.298302 -0.056736
303.940430 2.242279 -49.298302 0.000000
317.423706 2.242279 -49.298302 0.000000
330.907043 2.242279 -49.298302 0.000000
344.390320 2.242279 -49.298302 0.000000
-343.257996 -11.240997 -49.298302 0.000000
-329.774689 -11.240997 -49.298302 0.000000
-316.291382 -11.240997 -49.298302 0.000000
-302.808105 -11.240997 -49.298302 0.000000
-289.324799 -11.240997 -49.298302 0.118313
-275.841492 -11.240997 -49.298302 -0.025102
-262.358185 -11.240997 -49.298302 0.177023
-248.874893 -11.240997 -49.298302 0.512808
-235.391602 -11.240997 -49.298302 0.746037
-221.908295 -11.240997 -49.298302 1.072805
-208.424988 -11.240997 -49.298302 1.989623
-194.941696 -11.240997 -49.298302 2.338502
-181.458389 -11.240997 -49.298302 3.339848
-167.975098 -11.240997 -49.298302 4.419123
-154.491791 -11.240997 -49.298302 5.565223
-141.008499 -11.240997 -49.298302 5.679942
-127.525192 -11.240997 -49.298302 5.351891
-114.041885 -11.240997 -49.298302 4.240310
-100.558594 -11.240997 -49.298302 3.273104
-87.075287 -11.240997 -49.298302 2.135600
-73.591980 -11.240997 -49.298302 1.908624
-60.108704 -11.240997 -49.298302 1.946628
-46.625397 -11.240997 -49.298302 1.503151
-33.142090 -11.240997 -49.298302 1.092323
-19.658783 -11.240997 -49.298302 0.382521
-6.175476 -11.240997 -49.298302 -0.205673
7.307800 -11.240997 -49.298302 -0.996705
20.791107 -11.240997 -49.298302 -1.096448
34.274414 -11.240997 -49.298302 -1.581578
47.757721 -11.240997 -49.298302 -1.876281
61.240997 -11.240997 -49.298302 -2.513331
74.724304 -11.240997 -49.298302 -2.635253
88.207611 -11.240997 -49.298302 -2.311750
101.690918 -11.240997 -49.298302 -2.103306
115.174225 -11.240997 -49.298302 -1.515880
128.657501 -11.240997 -49.298302 -1.472438
142.140808 -11.240997 -49.298302 -1.242897
155.624115 -11.240997 -49.298302 -1.117785
169.107422 -11.240997 -49.298302 -1.250958
182.590698 -11.240997 -49.298302 -1.173082
196.074036 -11.240997 -49.298302 -1.190469
209.557312 -11.240997 -49.298302 -1.043202
223.040588 -11.240997 -49.298302 -0.755262
236.523926 -11.240997 -49.298302 -0.494360
250.007202 -11.240997 -49.298302 -0.360676
263.490540 -11.240997 -49.298302 -0.266626
276.973816 -11.240997 -49.298302 -0.210156
290.457092 -11.240997 -49.298302 -0.110619
303.940430 -11.240997 -49.298302 0.000000
317.423706 -11.240997 -49.298302 0.000000
330.907043 -11.240997 -49.298302 0.000000
344.390320 -11.240997 -49.298302 0.000000
-343.257996 -24.724304 -49.298302 0.000000
-329.774689 -24.724304 -49.298302 0.000000
-316.291382 -24.724304 -49.298302 0.000000
-302.808105 -24.724304 -49.298302 0.000000
-289.324799 -24.724304 -49.298302 0.145416
-275.841492 -24.724304 -49.298302 0.154746
-262.358185 -24.724304 -49.298302 -0.057038
-248.874893 -24.724304 -49.298302 0.110997
-235.391602 -24.724304 -49.298302 0.706160
-221.908295 -24.724304 -49.298302 1.251790
-208.424988 -24.724304 -49.298302 1.663761
-194.941696 -24.724304 -49.298302 2.742321
-181.458389 -24.724304 -49.298302 3.416970
-167.975098 -24.724304 -49.298302 4.435350
-154.491791 -24.724304 -49.298302 4.809980
-141.008499 -24.724304 -49.298302 4.940604
-127.525192 -24.724304 -49.298302 4.724389
-114.041885 -24.724304 -49.298302 3.738506
-100.558594 -24.724304 -49.298302 2.461879
-87.075287 -24.724304 -49.298302 1.260810
-73.591980 -24.724304 -49.298302 1.516259
-60.108704 -24.724304 -49.298302 1.340687
-46.625397 -24.724304 -49.298302 0.886588
-33.142090 -24.724304 -49.298302 0.731745
-19.658783 -24.724304 -49.298302 0.150727
-6.175476 -24.724304 -49.298302 -0.599428
7.307800 -24.724304 -49.298302 -1.279774
20.791107 -24.724304 -49.298302 -1.281302
34.274414 -24.724304 -49.298302 -1.857441
47.757721 -24.724304 -49.298302 -2.107966
61.240997 -24.724304 -49.298302 -2.419883
74.724304 -24.724304 -49.298302 -2.606163
88.207611 -24.724304 -49.298302 -2.164254
101.690918 -24.724304 -49.298302 -2.000526
115.174225 -24.724304 -49.298302 -1.498897
128.657501 -24.724304 -49.298302 -1.336769
142.140808 -24.724304 -49.298302 -1.220004
155.624115 -24.724304 -49.298302 -1.061611
169.107422 -24.724304 -49.298302 -1.012532
182.590698 -24.724304 -49.298302 -1.158750
196.074036 -24.724304 -49.298302 -1.184942
209.557312 -24.724304 -49.298302 -1.107380
223.040588 -24.724304 -49.298302 -0.811519
236.523926 -24.724304 -49.298302 -0.585372
250.007202 -24.724304 -49.298302 -0.345187
263.490540 -24.724304 -49.298302 -0.292747
276.973816 -24.724304 -49.298302 -0.232039
290.457092 -24.724304 -49.298302 -0.124756
303.940430 -24.724304 -49.298302 0.000000
317.423706 -24.724304 -49.298302 0.000000
330.907043 -24.724304 -49.298302 0.000000
344.390320 -24.724304 -49.298302 0.000000
-343.257996 -38.207611 -49.298302 0.000000
-329.774689 -38.207611 -49.298302 0.000000
-316.291382 -38.207611 -49.298302 0.000000
-302.808105 -38.207611 -49.298302 0.000000
-289.324799 -38.207611 -49.298302 0.214254
-275.841492 -38.207611 -49.298302 0.427306
-262.358185 -38.207611 -49.298302 0.352898
-248.874893 -38.207611 -49.298302 0.113554
-235.391602 -38.207611 -49.298302 0.756244
-221.908295 -38.207611 -49.298302 1.213495
-208.424988 -38.207611 -49.298302 1.924345
-194.941696 -38.207611 -49.298302 2.088532
-181.458389 -38.207611 -49.298302 3.574550
-167.975098 -38.207611 -49.298302 2.928132
-154.491791 -38.207611 -49.298302 3.204762
-141.008499 -38.207611 -49.298302 3.791219
-127.525192 -38.207611 -49.298302 2.678320
-114.041885 -38.207611 -49.298302 2.693191
-100.558594 -38.207611 -49.298302 1.808733
-87.075287 -38.207611 -49.298302 0.841312
-73.591980 -38.207611 -49.298302 0.616077
-60.108704 -38.207611 -49.298302 0.668741
-46.625397 -38.207611 -49.298302 0.129160
-33.142090 -38.207611 -49.298302 -0.278136
-19.658783 -38.207611 -49.298302 -0.283925
-6.175476 -38.207611 -49.298302 -1.037338
7.307800 -38.207611 -49.298302 -1.762115
20.791107 -38.207611 -49.298302 -1.633085
34.274414 -38.207611 -49.298302 -2.355659
47.757721 -38.207611 -49.298302 -2.662118
61.240997 -38.207611 -49.298302 -2.251954
74.724304 -38.207611 -49.298302 -2.092203
88.207611 -38.207611 -49.298302 -1.972680
101.690918 -38.207611 -49.298302 -1.676421
115.174225 -38.207611 -49.298302 -1.426521
128.657501 -38.207611 -49.298302 -1.109782
142.140808 -38.207611 -49.298302 -0.814042
155.624115 -38.207611 -49.298302 -0.984565
169.107422 -38.207611 -49.298302 -0.801329
182.590698 -38.207611 -49.298302 -0.834343
196.074036 -38.207611 -49.298302 -0.939213
209.557312 -38.207611 -49.298302 -0.868461
223.040588 -38.207611 -49.298302 -0.726839
236.523926 -38.207611 -49.298302 -0.645265
250.007202 -38.207611 -49.298302 -0.482515
263.490540 -38.207611 -49.298302 -0.430419
276.973816 -38.207611 -49.298302 -0.335864
290.457092 -38.207611 -49.298302 -0.318534
303.940430 -38.207611 -49.298302 0.000000
317.423706 -38.207611 -49.298302 0.000000
330.907043 -38.207611 -49.298302 0.000000
344.390320 -38.207611 -49.298302 0.000000
-343.257996 -51.690918 -49.298302 0.000000
-329.774689 -51.690918 -49.298302 0.000000
-316.291382 -51.690918 -49.298302 0.000000
-302.808105 -51.690918 -49.298302 0.000000
-289.324799 -51.690918 -49.298302 0.073110
-275.841492 -51.690918 -49.298302 0.253766
-262.358185 -51.690918 -49.298302 0.208672
-248.874893 -51.690918 -49.298302 0.504010
-235.391602 -51.690918 -49.298302 1.240435
-221.908295 -51.690918 -49.298302 1.464645
-208.424988 -51.690918 -49.298302 1.311174
-194.941696 -51.690918 -49.298302 1.585423
-181.458389 -51.690918 -49.298302 2.074002
-167.975098 -51.690918 -49.298302 1.846209
-154.491791 -51.690918 -49.298302 2.314626
-141.008499 -51.690918 -49.298302 2.577459
-127.525192 -51.690918 -49.298302 2.024545
-114.041885 -51.690918 -49.298302 1.719995
-100.558594 -51.690918 -49.298302 0.908443
-87.075287 -51.690918 -49.298302 0.333594
-73.591980 -51.690918 -49.298302 0.102569
-60.108704 -51.690918 -49.298302 0.248277
-46.625397 -51.690918 -49.298302 0.048616
-33.142090 -51.690918 -49.298302 -0.908468
-19.658783 -51.690918 -49.298302 -0.810853
-6.175476 -51.690918 -49.298302 -1.714382
7.307800 -51.690918 -49.298302 -2.004950
20.791107 -51.690918 -49.298302 -2.026384
34.274414 -51.690918 -49.298302 -2.446490
47.757721 -51.690918 -49.298302 -2.205788
61.240997 -51.690918 -49.298302 -1.768799
74.724304 -51.690918 -49.298302 -1.577001
88.207611 -51.690918 -49.298302 -1.323303
101.690918 -51.690918 -49.298302 -1.075311
115.174225 -51.690918 -49.298302 -0.864550
128.657501 -51.690918 -49.298302 -0.719981
142.140808 -51.690918 -49.298302 -0.682452
155.624115 -51.690918 -49.298302 -0.581093
169.107422 -51.690918 -49.298302 -0.606956
182.590698 -51.690918 -49.298302 -0.677674
196.074036 -51.690918 -49.298302 -0.785211
209.557312 -51.690918 -49.298302 -0.726134
223.040588 -51.690918 -49.298302 -0.584986
236.523926 -51.690918 -49.298302 -0.435586
250.007202 -51.690918 -49.298302 -0.394462
263.490540 -51.690918 -49.298302 -0.339342
276.973816 -51.690918 -49.298302 -0.155798
290.457092 -51.690918 -49.298302 -0.164543
303.940430 -51.690918 -49.298302 0.000000
317.423706 -51.690918 -49.298302 0.000000
330.907043 -51.690918 -49.298302 0.000000
344.390320 -51.690918 -49.298302 0.000000
-343.257996 -65.174225 -49.298302 0.000000
-329.774689 -65.174225 -49.298302 0.000000
-316.291382 -65.174225 -49.298302 0.000000
-302.808105 -65.174225 -49.298302 0.000000
-289.324799 -65.174225 -49.298302 -0.277624
-275.841492 -65.174225 -49.298302 0.058816
-262.358185 -65.174225 -49.298302 0.519253
-248.874893 -65.174225 -49.298302 0.572310
-235.391602 -65.174225 -49.298302 0.879325
-221.908295 -65.174225 -49.298302 0.833595
-208.424988 -65.174225 -49.298302 1.088085
-194.941696 -65.174225 -49.298302 0.889664
-181.458389 -65.174225 -49.298302 0.000000
-167.975098 -65.174225 -49.298302 0.000000
-154.491791 -65.174225 -49.298302 0.000000
-141.008499 -65.174225 -49.298302 0.385508
-127.525192 -65.174225 -49.298302 0.387863
-114.041885 -65.174225 -49.298302 0.680596
-100.558594 -65.174225 -49.298302 -0.346946
-87.075287 -65.174225 -49.298302 0.050429
-73.591980 -65.174225 -49.298302 0.041951
-60.108704 -65.174225 -49.298302 -0.477083
-46.625397 -65.174225 -49.298302 -0.635088
-33.142090 -65.174225 -49.298302 -1.038793
-19.658783 -65.174225 -49.298302 -1.466338
-6.175476 -65.174225 -49.298302 -1.998863
7.307800 -65.174225 -49.298302 -1.893005
20.791107 -65.174225 -49.298302 -2.112642
34.274414 -65.174225 -49.298302 -2.237758
47.757721 -65.174225 -49.298302 -1.488896
61.240997 -65.174225 -49.298302 -1.079628
74.724304 -65.174225 -49.298302 -0.864678
88.207611 -65.174225 -49.298302 -0.718576
101.690918 -65.174225 -49.298302 -0.587574
115.174225 -65.174225 -49.298302 -0.511780
128.657501 -65.174225 -49.298302 -0.431355
142.140808 -65.174225 -49.298302 -0.379652
155.624115 -65.174225 -49.298302 -0.325063
169.107422 -65.174225 -49.298302 -0.502595
182.590698 -65.174225 -49.298302 -0.519912
196.074036 -65.174225 -49.298302 -0.677645
209.557312 -65.174225 -49.298302 -0.618140
223.040588 -65.174225 -49.298302 -0.549712
236.523926 -65.174225 -49.298302 -0.575229
250.007202 -65.174225 -49.298302 -0.339418
263.490540 -65.174225 -49.298302 -0.227906
276.973816 -65.174225 -49.298302 -0.372781
290.457092 -65.174225 -49.298302 0.157516
303.940430 -65.174225 -49.298302 0.000000
317.423706 -65.174225 -49.298302 0.000000
330.907043 -65.174225 -49.298302 0.000000
344.390320 -65.174225 -49.298302 0.000000
-343.257996 -78.657501 -49.298302 0.000000
-329.774689 -78.657501 -49.298302 0.000000
-316.291382 -78.657501 -49.298302 0.000000
-302.808105 -78.657501 -49.298302 0.000000
-289.324799 -78.657501 -49.298302 0.429263
-275.841492 -78.657501 -49.298302 0.672749
-262.358185 -78.657501 -49.298302 0.744385
-248.874893 -78.657501 -49.298302 0.628315
-235.391602 -78.657501 -49.298302 0.000000
-221.908295 -78.657501 -49.298302 0.000000
-208.424988 -78.657501 -49.298302 0.000000
-194.941696 -78.657501 -49.298302 0.000000
-181.458389 -78.657501 -49.298302 0.000000
-167.975098 -78.657501 -49.298302 0.000000
-154.491791 -78.657501 -49.298302 0.000000
-141.008499 -78.657501 -49.298302 -0.436185
-127.525192 -78.657501 -49.298302 -0.056952
-114.041885 -78.657501 -49.298302 -0.369097
-100.558594 -78.657501 -49.298302 -0.137726
-87.075287 -78.657501 -49.298302 0.253702
-73.591980 -78.657501 -49.298302 -0.550584
-60.108704 -78.657501 -49.298302 -0.718497
-46.625397 -78.657501 -49.298302 -1.337480
-33.142090 -78.657501 -49.298302 -1.096777
-19.658783 -78.657501 -49.298302 -1.550692
-6.175476 -78.657501 -49.298302 -1.986766
7.307800 -78.657501 -49.298302 -1.771055
20.791107 -78.657501 -49.298302 -1.934083
34.274414 -78.657501 -49.298302 -1.971260
47.757721 -78.657501 -49.298302 -1.258982
61.240997 -78.657501 -49.298302 -0.612879
74.724304 -78.657501 -49.298302 -0.501484
88.207611 -78.657501 -49.298302 -0.520256
101.690918 -78.657501 -49.298302 -0.237890
115.174225 -78.657501 -49.298302 -0.072180
128.657501 -78.657501 -49.298302 -0.100150
142.140808 -78.657501 -49.298302 -0.178162
155.624115 -78.657501 -49.298302 -0.375147
169.107422 -78.657501 -49.298302 -0.291099
182.590698 -78.657501 -49.298302 -0.425802
196.074036 -78.657501 -49.298302 -0.387619
209.557312 -78.657501 -49.298302 -0.407621
223.040588 -78.657501 -49.298302 -0.409851
236.523926 -78.657501 -49.298302 -0.400239
250.007202 -78.657501 -49.298302 -0.381103
263.490540 -78.657501 -49.298302 -0.294535
276.973816 -78.657501 -49.298302 -0.294036
290.457092 -78.657501 -49.298302 -0.082202
303.940430 -78.657501 -49.298302 0.000000
317.423706 -78.657501 -49.298302 0.000000
330.907043 -78.657501 -49.298302 0.000000
344.390320 -78.657501 -49.298302 0.000000
-343.257996 -92.140808 -49.298302 0.000000
-329.774689 -92.140808 -49.298302 0.000000
-316.291382 -92.140808 -49.298302 0.000000
-302.808105 -92.140808 -49.298302 0.000000
-289.324799 -92.140808 -49.298302 0.562569
-275.841492 -92.140808 -49.298302 0.193652
-262.358185 -92.140808 -49.298302 -0.169642
-248.874893 -92.140808 -49.298302 0.000000
-235.391602 -92.140808 -49.298302 0.000000
-221.908295 -92.140808 -49.298302 0.000000
-208.424988 -92.140808 -49.298302 0.000000
-194.941696 -92.140808 -49.298302 0.000000
-181.458389 -92.140808 -49.298302 0.000000
-167.975098 -92.140808 -49.298302 0.000000
-154.491791 -92.140808 -49.298302 0.000000
-141.008499 -92.140808 -49.298302 0.000000
-127.525192 -92.140808 -49.298302 -1.350008
-114.041885 -92.140808 -49.298302 -2.118616
-100.558594 -92.140808 -49.298302 -0.962226
-87.075287 -92.140808 -49.298302 -0.340431
-73.591980 -92.140808 -49.298302 -0.461570
-60.108704 -92.140808 -49.298302 -0.860935
-46.625397 -92.140808 -49.298302 -1.103840
-33.142090 -92.140808 -49.298302 -1.173503
-19.658783 -92.140808 -49.298302 -1.252095
-6.175476 -92.140808 -49.298302 -1.215649
7.307800 -92.140808 -49.298302 -0.882514
20.791107 -92.140808 -49.298302 -1.269297
34.274414 -92.140808 -49.298302 -1.429995
47.757721 -92.140808 -49.298302 -0.914904
61.240997 -92.140808 -49.298302 -0.628695
74.724304 -92.140808 -49.298302 -0.446454
88.207611 -92.140808 -49.298302 -0.236427
101.690918 -92.140808 -49.298302 -0.115811
115.174225 -92.140808 -49.298302 -0.095852
128.657501 -92.140808 -49.298302 -0.069530
142.140808 -92.140808 -49.298302 -0.382288
155.624115 -92.140808 -49.298302 -0.328390
169.107422 -92.140808 -49.298302 -0.346385
182.590698 -92.140808 -49.298302 -0.468949
196.074036 -92.140808 -49.298302 -0.373858
209.557312 -92.140808 -49.298302 -0.455856
223.040588 -92.140808 -49.298302 -0.445007
236.523926 -92.140808 -49.298302 -0.302298
250.007202 -92.140808 -49.298302 -0.027188
263.490540 -92.140808 -49.298302 -0.112757
276.973816 -92.140808 -49.298302 -0.023607
290.457092 -92.140808 -49.298302 0.117414
303.940430 -92.140808 -49.298302 0.000000
317.423706 -92.140808 -49.298302 0.000000
330.907043 -92.140808 -49.298302 0.000000
344.390320 -92.140808 -49.298302 0.000000
-343.257996 -105.624115 -49.298302 0.000000
-329.774689 -105.624115 -49.298302 0.000000
-316.291382 -105.624115 -49.298302 0.000000
-302.808105 -105.624115 -49.298302 0.000000
-289.324799 -105.624115 -49.298302 0.613662
-275.841492 -105.624115 -49.298302 0.967416
-262.358185 -105.624115 -49.298302 0.000000
-248.874893 -105.624115 -49.298302 0.000000
-235.391602 -105.624115 -49.298302 0.000000
-221.908295 -105.624115 -49.298302 0.000000
-208.424988 -105.624115 -49.298302 0.000000
-194.941696 -105.624115 -49.298302 0.000000
-181.458389 -105.624115 -49.298302 0.000000
-167.975098 -105.624115 -49.298302 0.000000
-154.491791 -105.624115 -49.298302 0.000000
-141.008499 -105.624115 -49.298302 0.000000
-127.525192 -105.624115 -49.298302 -3.958445
-114.041885 -105.624115 -49.298302 -2.089531
-100.558594 -105.624115 -49.298302 -1.085586
-87.075287 -105.624115 -49.298302 -1.107368
-73.591980 -105.624115 -49.298302 -1.050277
-60.108704 -105.624115 -49.298302 -1.098043
-46.625397 -105.624115 -49.298302 -1.070904
-33.142090 -105.624115 -49.298302 -1.544762
-19.658783 -105.624115 -49.298302 -1.408933
-6.175476 -105.624115 -49.298302 -0.910999
7.307800 -105.624115 -49.298302 -0.761980
20.791107 -105.624115 -49.298302 -0.637047
34.274414 -105.624115 -49.298302 -0.856524
47.757721 -105.624115 -49.298302 -0.778422
61.240997 -105.624115 -49.298302 -0.319608
74.724304 -105.624115 -49.298302 -0.151838
88.207611 -105.624115 -49.298302 0.024178
101.690918 -105.624115 -49.298302 0.004681
115.174225 -105.624115 -49.298302 -0.103569
128.657501 -105.624115 -49.298302 -0.076145
142.140808 -105.624115 -49.298302 -0.459727
155.624115 -105.624115 -49.298302 -0.463555
169.107422 -105.624115 -49.298302 -0.589673
182.590698 -105.624115 -49.298302 -0.606067
196.074036 -105.624115 -49.298302 -0.388553
209.557312 -105.624115 -49.298302 -0.365266
223.040588 -105.624115 -49.298302 -0.338372
236.523926 -105.624115 -49.298302 -0.186271
250.007202 -105.624115 -49.298302 -0.243986
263.490540 -105.624115 -49.298302 -0.597103
276.973816 -105.624115 -49.298302 -0.401680
290.457092 -105.624115 -49.298302 -0.341136
303.940430 -105.624115 -49.298302 0.000000
317.423706 -105.624115 -49.298302 0.000000
330.907043 -105.624115 -49.298302 0.000000
344.390320 -105.624115 -49.298302 0.000000
-343.257996 -119.107422 -49.298302 0.000000
-329.774689 -119.107422 -49.298302 0.000000
-316.291382 -119.107422 -49.298302 0.000000
-302.808105 -119.107422 -49.298302 0.000000
-289.324799 -119.107422 -49.298302 0.000000
-275.841492 -119.107422 -49.298302 0.000000
-262.358185 -119.107422 -49.298302 0.000000
-248.874893 -119.107422 -49.298302 0.000000
-235.391602 -119.107422 -49.298302 0.000000
-221.908295 -119.107422 -49.298302 0.000000
-208.424988 -119.107422 -49.298302 0.000000
-194.941696 -119.107422 -49.298302 0.000000
-181.458389 -119.107422 -49.298302 0.000000
-167.975098 -119.107422 -49.298302 0.000000
-154.491791 -119.107422 -49.298302 0.000000
-141.008499 -119.107422 -49.298302 0.000000
-127.525192 -119.107422 -49.298302 0.000000
-114.041885 -119.107422 -49.298302 0.000000
-100.558594 -119.107422 -49.298302 -1.162276
-87.075287 -119.107422 -49.298302 -0.705590
-73.591980 -119.107422 -49.298302 -1.486065
-60.108704 -119.107422 -49.298302 -1.049659
-46.625397 -119.107422 -49.298302 -1.682813
-33.142090 -119.107422 -49.298302 -1.610495
-19.658783 -119.107422 -49.298302 -1.095669
-6.175476 -119.107422 -49.298302 -0.507758
7.307800 -119.107422 -49.298302 -0.620762
20.791107 -119.107422 -49.298302 -0.478900
34.274414 -119.107422 -49.298302 -0.599950
47.757721 -119.107422 -49.298302 -0.544334
61.240997 -119.107422 -49.298302 -0.074415
74.724304 -119.107422 -49.298302 0.009209
88.207611 -119.107422 -49.298302 0.119114
101.690918 -119.107422 -49.298302 0.436567
115.174225 -119.107422 -49.298302 0.050543
128.657501 -119.107422 -49.298302 -0.326492
142.140808 -119.107422 -49.298302 -0.716729
155.624115 -119.107422 -49.298302 -0.635722
169.107422 -119.107422 -49.298302 -0.628104
182.590698 -119.107422 -49.298302 -0.523325
196.074036 -119.107422 -49.298302 -0.151094
209.557312 -119.107422 -49.298302 -0.084695
223.040588 -119.107422 -49.298302 -0.312063
236.523926 -119.107422 -49.298302 -0.416766
250.007202 -119.107422 -49.298302 -0.778337
263.490540 -119.107422 -49.298302 -1.351993
276.973816 -119.107422 -49.298302 -0.746407
290.457092 -119.107422 -49.298302 -2.121915
303.940430 -119.107422 -49.298302 0.000000
317.423706 -119.107422 -49.298302 0.000000
330.907043 -119.107422 -49.298302 0.000000
344.390320 -119.107422 -49.298302 0.000000
-343.257996 -132.590698 -49.298302 0.000000
-329.774689 -132.590698 -49.298302 0.000000
-316.291382 -132.590698 -49.298302 0.000000
-302.808105 -132.590698 -49.298302 0.000000
-289.324799 -132.590698 -49.298302 0.000000
-275.841492 -132.590698 -49.298302 0.000000
-262.358185 -132.590698 -49.298302 0.000000
-248.874893 -132.590698 -49.298302 0.000000
-235.391602 -132.590698 -49.298302 0.000000
-221.908295 -132.590698 -49.298302 0.000000
-208.424988 -132.590698 -49.298302 0.000000
-194.941696 -132.590698 -49.298302 0.000000
-181.458389 -132.590698 -49.298302 0.000000
-167.975098 -132.590698 -49.298302 0.000000
-154.491791 -132.590698 -49.298302 0.000000
-141.008499 -132.590698 -49.298302 0.000000
-127.525192 -132.590698 -49.298302 0.000000
-114.041885 -132.590698 -49.298302 0.000000
-100.558594 -132.590698 -49.298302 0.000000
-87.075287 -132.590698 -49.298302 0.000000
-73.591980 -132.590698 -49.298302 0.000000
-60.108704 -132.590698 -49.298302 -1.850718
-46.625397 -132.590698 -49.298302 -1.725398
-33.142090 -132.590698 -49.298302 -1.243428
-19.658783 -132.590698 -49.298302 -1.268909
-6.175476 -132.590698 -49.298302 -0.018482
7.307800 -132.590698 -49.298302 0.224766
20.791107 -132.590698 -49.298302 -0.383422
34.274414 -132.590698 -49.298302 -0.843218
47.757721 -132.590698 -49.298302 -0.661661
61.240997 -132.590698 -49.298302 -0.473718
74.724304 -132.590698 -49.298302 -0.272789
88.207611 -132.590698 -49.298302 0.116094
101.690918 -132.590698 -49.298302 0.241423
115.174225 -132.590698 -49.298302 -0.246426
128.657501 -132.590698 -49.298302 -0.590103
142.140808 -132.590698 -49.298302 -0.698106
155.624115 -132.590698 -49.298302 -1.220641
169.107422 -132.590698 -49.298302 -0.938073
182.590698 -132.590698 -49.298302 -0.997692
196.074036 -132.590698 -49.298302 -0.711473
209.557312 -132.590698 -49.298302 0.000000
223.040588 -132.590698 -49.298302 -0.442257
236.523926 -132.590698 -49.298302 -1.203014
250.007202 -132.590698 -49.298302 -0.961925
263.490540 -132.590698 -49.298302 -1.672144
276.973816 -132.590698 -49.298302 0.000000
290.457092 -132.590698 -49.298302 0.000000
303.940430 -132.590698 -49.298302 0.000000
317.423706 -132.590698 -49.298302 0.000000
330.907043 -132.590698 -49.298302 0.000000
344.390320 -132.590698 -49.298302 0.000000
-343.257996 -146.074036 -49.298302 0.000000
-329.774689 -146.074036 -49.298302 0.000000
-316.291382 -146.074036 -49.298302 0.000000
-302.808105 -146.074036 -49.298302 0.000000
-289.324799 -146.074036 -49.298302 0.000000
-275.841492 -146.074036 -49.298302 0.000000
-262.358185 -146.074036 -49.298302 0.000000
-248.874893 -146.074036 -49.298302 0.000000
-235.391602 -146.074036 -49.298302 0.000000
-221.908295 -146.074036 -49.298302 0.000000
-208.424988 -146.074036 -49.298302 0.000000
-194.941696 -146.074036 -49.298302 0.000000
-181.458389 -146.074036 -49.298302 0.000000
-167.975098 -146.074036 -49.298302 0.000000
-154.491791 -146.074036 -49.298302 0.000000
-141.008499 -146.074036 -49.298302 0.000000
-127.525192 -146.074036 -49.298302 0.000000
-114.041885 -146.074036 -49.298302 0.000000
-100.558594 -146.074036 -49.298302 0.000000
-87.075287 -146.074036 -49.298302 0.000000
-73.591980 -146.074036 -49.298302 0.000000
-60.108704 -146.074036 -49.298302 0.000000
-46.625397 -146.074036 -49.298302 0.000000
-33.142090 -146.074036 -49.298302 -1.053725
-19.658783 -146.074036 -49.298302 -0.937467
-6.175476 -146.074036 -49.298302 0.031368
7.307800 -146.074036 -49.298302 0.238684
20.791107 -146.074036 -49.298302 0.000000
34.274414 -146.074036 -49.298302 0.000000
47.757721 -146.074036 -49.298302 0.000000
61.240997 -146.074036 -49.298302 0.000000
74.724304 -146.074036 -49.298302 0.000000
88.207611 -146.074036 -49.298302 0.000000
101.690918 -146.074036 -49.298302 0.000000
115.174225 -146.074036 -49.298302 0.000000
128.657501 -146.074036 -49.298302 0.000000
142.140808 -146.074036 -49.298302 0.000000
155.624115 -146.074036 -49.298302 0.000000
169.107422 -146.074036 -49.298302 0.000000
182.590698 -146.074036 -49.298302 0.000000
196.074036 -146.074036 -49.298302 0.000000
209.557312 -146.074036 -49.298302 0.000000
223.040588 -146.074036 -49.298302 0.000000
236.523926 -146.074036 -49.298302 0.000000
250.007202 -146.074036 -49.298302 0.000000
263.490540 -146.074036 -49.298302 0.000000
276.973816 -146.074036 -49.298302 0.000000
290.457092 -146.074036 -49.298302 0.000000
303.940430 -146.074036 -49.298302 0.000000
317.423706 -146.074036 -49.298302 0.000000
330.907043 -146.074036 -49.298302 0.000000
344.390320 -146.074036 -49.298302 0.000000
-343.257996 -159.557312 -49.298302 0.000000
-329.774689 -159.557312 -49.298302 0.000000
-316.291382 -159.557312 -49.298302 0.000000
-302.808105 -159.557312 -49.298302 0.000000
-289.324799 -159.557312 -49.298302 0.000000
-275.841492 -159.557312 -49.298302 0.000000
-262.358185 -159.557312 -49.298302 0.000000
-248.874893 -159.557312 -49.298302 0.000000
-235.391602 -159.557312 -49.298302 0.000000
-221.908295 -159.557312 -49.298302 0.000000
-208.424988 -159.557312 -49.298302 0.000000
-194.941696 -159.557312 -49.298302 0.000000
-181.458389 -159.557312 -49.298302 0.000000
-167.975098 -159.557312 -49.298302 0.000000
-154.491791 -159.557312 -49.298302 0.000000
-141.008499 -159.557312 -49.298302 0.000000
-127.525192 -159.557312 -49.298302 0.000000
-114.041885 -159.557312 -49.298302 0.000000
-100.558594 -159.557312 -49.298302 0.000000
-87.075287 -159.557312 -49.298302 0.000000
-73.591980 -159.557312 -49.298302 0.000000
-60.108704 -159.557312 -49.298302 0.000000
-46.625397 -159.557312 -49.298302 0.000000
-33.142090 -159.557312 -49.298302 0.000000
-19.658783 -159.557312 -49.298302 0.000000
-6.175476 -159.557312 -49.298302 0.000000
7.307800 -159.557312 -49.298302 0.000000
20.791107 -159.557312 -49.298302 0.000000
34.274414 -159.557312 -49.298302 0.000000
47.757721 -159.557312 -49.298302 0.000000
61.240997 -159.557312 -49.298302 0.000000
74.724304 -159.557312 -49.298302 0.000000
88.207611 -159.557312 -49.298302 0.000000
101.690918 -159.557312 -49.298302 0.000000
115.174225 -159.557312 -49.298302 0.000000
128.657501 -159.557312 -49.298302 0.000000
142.140808 -159.557312 -49.298302 0.000000
155.624115 -159.557312 -49.298302 0.000000
169.107422 -159.557312 -49.298302 0.000000
182.590698 -159.557312 -49.298302 0.000000
196.074036 -159.557312 -49.298302 0.000000
209.557312 -159.557312 -49.298302 0.000000
223.040588 -159.557312 -49.298302 0.000000
236.523926 -159.557312 -49.298302 0.000000
250.007202 -159.557312 -49.298302 0.000000
263.490540 -159.557312 -49.298302 0.000000
276.973816 -159.557312 -49.298302 0.000000
290.457092 -159.557312 -49.298302 0.000000
303.940430 -159.557312 -49.298302 0.000000
317.423706 -159.557312 -49.298302 0.000000
330.907043 -159.557312 -49.298302 0.000000
344.390320 -159.557312 -49.298302 0.000000
-343.257996 -173.040588 -49.298302 0.000000
-329.774689 -173.040588 -49.298302 0.000000
-316.291382 -173.040588 -49.298302 0.000000
-302.808105 -173.040588 -49.298302 0.000000
-289.324799 -173.040588 -49.298302 0.000000
-275.841492 -173.040588 -49.298302 0.000000
-262.358185 -173.040588 -49.298302 0.000000
-248.874893 -173.040588 -49.298302 0.000000
-235.391602 -173.040588 -49.298302 0.000000
-221.908295 -173.040588 -49.298302 0.000000
-208.424988 -173.040588 -49.298302 0.000000
-194.941696 -173.040588 -49.298302 0.000000
-181.458389 -173.040588 -49.298302 0.000000
-167.975098 -173.040588 -49.298302 0.000000
-154.491791 -173.040588 -49.298302 0.000000
-141.008499 -173.040588 -49.298302 0.000000
-127.525192 -173.040588 -49.298302 0.000000
-114.041885 -173.040588 -49.298302 0.000000
-100.558594 -173.040588 -49.298302 0.000000
-87.075287 -173.040588 -49.298302 0.000000
-73.591980 -173.040588 -49.298302 0.000000
-60.108704 -173.040588 -49.298302 0.000000
-46.625397 -173.040588 -49.298302 0.000000
-33.142090 -173.040588 -49.298302 0.000000
-19.658783 -173.040588 -49.298302 0.000000
-6.175476 -173.040588 -49.298302 0.000000
7.307800 -173.040588 -49.298302 0.000000
20.791107 -173.040588 -49.298302 0.000000
34.274414 -173.040588 -49.298302 0.000000
47.757721 -173.040588 -49.298302 0.000000
61.240997 -173.040588 -49.298302 0.000000
74.724304 -173.040588 -49.298302 0.000000
88.207611 -173.040588 -49.298302 0.000000
101.690918 -173.040588 -49.298302 0.000000
115.174225 -173.040588 -49.298302 0.000000
128.657501 -173.040588 -49.298302 0.000000
142.140808 -173.040588 -49.298302 0.000000
155.624115 -173.040588 -49.298302 0.000000
169.107422 -173.040588 -49.298302 0.000000
182.590698 -173.040588 -49.298302 0.000000
196.074036 -173.040588 -49.298302 0.000000
209.557312 -173.040588 -49.298302 0.000000
223.040588 -173.040588 -49.298302 0.000000
236.523926 -173.040588 -49.298302 0.000000
250.007202 -173.040588 -49.298302 0.000000
263.490540 -173.040588 -49.298302 0.000000
276.973816 -173.040588 -49.298302 0.000000
290.457092 -173.040588 -49.298302 0.000000
303.940430 -173.040588 -49.298302 0.000000
317.423706 -173.040588 -49.298302 0.000000
330.907043 -173.040588 -49.298302 0.000000
344.390320 -173.040588 -49.298302 0.000000
-343.257996 -186.523926 -49.298302 0.000000
-329.774689 -186.523926 -49.298302 0.000000
-316.291382 -186.523926 -49.298302 0.000000
-302.808105 -186.523926 -49.298302 0.000000
-289.324799 -186.523926 -49.298302 0.000000
-275.841492 -186.523926 -49.298302 0.000000
-262.358185 -186.523926 -49.298302 0.000000
-248.874893 -186.523926 -49.298302 0.000000
-235.391602 -186.523926 -49.298302 0.000000
-221.908295 -186.523926 -49.298302 0.000000
-208.424988 -186.523926 -49.298302 0.000000
-194.941696 -186.523926 -49.298302 0.000000
-181.458389 -186.523926 -49.298302 0.000000
-167.975098 -186.523926 -49.298302 0.000000
-154.491791 -186.523926 -49.298302 0.000000
-141.008499 -186.523926 -49.298302 0.000000
-127.525192 -186.523926 -49.298302 0.000000
-114.041885 -186.523926 -49.298302 0.000000
-100.558594 -186.523926 -49.298302 0.000000
-87.075287 -186.523926 -49.298302 0.000000
-73.591980 -186.523926 -49.298302 0.000000
-60.108704 -186.523926 -49.298302 0.000000
-46.625397 -186.523926 -49.298302 0.000000
-33.142090 -186.523926 -49.298302 0.000000
-19.658783 -186.523926 -49.298302 0.000000
-6.175476 -186.523926 -49.298302 0.000000
7.307800 -186.523926 -49.298302 0.000000
20.791107 -186.523926 -49.298302 0.000000
34.274414 -186.523926 -49.298302 0.000000
47.757721 -186.523926 -49.298302 0.000000
61.240997 -186.523926 -49.298302 0.000000
74.724304 -186.523926 -49.298302 0.000000
88.207611 -186.523926 -49.298302 0.000000
101.690918 -186.523926 -49.298302 0.000000
115.174225 -186.523926 -49.298302 0.000000
128.657501 -186.523926 -49.298302 0.000000
142.140808 -186.523926 -49.298302 0.000000
155.624115 -186.523926 -49.298302 0.000000
169.107422 -186.523926 -49.298302 0.000000
182.590698 -186.523926 -49.298302 0.000000
196.074036 -186.523926 -49.298302 0.000000
209.557312 -186.523926 -49.298302 0.000000
223.040588 -186.523926 -49.298302 0.000000
236.523926 -186.523926 -49.298302 0.000000
250.007202 -186.523926 -49.298302 0.000000
263.490540 -186.523926 -49.298302 0.000000
276.973816 -186.523926 -49.298302 0.000000
290.457092 -186.523926 -49.298302 0.000000
303.940430 -186.523926 -49.298302 0.000000
317.423706 -186.523926 -49.298302 0.000000
330.907043 -186.523926 -49.298302 0.000000
344.390320 -186.523926 -49.298302 0.000000
-343.257996 -200.007202 -49.298302 0.000000
-329.774689 -200.007202 -49.298302 0.000000
-316.291382 -200.007202 -49.298302 0.000000
-302.808105 -200.007202 -49.298302 0.000000
-289.324799 -200.007202 -49.298302 0.000000
-275.841492 -200.007202 -49.298302 0.000000
-262.358185 -200.007202 -49.298302 0.000000
-248.874893 -200.007202 -49.298302 0.000000
-235.391602 -200.007202 -49.298302 0.000000
-221.908295 -200.007202 -49.298302 0.000000
-208.424988 -200.007202 -49.298302 0.000000
-194.941696 -200.007202 -49.298302 0.000000
-181.458389 -200.007202 -49.298302 0.000000
-167.975098 -200.007202 -49.298302 0.000000
-154.491791 -200.007202 -49.298302 0.000000
-141.008499 -200.007202 -49.298302 0.000000
-127.525192 -200.007202 -49.298302 0.000000
-114.041885 -200.007202 -49.298302 0.000000
-100.558594 -200.007202 -49.298302 0.000000
-87.075287 -200.007202 -49.298302 0.000000
-73.591980 -200.007202 -49.298302 0.000000
-60.108704 -200.007202 -49.298302 0.000000
-46.625397 -200.007202 -49.298302 0.000000
-33.142090 -200.007202 -49.298302 0.000000
-19.658783 -200.007202 -49.298302 0.000000
-6.175476 -200.007202 -49.298302 0.000000
7.307800 -200.007202 -49.298302 0.000000
20.791107 -200.007202 -49.298302 0.000000
34.274414 -200.007202 -49.298302 0.000000
47.757721 -200.007202 -49.298302 0.000000
61.240997 -200.007202 -49.298302 0.000000
74.724304 -200.007202 -49.298302 0.000000
88.207611 -200.007202 -49.298302 0.000000
101.690918 -200.007202 -49.298302 0.000000
115.174225 -200.007202 -49.298302 0.000000
128.657501 -200.007202 -49.298302 0.000000
142.140808 -200.007202 -49.298302 0.000000
155.624115 -200.007202 -49.298302 0.000000
169.107422 -200.007202 -49.298302 0.000000
182.590698 -200.007202 -49.298302 0.000000
196.074036 -200.007202 -49.298302 0.000000
209.557312 -200.007202 -49.298302 0.000000
223.040588 -200.007202 -49.298302 0.000000
236.523926 -200.007202 -49.298302 0.000000
250.007202 -200.007202 -49.298302 0.000000
263.490540 -200.007202 -49.298302 0.000000
276.973816 -200.007202 -49.298302 0.000000
290.457092 -200.007202 -49.298302 0.000000
303.940430 -200.007202 -49.298302 0.000000
317.423706 -200.007202 -49.298302 0.000000
330.907043 -200.007202 -49.298302 0.000000
344.390320 -200.007202 -49.298302 0.000000
-343.257996 393.257996 -35.815002 0.000000
-329.774689 393.257996 -35.815002 0.000000
-316.291382 393.257996 -35.815002 0.000000
-302.808105 393.257996 -35.815002 0.000000
-289.324799 393.257996 -35.815002 0.000000
-275.841492 393.257996 -35.815002 0.000000
-262.358185 393.257996 -35.815002 0.000000
-248.874893 393.257996 -35.815002 0.000000
-235.391602 393.257996 -35.815002 0.000000
-221.908295 393.257996 -35.815002 0.000000
-208.424988 393.257996 -35.815002 0.000000
-194.941696 393.257996 -35.815002 0.000000
-181.458389 393.257996 -35.815002 0.000000
-167.975098 393.257996 -35.815002 0.000000
-154.491791 393.257996 -35.815002 0.000000
-141.008499 393.257996 -35.815002 0.000000
-127.525192 393.257996 -35.815002 0.000000
-114.041885 393.257996 -35.815002 0.000000
-100.558594 393.257996 -35.815002 0.000000
-87.075287 393.257996 -35.815002 0.000000
-73.591980 393.257996 -35.815002 0.000000
-60.108704 393.257996 -35.815002 0.000000
-46.625397 393.257996 -35.815002 0.000000
-33.142090 393.257996 -35.815002 0.000000
-19.658783 393.257996 -35.815002 0.000000
-6.175476 393.257996 -35.815002 0.000000
7.307800 393.257996 -35.815002 0.000000
20.791107 393.257996 -35.815002 0.000000
34.274414 393.257996 -35.815002 0.000000
47.757721 393.257996 -35.815002 0.000000
61.240997 393.257996 -35.815002 0.000000
74.724304 393.257996 -35.815002 0.000000
88.207611 393.257996 -35.815002 0.000000
101.690918 393.257996 -35.815002 0.000000
115.174225 393.257996 -35.815002 0.000000
128.657501 393.257996 -35.815002 0.000000
142.140808 393.257996 -35.815002 0.000000
155.624115 393.257996 -35.815002 0.000000
169.107422 393.257996 -35.815002 0.000000
182.590698 393.257996 -35.815002 0.000000
196.074036 393.257996 -35.815002 0.000000
209.557312 393.257996 -35.815002 0.000000
223.040588 393.257996 -35.815002 0.000000
236.523926 393.257996 -35.815002 0.000000
250.007202 393.257996 -35.815002 0.000000
263.490540 393.257996 -35.815002 0.000000
276.973816 393.257996 -35.815002 0.000000
290.457092 393.257996 -35.815002 0.000000
303.940430 393.257996 -35.815002 0.000000
317.423706 393.257996 -35.815002 0.000000
330.907043 393.257996 -35.815002 0.000000
344.390320 393.257996 -35.815002 0.000000
-343.257996 379.774689 -35.815002 0.000000
-329.774689 379.774689 -35.815002 0.000000
-316.291382 379.774689 -35.815002 0.000000
-302.808105 379.774689 -35.815002 0.000000
-289.324799 379.774689 -35.815002 0.000000
-275.841492 379.774689 -35.815002 0.000000
-262.358185 379.774689 -35.815002 0.000000
-248.874893 379.774689 -35.815002 0.000000
-235.391602 379.774689 -35.815002 0.000000
-221.908295 379.774689 -35.815002 0.000000
-208.424988 379.774689 -35.815002 0.000000
-194.941696 379.774689 -35.815002 0.000000
-181.458389 379.774689 -35.815002 0.000000
-167.975098 379.774689 -35.815002 0.000000
-154.491791 379.774689 -35.815002 0.000000
-141.008499 379.774689 -35.815002 0.000000
-127.525192 379.774689 -35.815002 0.000000
-114.041885 379.774689 -35.815002 0.000000
-100.558594 379.774689 -35.815002 0.000000
-87.075287 379.774689 -35.815002 0.000000
-73.591980 379.774689 -35.815002 0.000000
-60.108704 379.774689 -35.815002 0.000000
-46.625397 379.774689 -35.815002 0.000000
-33.142090 379.774689 -35.815002 0.000000
-19.658783 379.774689 -35.815002 0.000000
-6.175476 379.774689 -35.815002 0.000000
7.307800 379.774689 -35.815002 0.000000
20.791107 379.774689 -35.815002 0.000000
34.274414 379.774689 -35.815002 0.000000
47.757721 379.774689 -35.815002 0.000000
61.240997 379.774689 -35.815002 0.000000
74.724304 379.774689 -35.815002 0.000000
88.207611 379.774689 -35.815002 0.000000
101.690918 379.774689 -35.815002 0.000000
115.174225 379.774689 -35.815002 0.000000
128.657501 379.774689 -35.815002 0.000000
142.140808 379.774689 -35.815002 0.000000
155.624115 379.774689 -35.815002 0.000000
169.107422 379.774689 -35.815002 0.000000
182.590698 379.774689 -35.815002 0.000000
196.074036 379.774689 -35.815002 0.000000
209.557312 379.774689 -35.815002 0.000000
223.040588 379.774689 -35.815002 0.000000
236.523926 379.774689 -35.815002 0.000000
250.007202 379.774689 -35.815002 0.000000
263.490540 379.774689 -35.815002 0.000000
276.973816 379.774689 -35.815002 0.000000
290.457092 379.774689 -35.815002 0.000000
303.940430 379.774689 -35.815002 0.000000
317.423706 379.774689 -35.815002 0.000000
330.907043 379.774689 -35.815002 0.000000
344.390320 379.774689 -35.815002 0.000000
-343.257996 366.291382 -35.815002 0.000000
-329.774689 366.291382 -35.815002 0.000000
-316.291382 366.291382 -35.815002 0.000000
-302.808105 366.291382 -35.815002 0.000000
-289.324799 366.291382 -35.815002 0.000000
-275.841492 366.291382 -35.815002 0.000000
-262.358185 366.291382 -35.815002 0.000000
-248.874893 366.291382 -35.815002 0.000000
-235.391602 366.291382 -35.815002 0.000000
-221.908295 366.291382 -35.815002 0.000000
-208.424988 366.291382 -35.815002 0.000000
-194.941696 366.291382 -35.815002 0.000000
-181.458389 366.291382 -35.815002 0.000000
-167.975098 366.291382 -35.815002 0.000000
-154.491791 366.291382 -35.815002 0.000000
-141.008499 366.291382 -35.815002 0.000000
-127.525192 366.291382 -35.815002 0.000000
-114.041885 366.291382 -35.815002 0.000000
-100.558594 366.291382 -35.815002 0.000000
-87.075287 366.291382 -35.815002 0.000000
-73.591980 366.291382 -35.815002 0.000000
-60.108704 366.291382 -35.815002 0.000000
-46.625397 366.291382 -35.815002 0.000000
-33.142090 366.291382 -35.815002 0.000000
-19.658783 366.291382 -35.815002 0.000000
-6.175476 366.291382 -35.815002 0.147558
7.307800 366.291382 -35.815002 0.211101
20.791107 366.291382 -35.815002 -0.133895
34.274414 366.291382 -35.815002 -0.202346
47.757721 366.291382 -35.815002 -0.267355
61.240997 366.291382 -35.815002 -0.184968
74.724304 366.291382 -35.815002 -0.167356
88.207611 366.291382 -35.815002 -0.116304
101.690918 366.291382 -35.815002 0.302645
115.174225 366.291382 -35.815002 0.635443
128.657501 366.291382 -35.815002 0.000000
142.140808 366.291382 -35.815002 0.000000
155.624115 366.291382 -35.815002 0.000000
169.107422 366.291382 -35.815002 0.000000
182.590698 366.291382 -35.815002 0.000000
196.074036 366.291382 -35.815002 0.000000
209.557312 366.291382 -35.815002 0.000000
223.040588 366.291382 -35.815002 0.000000
236.523926 366.291382 -35.815002 0.000000
250.007202 366.291382 -35.815002 0.000000
263.490540 366.291382 -35.815002 0.000000
276.973816 366.291382 -35.815002 0.000000
290.457092 366.291382 -35.815002 0.000000
303.940430 366.291382 -35.815002 0.000000
317.423706 366.291382 -35.815002 0.000000
330.907043 366.291382 -35.815002 0.000000
344.390320 366.291382 -35.815002 0.000000
-343.257996 352.808105 -35.815002 0.000000
-329.774689 352.808105 -35.815002 0.000000
-316.291382 352.808105 -35.815002 0.000000
-302.808105 352.808105 -35.815002 0.000000
-289.324799 352.808105 -35.815002 0.000000
-275.841492 352.808105 -35.815002 0.000000
-262.358185 352.808105 -35.815002 0.000000
-248.874893 352.808105 -35.815002 0.000000
-235.391602 352.808105 -35.815002 0.000000
-221.908295 352.808105 -35.815002 1.342546
-208.424988 352.808105 -35.815002 1.321690
-194.941696 352.808105 -35.815002 1.530279
-181.458389 352.808105 -35.815002 1.558750
-167.975098 352.808105 -35.815002 1.661160
-154.491791 352.808105 -35.815002 2.050330
-141.008499 352.808105 -35.815002 2.076400
-127.525192 352.808105 -35.815002 1.853838
-114.041885 352.808105 -35.815002 1.092091
-100.558594 352.808105 -35.815002 0.569304
-87.075287 352.808105 -35.815002 0.108962
-73.591980 352.808105 -35.815002 0.091769
-60.108704 352.808105 -35.815002 -0.469743
-46.625397 352.808105 -35.815002 -0.484915
-33.142090 352.808105 -35.815002 -0.351475
-19.658783 352.808105 -35.815002 -0.096641
-6.175476 352.808105 -35.815002 0.060061
7.307800 352.808105 -35.815002 0.062418
20.791107 352.808105 -35.815002 -0.056486
34.274414 352.808105 -35.815002 -0.157842
47.757721 352.808105 -35.815002 -0.331410
61.240997 352.808105 -35.815002 -0.277623
74.724304 352.808105 -35.815002 -0.242009
88.207611 352.808105 -35.815002 -0.003012
101.690918 352.808105 -35.815002 0.375235
115.174225 352.808105 -35.815002 0.498561
128.657501 352.808105 -35.815002 0.884089
142.140808 352.808105 -35.815002 0.368900
155.624115 352.808105 -35.815002 0.440796
169.107422 352.808105 -35.815002 0.263881
182.590698 352.808105 -35.815002 0.267055
196.074036 352.808105 -35.815002 -0.009007
209.557312 352.808105 -35.815002 0.000000
223.040588 352.808105 -35.815002 0.000000
236.523926 352.808105 -35.815002 0.000000
250.007202 352.808105 -35.815002 0.000000
263.490540 352.808105 -35.815002 0.000000
276.973816 352.808105 -35.815002 0.000000
290.457092 352.808105 -35.815002 0.000000
303.940430 352.808105 -35.815002 0.000000
317.423706 352.808105 -35.815002 0.000000
330.907043 352.808105 -35.815002 0.000000
344.390320 352.808105 -35.815002 0.000000
-343.257996 339.324799 -35.815002 0.000000
-329.774689 339.324799 -35.815002 0.000000
-316.291382 339.324799 -35.815002 0.000000
-302.808105 339.324799 -35.815002 0.000000
-289.324799 339.324799 -35.815002 0.000000
-275.841492 339.324799 -35.815002 0.152229
-262.358185 339.324799 -35.815002 1.164696
-248.874893 339.324799 -35.815002 1.317598
-235.391602 339.324799 -35.815002 1.446936
-221.908295 339.324799 -35.815002 1.254468
-208.424988 339.324799 -35.815002 1.311964
-194.941696 339.324799 -35.815002 1.588342
-181.458389 339.324799 -35.815002 1.606385
-167.975098 339.324799 -35.815002 2.043446
-154.491791 339.324799 -35.815002 2.154572
-141.008499 339.324799 -35.815002 2.054597
-127.525192 339.324799 -35.815002 1.683514
-114.041885 339.324799 -35.815002 1.251310
-100.558594 339.324799 -35.815002 0.749406
-87.075287 339.324799 -35.815002 0.056486
-73.591980 339.324799 -35.815002 0.000830
-60.108704 339.324799 -35.815002 -0.365201
-46.625397 339.324799 -35.815002 -0.644696
-33.142090 339.324799 -35.815002 -0.563681
-19.658783 339.324799 -35.815002 -0.292273
-6.175476 339.324799 -35.815002 -0.127635
7.307800 339.324799 -35.815002 -0.071972
20.791107 339.324799 -35.815002 -0.123175
34.274414 339.324799 -35.815002 -0.226985
47.757721 339.324799 -35.815002 -0.384962
61.240997 339.324799 -35.815002 -0.240700
74.724304 339.324799 -35.815002 -0.182577
88.207611 339.324799 -35.815002 -0.059808
101.690918 339.324799 -35.815002 0.551513
115.174225 339.324799 -35.815002 0.587963
128.657501 339.324799 -35.815002 0.521922
142.140808 339.324799 -35.815002 0.111402
155.624115 339.324799 -35.815002 -0.101319
169.107422 339.324799 -35.815002 -0.220891
182.590698 339.324799 -35.815002 -0.039798
196.074036 339.324799 -35.815002 -0.170633
209.557312 339.324799 -35.815002 -0.036779
223.040588 339.324799 -35.815002 -0.228733
236.523926 339.324799 -35.815002 -0.209915
250.007202 339.324799 -35.815002 0.697382
263.490540 339.324799 -35.815002 0.676074
276.973816 339.324799 -35.815002 0.000000
290.457092 339.324799 -35.815002 0.000000
303.940430 339.324799 -35.815002 0.000000
317.423706 339.324799 -35.815002 0.000000
330.907043 339.324799 -35.815002 0.000000
344.390320 339.324799 -35.815002 0.000000
-343.257996 325.841492 -35.815002 0.000000
-329.774689 325.841492 -35.815002 0.000000
-316.291382 325.841492 -35.815002 0.000000
-302.808105 325.841492 -35.815002 0.000000
-289.324799 325.841492 -35.815002 0.698412
-275.841492 325.841492 -35.815002 0.796659
-262.358185 325.841492 -35.815002 0.740969
-248.874893 325.841492 -35.815002 0.891390
-235.391602 325.841492 -35.815002 0.933970
-221.908295 325.841492 -35.815002 0.911497
-208.424988 325.841492 -35.815002 1.314442
-194.941696 325.841492 -35.815002 1.495720
-181.458389 325.841492 -35.815002 1.786226
-167.975098 325.841492 -35.815002 1.958959
-154.491791 325.841492 -35.815002 2.029007
-141.008499 325.841492 -35.815002 2.170323
-127.525192 325.841492 -35.815002 1.890244
-114.041885 325.841492 -35.815002 1.270268
-100.558594 325.841492 -35.815002 0.663142
-87.075287 325.841492 -35.815002 0.279289
-73.591980 325.841492 -35.815002 -0.093029
-60.108704 325.841492 -35.815002 -0.254603
-46.625397 325.841492 -35.815002 -0.433623
-33.142090 325.841492 -35.815002 -0.194275
-19.658783 325.841492 -35.815002 -0.227218
-6.175476 325.841492 -35.815002 -0.423893
7.307800 325.841492 -35.815002 -0.205087
20.791107 325.841492 -35.815002 -0.147300
34.274414 325.841492 -35.815002 -0.286087
47.757721 325.841492 -35.815002 -0.333917
61.240997 325.841492 -35.815002 -0.321574
74.724304 325.841492 -35.815002 -0.230933
88.207611 325.841492 -35.815002 -0.022823
101.690918 325.841492 -35.815002 0.215293
115.174225 325.841492 -35.815002 0.217784
128.657501 325.841492 -35.815002 0.031801
142.140808 325.841492 -35.815002 -0.381780
155.624115 325.841492 -35.815002 -0.483295
169.107422 325.841492 -35.815002 -0.394731
182.590698 325.841492 -35.815002 -0.501414
196.074036 325.841492 -35.815002 -0.161239
209.557312 325.841492 -35.815002 -0.151527
223.040588 325.841492 -35.815002 -0.172155
236.523926 325.841492 -35.815002 -0.042953
250.007202 325.841492 -35.815002 0.074762
263.490540 325.841492 -35.815002 0.537739
276.973816 325.841492 -35.815002 0.601734
290.457092 325.841492 -35.815002 0.244818
303.940430 325.841492 -35.815002 0.000000
317.423706 325.841492 -35.815002 0.000000
330.907043 325.841492 -35.815002 0.000000
344.390320 325.841492 -35.815002 0.000000
-343.257996 312.358185 -35.815002 0.000000
-329.774689 312.358185 -35.815002 0.000000
-316.291382 312.358185 -35.815002 0.000000
-302.808105 312.358185 -35.815002 0.269719
-289.324799 312.358185 -35.815002 0.370428
-275.841492 312.358185 -35.815002 0.457123
-262.358185 312.358185 -35.815002 0.593742
-248.874893 312.358185 -35.815002 0.641659
-235.391602 312.358185 -35.815002 0.695550
-221.908295 312.358185 -35.815002 0.723948
-208.424988 312.358185 -35.815002 1.148331
-194.941696 312.358185 -35.815002 1.490338
-181.458389 312.358185 -35.815002 2.006891
-167.975098 312.358185 -35.815002 2.195177
-154.491791 312.358185 -35.815002 2.411360
-141.008499 312.358185 -35.815002 2.191741
-127.525192 312.358185 -35.815002 1.840024
-114.041885 312.358185 -35.815002 1.577897
-100.558594 312.358185 -35.815002 0.945023
-87.075287 312.358185 -35.815002 0.458313
-73.591980 312.358185 -35.815002 0.195011
-60.108704 312.358185 -35.815002 -0.155642
-46.625397 312.358185 -35.815002 -0.192879
-33.142090 312.358185 -35.815002 0.090635
-19.658783 312.358185 -35.815002 -0.454976
-6.175476 312.358185 -35.815002 -0.639990
7.307800 312.358185 -35.815002 -0.364853
20.791107 312.358185 -35.815002 -0.108855
34.274414 312.358185 -35.815002 -0.114353
47.757721 312.358185 -35.815002 -0.447930
61.240997 312.358185 -35.815002 -0.437199
74.724304 312.358185 -35.815002 -0.065377
88.207611 312.358185 -35.815002 0.086332
101.690918 312.358185 -35.815002 0.105979
115.174225 312.358185 -35.815002 -0.151230
128.657501 312.358185 -35.815002 -0.388112
142.140808 312.358185 -35.815002 -0.795006
155.624115 312.358185 -35.815002 -0.906801
169.107422 312.358185 -35.815002 -0.847118
182.590698 312.358185 -35.815002 -0.747022
196.074036 312.358185 -35.815002 -0.407911
209.557312 312.358185 -35.815002 -0.395334
223.040588 312.358185 -35.815002 -0.148895
236.523926 312.358185 -35.815002 -0.113331
250.007202 312.358185 -35.815002 -0.003031
263.490540 312.358185 -35.815002 0.151304
276.973816 312.358185 -35.815002 0.284925
290.457092 312.358185 -35.815002 0.406153
303.940430 312.358185 -35.815002 0.000000
317.423706 312.358185 -35.815002 0.000000
330.907043 312.358185 -35.815002 0.000000
344.390320 312.358185 -35.815002 0.000000
-343.257996 298.874878 -35.815002 0.000000
-329.774689 298.874878 -35.815002 0.000000
-316.291382 298.874878 -35.815002 0.512141
-302.808105 298.874878 -35.815002 0.351009
-289.324799 298.874878 -35.815002 0.373796
-275.841492 298.874878 -35.815002 0.369885
-262.358185 298.874878 -35.815002 0.514800
-248.874893 298.874878 -35.815002 0.539566
-235.391602 298.874878 -35.815002 0.399041
-221.908295 298.874878 -35.815002 0.454365
-208.424988 298.874878 -35.815002 0.733162
-194.941696 298.874878 -35.815002 1.268273
-181.458389 298.874878 -35.815002 1.562973
-167.975098 298.874878 -35.815002 2.097012
-154.491791 298.874878 -35.815002 2.202009
-141.008499 298.874878 -35.815002 2.065789
-127.525192 298.874878 -35.815002 1.959760
-114.041885 298.874878 -35.815002 1.592021
-100.558594 298.874878 -35.815002 1.398061
-87.075287 298.874878 -35.815002 0.881054
-73.591980 298.874878 -35.815002 0.447579
-60.108704 298.874878 -35.815002 0.105549
-46.625397 298.874878 -35.815002 0.066056
-33.142090 298.874878 -35.815002 -0.057497
-19.658783 298.874878 -35.815002 -0.451368
-6.175476 298.874878 -35.815002 -0.552348
7.307800 298.874878 -35.815002 -0.358273
20.791107 298.874878 -35.815002 -0.102911
34.274414 298.874878 -35.815002 -0.403762
47.757721 298.874878 -35.815002 -0.757724
61.240997 298.874878 -35.815002 -0.458496
74.724304 298.874878 -35.815002 -0.214035
88.207611 298.874878 -35.815002 0.058462
101.690918 298.874878 -35.815002 -0.222723
115.174225 298.874878 -35.815002 -0.505161
128.657501 298.874878 -35.815002 -0.983700
142.140808 298.874878 -35.815002 -1.524592
155.624115 298.874878 -35.815002 -1.762188
169.107422 298.874878 -35.815002 -1.360208
182.590698 298.874878 -35.815002 -1.206896
196.074036 298.874878 -35.815002 -0.780181
209.557312 298.874878 -35.815002 -0.646814
223.040588 298.874878 -35.815002 -0.565286
236.523926 298.874878 -35.815002 -0.214877
250.007202 298.874878 -35.815002 -0.033798
263.490540 298.874878 -35.815002 0.213281
276.973816 298.874878 -35.815002 0.232466
290.457092 298.874878 -35.815002 0.251867
303.940430 298.874878 -35.815002 0.469137
317.423706 298.874878 -35.815002 0.000000
330.907043 298.874878 -35.815002 0.000000
344.390320 298.874878 -35.815002 0.000000
-343.257996 285.391602 -35.815002 0.000000
-329.774689 285.391602 -35.815002 0.000000
-316.291382 285.391602 -35.815002 0.365311
-302.808105 285.391602 -35.815002 0.270267
-289.324799 285.391602 -35.815002 0.290849
-275.841492 285.391602 -35.815002 0.230054
-262.358185 285.391602 -35.815002 0.316371
-248.874893 285.391602 -35.815002 0.368554
-235.391602 285.391602 -35.815002 0.377321
-221.908295 285.391602 -35.815002 0.468594
-208.424988 285.391602 -35.815002 0.712028
-194.941696 285.391602 -35.815002 1.052198
-181.458389 285.391602 -35.815002 1.338877
-167.975098 285.391602 -35.815002 1.781997
-154.491791 285.391602 -35.815002 2.067754
-141.008499 285.391602 -35.815002 1.917281
-127.525192 285.391602 -35.815002 1.690429
-114.041885 285.391602 -35.815002 1.898482
-100.558594 285.391602 -35.815002 1.247607
-87.075287 285.391602 -35.815002 1.022152
-73.591980 285.391602 -35.815002 0.674066
-60.108704 285.391602 -35.815002 0.483427
-46.625397 285.391602 -35.815002 0.450463
-33.142090 285.391602 -35.815002 -0.114002
-19.658783 285.391602 -35.815002 -0.335116
-6.175476 285.391602 -35.815002 -0.325652
7.307800 285.391602 -35.815002 -0.288037
20.791107 285.391602 -35.815002 -0.099480
34.274414 285.391602 -35.815002 -0.176408
47.757721 285.391602 -35.815002 -0.415902
61.240997 285.391602 -35.815002 -0.332638
74.724304 285.391602 -35.815002 0.114149
88.207611 285.391602 -35.815002 0.065629
101.690918 285.391602 -35.815002 -0.267047
115.174225 285.391602 -35.815002 -0.641339
128.657501 285.391602 -35.815002 -1.036411
142.140808 285.391602 -35.815002 -1.633480
155.624115 285.391602 -35.815002 -1.792717
169.107422 285.391602 -35.815002 -1.825966
182.590698 285.391602 -35.815002 -1.607922
196.074036 285.391602 -35.815002 -1.142160
209.557312 285.391602 -35.815002 -0.977013
223.040588 285.391602 -35.815002 -0.850682
236.523926 285.391602 -35.815002 -0.468557
250.007202 285.391602 -35.815002 -0.062923
263.490540 285.391602 -35.815002 0.094942
276.973816 285.391602 -35.815002 0.171238
290.457092 285.391602 -35.815002 0.246580
303.940430 285.391602 -35.815002 0.381534
317.423706 285.391602 -35.815002 0.000000
330.907043 285.391602 -35.815002 0.000000
344.390320 285.391602 -35.815002 0.000000
-343.257996 271.908295 -35.815002 0.000000
-329.774689 271.908295 -35.815002 0.000000
-316.291382 271.908295 -35.815002 0.299465
-302.808105 271.908295 -35.815002 0.234158
-289.324799 271.908295 -35.815002 0.253162
-275.841492 271.908295 -35.815002 0.225629
-262.358185 271.908295 -35.815002 0.288720
-248.874893 271.908295 -35.815002 0.412717
-235.391602 271.908295 -35.815002 0.427543
-221.908295 271.908295 -35.815002 0.276396
-208.424988 271.908295 -35.815002 0.599811
-194.941696 271.908295 -35.815002 0.824666
-181.458389 271.908295 -35.815002 1.299045
-167.975098 271.908295 -35.815002 1.676385
-154.491791 271.908295 -35.815002 1.728327
-141.008499 271.908295 -35.815002 1.857122
-127.525192 271.908295 -35.815002 1.548542
-114.041885 271.908295 -35.815002 1.634305
-100.558594 271.908295 -35.815002 1.304455
-87.075287 271.908295 -35.815002 1.135068
-73.591980 271.908295 -35.815002 0.904176
-60.108704 271.908295 -35.815002 0.897523
-46.625397 271.908295 -35.815002 0.393535
-33.142090 271.908295 -35.815002 -0.154415
-19.658783 271.908295 -35.815002 -0.263543
-6.175476 271.908295 -35.815002 -0.343739
7.307800 271.908295 -35.815002 -0.194950
20.791107 271.908295 -35.815002 -0.150740
34.274414 271.908295 -35.815002 -0.020575
47.757721 271.908295 -35.815002 -0.092200
61.240997 271.908295 -35.815002 0.117523
74.724304 271.908295 -35.815002 0.164076
88.207611 271.908295 -35.815002 0.298302
101.690918 271.908295 -35.815002 -0.234766
115.174225 271.908295 -35.815002 -0.434525
128.657501 271.908295 -35.815002 -1.038367
142.140808 271.908295 -35.815002 -1.326229
155.624115 271.908295 -35.815002 -1.473354
169.107422 271.908295 -35.815002 -1.921965
182.590698 271.908295 -35.815002 -1.872715
196.074036 271.908295 -35.815002 -1.663710
209.557312 271.908295 -35.815002 -1.221600
223.040588 271.908295 -35.815002 -0.890113
236.523926 271.908295 -35.815002 -0.452578
250.007202 271.908295 -35.815002 -0.242738
263.490540 271.908295 -35.815002 0.067439
276.973816 271.908295 -35.815002 0.089733
290.457092 271.908295 -35.815002 0.205442
303.940430 271.908295 -35.815002 0.213915
317.423706 271.908295 -35.815002 0.345845
330.907043 271.908295 -35.815002 0.000000
344.390320 271.908295 -35.815002 0.000000
-343.257996 258.424988 -35.815002 0.000000
-329.774689 258.424988 -35.815002 0.000000
-316.291382 258.424988 -35.815002 0.238943
-302.808105 258.424988 -35.815002 0.174469
-289.324799 258.424988 -35.815002 0.150435
-275.841492 258.424988 -35.815002 0.169138
-262.358185 258.424988 -35.815002 0.198171
-248.874893 258.424988 -35.815002 0.269786
-235.391602 258.424988 -35.815002 0.282619
-221.908295 258.424988 -35.815002 0.348718
-208.424988 258.424988 -35.815002 0.426192
-194.941696 258.424988 -35.815002 0.700997
-181.458389 258.424988 -35.815002 0.986793
-167.975098 258.424988 -35.815002 1.349056
-154.491791 258.424988 -35.815002 1.590339
-141.008499 258.424988 -35.815002 1.680680
-127.525192 258.424988 -35.815002 1.667510
-114.041885 258.424988 -35.815002 1.504541
-100.558594 258.424988 -35.815002 1.553267
-87.075287 258.424988 -35.815002 1.458516
-73.591980 258.424988 -35.815002 1.035387
-60.108704 258.424988 -35.815002 0.711651
-46.625397 258.424988 -35.815002 0.362405
-33.142090 258.424988 -35.815002 -0.154678
-19.658783 258.424988 -35.815002 -0.665311
-6.175476 258.424988 -35.815002 -0.476962
7.307800 258.424988 -35.815002 -0.209132
20.791107 258.424988 -35.815002 -0.001843
34.274414 258.424988 -35.815002 0.120541
47.757721 258.424988 -35.815002 0.044506
61.240997 258.424988 -35.815002 0.060007
74.724304 258.424988 -35.815002 0.221432
88.207611 258.424988 -35.815002 0.189733
101.690918 258.424988 -35.815002 0.109170
115.174225 258.424988 -35.815002 -0.245422
128.657501 258.424988 -35.815002 -1.058696
142.140808 258.424988 -35.815002 -1.315418
155.624115 258.424988 -35.815002 -1.597100
169.107422 258.424988 -35.815002 -2.003425
182.590698 258.424988 -35.815002 -2.243057
196.074036 258.424988 -35.815002 -2.126048
209.557312 258.424988 -35.815002 -1.503615
223.040588 258.424988 -35.815002 -0.967351
236.523926 258.424988 -35.815002 -0.457902
250.007202 258.424988 -35.815002 -0.167072
263.490540 258.424988 -35.815002 -0.035873
276.973816 258.424988 -35.815002 0.052769
290.457092 258.424988 -35.815002 0.098557
303.940430 258.424988 -35.815002 0.166399
317.423706 258.424988 -35.815002 0.179485
330.907043 258.424988 -35.815002 0.000000
344.390320 258.424988 -35.815002 0.000000
-343.257996 244.941696 -35.815002 0.000000
-329.774689 244.941696 -35.815002 0.000000
-316.291382 244.941696 -35.815002 0.133280
-302.808105 244.941696 -35.815002 0.090288
-289.324799 244.941696 -35.815002 0.096234
-275.841492 244.941696 -35.815002 0.130679
-262.358185 244.941696 -35.815002 0.097557
-248.874893 244.941696 -35.815002 0.142930
-235.391602 244.941696 -35.815002 0.238009
-221.908295 244.941696 -35.815002 0.236559
-208.424988 244.941696 -35.815002 0.303997
-194.941696 244.941696 -35.815002 0.508366
-181.458389 244.941696 -35.815002 0.849579
-167.975098 244.941696 -35.815002 1.098124
-154.491791 244.941696 -35.815002 1.260387
-141.008499 244.941696 -35.815002 1.448692
-127.525192 244.941696 -35.815002 1.670613
-114.041885 244.941696 -35.815002 1.714197
-100.558594 244.941696 -35.815002 1.498459
-87.075287 244.941696 -35.815002 1.513368
-73.591980 244.941696 -35.815002 1.090349
-60.108704 244.941696 -35.815002 0.793788
-46.625397 244.941696 -35.815002 0.348686
-33.142090 244.941696 -35.815002 -0.027765
-19.658783 244.941696 -35.815002 -0.437592
-6.175476 244.941696 -35.815002 -0.384631
7.307800 244.941696 -35.815002 -0.177767
20.791107 244.941696 -35.815002 -0.118352
34.274414 244.941696 -35.815002 0.096397
47.757721 244.941696 -35.815002 0.056038
61.240997 244.941696 -35.815002 0.132634
74.724304 244.941696 -35.815002 0.147524
88.207611 244.941696 -35.815002 0.217808
101.690918 244.941696 -35.815002 -0.068766
115.174225 244.941696 -35.815002 -0.409286
128.657501 244.941696 -35.815002 -1.059322
142.140808 244.941696 -35.815002 -1.510633
155.624115 244.941696 -35.815002 -1.878914
169.107422 244.941696 -35.815002 -2.082612
182.590698 244.941696 -35.815002 -2.041095
196.074036 244.941696 -35.815002 -2.013076
209.557312 244.941696 -35.815002 -1.505098
223.040588 244.941696 -35.815002 -0.924457
236.523926 244.941696 -35.815002 -0.429880
250.007202 244.941696 -35.815002 -0.162878
263.490540 244.941696 -35.815002 -0.050136
276.973816 244.941696 -35.815002 0.095278
290.457092 244.941696 -35.815002 0.110245
303.940430 244.941696 -35.815002 0.197610
317.423706 244.941696 -35.815002 0.248915
330.907043 244.941696 -35.815002 0.000000
344.390320 244.941696 -35.815002 0.000000
-343.257996 231.458389 -35.815002 0.000000
-329.774689 231.458389 -35.815002 0.000000
-316.291382 231.458389 -35.815002 0.115731
-302.808105 231.458389 -35.815002 0.068484
-289.324799 231.458389 -35.815002 0.042081
-275.841492 231.458389 -35.815002 0.080422
-262.358185 231.458389 -35.815002 0.066695
-248.874893 231.458389 -35.815002 0.129987
-235.391602 231.458389 -35.815002 0.188696
-221.908295 231.458389 -35.815002 0.296560
-208.424988 231.458389 -35.815002 0.403123
-194.941696 231.458389 -35.815002 0.531137
-181.458389 231.458389 -35.815002 0.927658
-167.975098 231.458389 -35.815002 0.978050
-154.491791 231.458389 -35.815002 1.020305
-141.008499 231.458389 -35.815002 1.247243
-127.525192 231.458389 -35.815002 1.574374
-114.041885 231.458389 -35.815002 1.717148
-100.558594 231.458389 -35.815002 1.742110
-87.075287 231.458389 -35.815002 1.963649
-73.591980 231.458389 -35.815002 1.488747
-60.108704 231.458389 -35.815002 1.160847
-46.625397 231.458389 -35.815002 0.351296
-33.142090 231.458389 -35.815002 -0.120053
-19.658783 231.458389 -35.815002 -0.700706
-6.175476 231.458389 -35.815002 -0.674115
7.307800 231.458389 -35.815002 -0.669337
20.791107 231.458389 -35.815002 -0.150355
34.274414 231.458389 -35.815002 -0.019462
47.757721 231.458389 -35.815002 0.010321
61.240997 231.458389 -35.815002 0.004418
74.724304 231.458389 -35.815002 -0.057970
88.207611 231.458389 -35.815002 -0.068742
101.690918 231.458389 -35.815002 -0.554389
115.174225 231.458389 -35.815002 -0.937754
128.657501 231.458389 -35.815002 -1.391689
142.140808 231.458389 -35.815002 -1.592217
155.624115 231.458389 -35.815002 -1.926519
169.107422 231.458389 -35.815002 -2.123609
182.590698 231.458389 -35.815002 -2.017816
196.074036 231.458389 -35.815002 -1.824354
209.557312 231.458389 -35.815002 -1.284427
223.040588 231.458389 -35.815002 -0.646642
236.523926 231.458389 -35.815002 -0.241014
250.007202 231.458389 -35.815002 -0.108491
263.490540 231.458389 -35.815002 -0.022324
276.973816 231.458389 -35.815002 0.088756
290.457092 231.458389 -35.815002 0.139070
303.940430 231.458389 -35.815002 0.157437
317.423706 231.458389 -35.815002 0.211977
330.907043 231.458389 -35.815002 0.000000
344.390320 231.458389 -35.815002 0.000000
-343.257996 217.975098 -35.815002 0.000000
-329.774689 217.975098 -35.815002 0.000000
-316.291382 217.975098 -35.815002 0.092404
-302.808105 217.975098 -35.815002 0.078144
-289.324799 217.975098 -35.815002 0.105778
-275.841492 217.975098 -35.815002 0.079919
-262.358185 217.975098 -35.815002 0.096814
-248.874893 217.975098 -35.815002 0.127353
-235.391602 217.975098 -35.815002 0.170476
-221.908295 217.975098 -35.815002 0.287901
-208.424988 217.975098 -35.815002 0.415687
-194.941696 217.975098 -35.815002 0.765727
-181.458389 217.975098 -35.815002 0.868521
-167.975098 217.975098 -35.815002 1.012800
-154.491791 217.975098 -35.815002 1.062723
-141.008499 217.975098 -35.815002 1.273883
-127.525192 217.975098 -35.815002 1.434729
-114.041885 217.975098 -35.815002 1.659823
-100.558594 217.975098 -35.815002 1.801169
-87.075287 217.975098 -35.815002 2.019828
-73.591980 217.975098 -35.815002 1.631844
-60.108704 217.975098 -35.815002 0.938441
-46.625397 217.975098 -35.815002 0.619076
-33.142090 217.975098 -35.815002 0.029545
-19.658783 217.975098 -35.815002 -0.406056
-6.175476 217.975098 -35.815002 -0.572862
7.307800 217.975098 -35.815002 -0.499214
20.791107 217.975098 -35.815002 -0.353719
34.274414 217.975098 -35.815002 -0.180337
47.757721 217.975098 -35.815002 0.015522
61.240997 217.975098 -35.815002 -0.139671
74.724304 217.975098 -35.815002 -0.339822
88.207611 217.975098 -35.815002 -0.485652
101.690918 217.975098 -35.815002 -0.974485
115.174225 217.975098 -35.815002 -1.450744
128.657501 217.975098 -35.815002 -1.596988
142.140808 217.975098 -35.815002 -1.804270
155.624115 217.975098 -35.815002 -1.648151
169.107422 217.975098 -35.815002 -1.779521
182.590698 217.975098 -35.815002 -1.780329
196.074036 217.975098 -35.815002 -1.821008
209.557312 217.975098 -35.815002 -1.332578
223.040588 217.975098 -35.815002 -0.756802
236.523926 217.975098 -35.815002 -0.202167
250.007202 217.975098 -35.815002 -0.049422
263.490540 217.975098 -35.815002 -0.074210
276.973816 217.975098 -35.815002 -0.010383
290.457092 217.975098 -35.815002 0.043043
303.940430 217.975098 -35.815002 0.103686
317.423706 217.975098 -35.815002 0.135018
330.907043 217.975098 -35.815002 0.000000
344.390320 217.975098 -35.815002 0.000000
-343.257996 204.491791 -35.815002 0.000000
-329.774689 204.491791 -35.815002 0.000000
-316.291382 204.491791 -35.815002 0.077390
-302.808105 204.491791 -35.815002 0.115764
-289.324799 204.491791 -35.815002 0.151503
-275.841492 204.491791 -35.815002 0.126078
-262.358185 204.491791 -35.815002 0.105286
-248.874893 204.491791 -35.815002 0.188519
-235.391602 204.491791 -35.815002 0.169037
-221.908295 204.491791 -35.815002 0.426054
-208.424988 204.491791 -35.815002 0.499376
-194.941696 204.491791 -35.815002 0.755326
-181.458389 204.491791 -35.815002 0.867348
-167.975098 204.491791 -35.815002 1.073986
-154.491791 204.491791 -35.815002 1.101033
-141.008499 204.491791 -35.815002 1.430594
-127.525192 204.491791 -35.815002 1.627784
-114.041885 204.491791 -35.815002 1.695199
-100.558594 204.491791 -35.815002 2.178203
-87.075287 204.491791 -35.815002 2.153581
-73.591980 204.491791 -35.815002 1.715611
-60.108704 204.491791 -35.815002 1.250159
-46.625397 204.491791 -35.815002 0.798847
-33.142090 204.491791 -35.815002 0.372611
-19.658783 204.491791 -35.815002 -0.148891
-6.175476 204.491791 -35.815002 -0.382190
7.307800 204.491791 -35.815002 -0.378677
20.791107 204.491791 -35.815002 -0.411261
34.274414 204.491791 -35.815002 -0.449917
47.757721 204.491791 -35.815002 -0.492525
61.240997 204.491791 -35.815002 -0.587019
74.724304 204.491791 -35.815002 -0.774477
88.207611 204.491791 -35.815002 -1.232307
101.690918 204.491791 -35.815002 -1.468266
115.174225 204.491791 -35.815002 -1.950437
128.657501 204.491791 -35.815002 -1.859098
142.140808 204.491791 -35.815002 -1.384652
155.624115 204.491791 -35.815002 -1.556673
169.107422 204.491791 -35.815002 -1.603577
182.590698 204.491791 -35.815002 -1.476037
196.074036 204.491791 -35.815002 -1.465423
209.557312 204.491791 -35.815002 -1.077422
223.040588 204.491791 -35.815002 -0.576280
236.523926 204.491791 -35.815002 -0.116213
250.007202 204.491791 -35.815002 -0.048895
263.490540 204.491791 -35.815002 -0.050038
276.973816 204.491791 -35.815002 -0.039280
290.457092 204.491791 -35.815002 0.012107
303.940430 204.491791 -35.815002 0.042033
317.423706 204.491791 -35.815002 0.092094
330.907043 204.491791 -35.815002 0.000000
344.390320 204.491791 -35.815002 0.000000
-343.257996 191.008499 -35.815002 0.000000
-329.774689 191.008499 -35.815002 0.000000
-316.291382 191.008499 -35.815002 0.075602
-302.808105 191.008499 -35.815002 0.089439
-289.324799 191.008499 -35.815002 0.175693
-275.841492 191.008499 -35.815002 0.116609
-262.358185 191.008499 -35.815002 0.202830
-248.874893 191.008499 -35.815002 0.249217
-235.391602 191.008499 -35.815002 0.357837
-221.908295 191.008499 -35.815002 0.614487
-208.424988 191.008499 -35.815002 0.585772
-194.941696 191.008499 -35.815002 0.724482
-181.458389 191.008499 -35.815002 0.824809
-167.975098 191.008499 -35.815002 1.059720
-154.491791 191.008499 -35.815002 1.196686
-141.008499 191.008499 -35.815002 1.471359
-127.525192 191.008499 -35.815002 1.560616
-114.041885 191.008499 -35.815002 1.983085
-100.558594 191.008499 -35.815002 2.526456
-87.075287 191.008499 -35.815002 2.561388
-73.591980 191.008499 -35.815002 2.171474
-60.108704 191.008499 -35.815002 1.732830
-46.625397 191.008499 -35.815002 1.189189
-33.142090 191.008499 -35.815002 0.569084
-19.658783 191.008499 -35.815002 -0.280152
-6.175476 191.008499 -35.815002 -0.515962
7.307800 191.008499 -35.815002 -0.795946
20.791107 191.008499 -35.815002 -0.790055
34.274414 191.008499 -35.815002 -0.703196
47.757721 191.008499 -35.815002 -0.977221
61.240997 191.008499 -35.815002 -1.314950
74.724304 191.008499 -35.815002 -1.464952
88.207611 191.008499 -35.815002 -1.608229
101.690918 191.008499 -35.815002 -1.989566
115.174225 191.008499 -35.815002 -2.007607
128.657501 191.008499 -35.815002 -1.636414
142.140808 191.008499 -35.815002 -1.268986
155.624115 191.008499 -35.815002 -1.188357
169.107422 191.008499 -35.815002 -1.201761
182.590698 191.008499 -35.815002 -1.235690
196.074036 191.008499 -35.815002 -0.988469
209.557312 191.008499 -35.815002 -0.688300
223.040588 191.008499 -35.815002 -0.297351
236.523926 191.008499 -35.815002 -0.031296
250.007202 191.008499 -35.815002 -0.021121
263.490540 191.008499 -35.815002 -0.005400
276.973816 191.008499 -35.815002 -0.004220
290.457092 191.008499 -35.815002 0.008409
303.940430 191.008499 -35.815002 0.024295
317.423706 191.008499 -35.815002 0.046799
330.907043 191.008499 -35.815002 0.000000
344.390320 191.008499 -35.815002 0.000000
-343.257996 177.525192 -35.815002 0.000000
-329.774689 177.525192 -35.815002 0.000000
-316.291382 177.525192 -35.815002 0.108336
-302.808105 177.525192 -35.815002 0.147961
-289.324799 177.525192 -35.815002 0.204680
-275.841492 177.525192 -35.815002 0.142455
-262.358185 177.525192 -35.815002 0.142260
-248.874893 177.525192 -35.815002 0.295777
-235.391602 177.525192 -35.815002 0.497369
-221.908295 177.525192 -35.815002 0.506795
-208.424988 177.525192 -35.815002 0.600588
-194.941696 177.525192 -35.815002 0.737270
-181.458389 177.525192 -35.815002 0.873795
-167.975098 177.525192 -35.815002 1.001881
-154.491791 177.525192 -35.815002 1.289528
-141.008499 177.525192 -35.815002 1.553767
-127.525192 177.525192 -35.815002 1.811966
-114.041885 177.525192 -35.815002 2.321229
-100.558594 177.525192 -35.815002 2.886713
-87.075287 177.525192 -35.815002 2.784384
-73.591980 177.525192 -35.815002 2.475886
-60.108704 177.525192 -35.815002 2.440042
-46.625397 177.525192 -35.815002 1.730246
-33.142090 177.525192 -35.815002 0.821985
-19.658783 177.525192 -35.815002 -0.174365
-6.175476 177.525192 -35.815002 -0.842358
7.307800 177.525192 -35.815002 -1.034926
20.791107 177.525192 -35.815002 -1.056769
34.274414 177.525192 -35.815002 -1.195251
47.757721 177.525192 -35.815002 -1.201934
61.240997 177.525192 -35.815002 -1.504159
74.724304 177.525192 -35.815002 -1.745155
88.207611 177.525192 -35.815002 -1.897083
101.690918 177.525192 -35.815002 -2.029783
115.174225 177.525192 -35.815002 -1.822590
128.657501 177.525192 -35.815002 -1.523839
142.140808 177.525192 -35.815002 -1.175829
155.624115 177.525192 -35.815002 -0.852099
169.107422 177.525192 -35.815002 -0.828285
182.590698 177.525192 -35.815002 -0.816627
196.074036 177.525192 -35.815002 -0.682873
209.557312 177.525192 -35.815002 -0.273837
223.040588 177.525192 -35.815002 -0.179997
236.523926 177.525192 -35.815002 0.083214
250.007202 177.525192 -35.815002 0.036418
263.490540 177.525192 -35.815002 -0.018147
276.973816 177.525192 -35.815002 -0.013433
290.457092 177.525192 -35.815002 -0.014437
303.940430 177.525192 -35.815002 -0.018320
317.423706 177.525192 -35.815002 0.019575
330.907043 177.525192 -35.815002 0.000000
344.390320 177.525192 -35.815002 0.000000
-343.257996 164.041885 -35.815002 0.000000
-329.774689 164.041885 -35.815002 0.000000
-316.291382 164.041885 -35.815002 0.212265
-302.808105 164.041885 -35.815002 0.205240
-289.324799 164.041885 -35.815002 0.185306
-275.841492 164.041885 -35.815002 0.255140
-262.358185 164.041885 -35.815002 0.240276
-248.874893 164.041885 -35.815002 0.358620
-235.391602 164.041885 -35.815002 0.441441
-221.908295 164.041885 -35.815002 0.537255
-208.424988 164.041885 -35.815002 0.692146
-194.941696 164.041885 -35.815002 0.739013
-181.458389 164.041885 -35.815002 0.929371
-167.975098 164.041885 -35.815002 0.973879
-154.491791 164.041885 -35.815002 1.355872
-141.008499 164.041885 -35.815002 1.585930
-127.525192 164.041885 -35.815002 2.065226
-114.041885 164.041885 -35.815002 2.212726
-100.558594 164.041885 -35.815002 2.701326
-87.075287 164.041885 -35.815002 2.849823
-73.591980 164.041885 -35.815002 2.949440
-60.108704 164.041885 -35.815002 2.626060
-46.625397 164.041885 -35.815002 2.004694
-33.142090 164.041885 -35.815002 1.288071
-19.658783 164.041885 -35.815002 0.020129
-6.175476 164.041885 -35.815002 -0.574663
7.307800 164.041885 -35.815002 -0.939893
20.791107 164.041885 -35.815002 -1.400626
34.274414 164.041885 -35.815002 -1.555269
47.757721 164.041885 -35.815002 -1.754946
61.240997 164.041885 -35.815002 -1.797056
74.724304 164.041885 -35.815002 -2.074931
88.207611 164.041885 -35.815002 -1.767229
101.690918 164.041885 -35.815002 -1.647882
115.174225 164.041885 -35.815002 -1.440245
128.657501 164.041885 -35.815002 -1.131225
142.140808 164.041885 -35.815002 -0.840475
155.624115 164.041885 -35.815002 -0.598714
169.107422 164.041885 -35.815002 -0.580638
182.590698 164.041885 -35.815002 -0.510991
196.074036 164.041885 -35.815002 -0.434477
209.557312 164.041885 -35.815002 -0.240187
223.040588 164.041885 -35.815002 -0.104661
236.523926 164.041885 -35.815002 0.014716
250.007202 164.041885 -35.815002 0.010885
263.490540 164.041885 -35.815002 -0.008649
276.973816 164.041885 -35.815002 -0.003062
290.457092 164.041885 -35.815002 -0.011868
303.940430 164.041885 -35.815002 -0.010063
317.423706 164.041885 -35.815002 0.002358
330.907043 164.041885 -35.815002 0.000000
344.390320 164.041885 -35.815002 0.000000
-343.257996 150.558594 -35.815002 0.000000
-329.774689 150.558594 -35.815002 0.000000
-316.291382 150.558594 -35.815002 0.263265
-302.808105 150.558594 -35.815002 0.308233
-289.324799 150.558594 -35.815002 0.246040
-275.841492 150.558594 -35.815002 0.363149
-262.358185 150.558594 -35.815002 0.305274
-248.874893 150.558594 -35.815002 0.408096
-235.391602 150.558594 -35.815002 0.470208
-221.908295 150.558594 -35.815002 0.651037
-208.424988 150.558594 -35.815002 0.889976
-194.941696 150.558594 -35.815002 0.901537
-181.458389 150.558594 -35.815002 1.031173
-167.975098 150.558594 -35.815002 1.235876
-154.491791 150.558594 -35.815002 1.436683
-141.008499 150.558594 -35.815002 1.827517
-127.525192 150.558594 -35.815002 2.324858
-114.041885 150.558594 -35.815002 2.163289
-100.558594 150.558594 -35.815002 2.480868
-87.075287 150.558594 -35.815002 2.911085
-73.591980 150.558594 -35.815002 3.007140
-60.108704 150.558594 -35.815002 2.767405
-46.625397 150.558594 -35.815002 1.826683
-33.142090 150.558594 -35.815002 0.954419
-19.658783 150.558594 -35.815002 0.165309
-6.175476 150.558594 -35.815002 -0.680100
7.307800 150.558594 -35.815002 -1.411445
20.791107 150.558594 -35.815002 -1.747364
34.274414 150.558594 -35.815002 -1.998277
47.757721 150.558594 -35.815002 -2.022937
61.240997 150.558594 -35.815002 -2.287100
74.724304 150.558594 -35.815002 -2.019254
88.207611 150.558594 -35.815002 -1.568588
101.690918 150.558594 -35.815002 -1.416246
115.174225 150.558594 -35.815002 -1.138229
128.657501 150.558594 -35.815002 -0.908010
142.140808 150.558594 -35.815002 -0.645785
155.624115 150.558594 -35.815002 -0.514759
169.107422 150.558594 -35.815002 -0.419740
182.590698 150.558594 -35.815002 -0.420532
196.074036 150.558594 -35.815002 -0.342243
209.557312 150.558594 -35.815002 -0.230074
223.040588 150.558594 -35.815002 -0.090621
236.523926 150.558594 -35.815002 0.004834
250.007202 150.558594 -35.815002 0.019175
263.490540 150.558594 -35.815002 0.002552
276.973816 150.558594 -35.815002 -0.021926
290.457092 150.558594 -35.815002 -0.022977
303.940430 150.558594 -35.815002 -0.004920
317.423706 150.558594 -35.815002 0.002002
330.907043 150.558594 -35.815002 0.000000
344.390320 150.558594 -35.815002 0.000000
-343.257996 137.075287 -35.815002 0.000000
-329.774689 137.075287 -35.815002 0.000000
-316.291382 137.075287 -35.815002 0.000000
-302.808105 137.075287 -35.815002 0.401385
-289.324799 137.075287 -35.815002 0.481594
-275.841492 137.075287 -35.815002 0.389353
-262.358185 137.075287 -35.815002 0.524318
-248.874893 137.075287 -35.815002 0.490467
-235.391602 137.075287 -35.815002 0.487117
-221.908295 137.075287 -35.815002 0.690024
-208.424988 137.075287 -35.815002 0.857299
-194.941696 137.075287 -35.815002 0.966522
-181.458389 137.075287 -35.815002 1.234107
-167.975098 137.075287 -35.815002 1.327670
-154.491791 137.075287 -35.815002 1.505469
-141.008499 137.075287 -35.815002 1.764278
-127.525192 137.075287 -35.815002 2.089804
-114.041885 137.075287 -35.815002 2.357164
-100.558594 137.075287 -35.815002 2.690179
-87.075287 137.075287 -35.815002 2.795105
-73.591980 137.075287 -35.815002 2.780137
-60.108704 137.075287 -35.815002 2.454967
-46.625397 137.075287 -35.815002 1.594690
-33.142090 137.075287 -35.815002 0.559969
-19.658783 137.075287 -35.815002 -0.169110
-6.175476 137.075287 -35.815002 -0.946552
7.307800 137.075287 -35.815002 -1.407346
20.791107 137.075287 -35.815002 -1.905720
34.274414 137.075287 -35.815002 -2.258074
47.757721 137.075287 -35.815002 -2.180726
61.240997 137.075287 -35.815002 -2.139960
74.724304 137.075287 -35.815002 -2.259816
88.207611 137.075287 -35.815002 -1.583693
101.690918 137.075287 -35.815002 -1.178069
115.174225 137.075287 -35.815002 -0.904319
128.657501 137.075287 -35.815002 -0.682214
142.140808 137.075287 -35.815002 -0.728544
155.624115 137.075287 -35.815002 -0.519463
169.107422 137.075287 -35.815002 -0.356038
182.590698 137.075287 -35.815002 -0.358769
196.074036 137.075287 -35.815002 -0.303290
209.557312 137.075287 -35.815002 -0.141878
223.040588 137.075287 -35.815002 -0.051477
236.523926 137.075287 -35.815002 0.016023
250.007202 137.075287 -35.815002 0.015085
263.490540 137.075287 -35.815002 -0.018696
276.973816 137.075287 -35.815002 -0.022121
290.457092 137.075287 -35.815002 -0.028218
303.940430 137.075287 -35.815002 -0.012622
317.423706 137.075287 -35.815002 0.004926
330.907043 137.075287 -35.815002 0.000000
344.390320 137.075287 -35.815002 0.000000
-343.257996 123.591980 -35.815002 0.000000
-329.774689 123.591980 -35.815002 0.000000
-316.291382 123.591980 -35.815002 0.000000
-302.808105 123.591980 -35.815002 0.432653
-289.324799 123.591980 -35.815002 0.571103
-275.841492 123.591980 -35.815002 0.507521
-262.358185 123.591980 -35.815002 0.611134
-248.874893 123.591980 -35.815002 0.591102
-235.391602 123.591980 -35.815002 0.697096
-221.908295 123.591980 -35.815002 0.841577
-208.424988 123.591980 -35.815002 1.041044
-194.941696 123.591980 -35.815002 1.250870
-181.458389 123.591980 -35.815002 1.278805
-167.975098 123.591980 -35.815002 1.463472
-154.491791 123.591980 -35.815002 1.674091
-141.008499 123.591980 -35.815002 2.214182
-127.525192 123.591980 -35.815002 2.490775
-114.041885 123.591980 -35.815002 2.532583
-100.558594 123.591980 -35.815002 3.080086
-87.075287 123.591980 -35.815002 3.075065
-73.591980 123.591980 -35.815002 2.806760
-60.108704 123.591980 -35.815002 2.188302
-46.625397 123.591980 -35.815002 1.282670
-33.142090 123.591980 -35.815002 0.391651
-19.658783 123.591980 -35.815002 -0.169502
-6.175476 123.591980 -35.815002 -0.925854
7.307800 123.591980 -35.815002 -1.426853
20.791107 123.591980 -35.815002 -1.814564
34.274414 123.591980 -35.815002 -2.292126
47.757721 123.591980 -35.815002 -2.170484
61.240997 123.591980 -35.815002 -2.077296
74.724304 123.591980 -35.815002 -1.979092
88.207611 123.591980 -35.815002 -1.865594
101.690918 123.591980 -35.815002 -1.279261
115.174225 123.591980 -35.815002 -0.720012
128.657501 123.591980 -35.815002 -0.553068
142.140808 123.591980 -35.815002 -0.581333
155.624115 123.591980 -35.815002 -0.354536
169.107422 123.591980 -35.815002 -0.285472
182.590698 123.591980 -35.815002 -0.277483
196.074036 123.591980 -35.815002 -0.148676
209.557312 123.591980 -35.815002 -0.141467
223.040588 123.591980 -35.815002 -0.033657
236.523926 123.591980 -35.815002 0.008158
250.007202 123.591980 -35.815002 0.011867
263.490540 123.591980 -35.815002 -0.007767
276.973816 123.591980 -35.815002 -0.002847
290.457092 123.591980 -35.815002 -0.011476
303.940430 123.591980 -35.815002 -0.012188
317.423706 123.591980 -35.815002 -0.003290
330.907043 123.591980 -35.815002 0.000000
344.390320 123.591980 -35.815002 0.000000
-343.257996 110.108704 -35.815002 0.000000
-329.774689 110.108704 -35.815002 0.000000
-316.291382 110.108704 -35.815002 0.000000
-302.808105 110.108704 -35.815002 0.550514
-289.324799 110.108704 -35.815002 0.608096
-275.841492 110.108704 -35.815002 0.571647
-262.358185 110.108704 -35.815002 0.643953
-248.874893 110.108704 -35.815002 0.672562
-235.391602 110.108704 -35.815002 0.773438
-221.908295 110.108704 -35.815002 1.018002
-208.424988 110.108704 -35.815002 1.001152
-194.941696 110.108704 -35.815002 1.515412
-181.458389 110.108704 -35.815002 1.574181
-167.975098 110.108704 -35.815002 1.991929
-154.491791 110.108704 -35.815002 2.278258
-141.008499 110.108704 -35.815002 2.484626
-127.525192 110.108704 -35.815002 2.934827
-114.041885 110.108704 -35.815002 3.016560
-100.558594 110.108704 -35.815002 3.277331
-87.075287 110.108704 -35.815002 3.123521
-73.591980 110.108704 -35.815002 3.037470
-60.108704 110.108704 -35.815002 2.399944
-46.625397 110.108704 -35.815002 1.474665
-33.142090 110.108704 -35.815002 0.436307
-19.658783 110.108704 -35.815002 0.076057
-6.175476 110.108704 -35.815002 -0.376047
7.307800 110.108704 -35.815002 -1.176516
20.791107 110.108704 -35.815002 -1.616478
34.274414 110.108704 -35.815002 -2.053073
47.757721 110.108704 -35.815002 -2.645345
61.240997 110.108704 -35.815002 -2.372668
74.724304 110.108704 -35.815002 -2.399084
88.207611 110.108704 -35.815002 -2.380949
101.690918 110.108704 -35.815002 -1.624886
115.174225 110.108704 -35.815002 -1.110765
128.657501 110.108704 -35.815002 -0.613145
142.140808 110.108704 -35.815002 -0.409712
155.624115 110.108704 -35.815002 -0.281659
169.107422 110.108704 -35.815002 -0.201299
182.590698 110.108704 -35.815002 -0.179944
196.074036 110.108704 -35.815002 -0.114417
209.557312 110.108704 -35.815002 -0.124792
223.040588 110.108704 -35.815002 -0.029082
236.523926 110.108704 -35.815002 -0.018287
250.007202 110.108704 -35.815002 0.008398
263.490540 110.108704 -35.815002 0.005922
276.973816 110.108704 -35.815002 0.000187
290.457092 110.108704 -35.815002 0.001596
303.940430 110.108704 -35.815002 0.000582
317.423706 110.108704 -35.815002 0.007543
330.907043 110.108704 -35.815002 0.000000
344.390320 110.108704 -35.815002 0.000000
-343.257996 96.625397 -35.815002 0.000000
-329.774689 96.625397 -35.815002 0.000000
-316.291382 96.625397 -35.815002 0.000000
-302.808105 96.625397 -35.815002 0.371572
-289.324799 96.625397 -35.815002 0.313779
-275.841492 96.625397 -35.815002 0.525133
-262.358185 96.625397 -35.815002 0.652054
-248.874893 96.625397 -35.815002 0.686707
-235.391602 96.625397 -35.815002 0.741777
-221.908295 96.625397 -35.815002 0.948907
-208.424988 96.625397 -35.815002 1.133701
-194.941696 96.625397 -35.815002 1.447757
-181.458389 96.625397 -35.815002 1.528457
-167.975098 96.625397 -35.815002 2.186295
-154.491791 96.625397 -35.815002 3.100303
-141.008499 96.625397 -35.815002 3.436538
-127.525192 96.625397 -35.815002 3.709329
-114.041885 96.625397 -35.815002 3.523473
-100.558594 96.625397 -35.815002 3.840043
-87.075287 96.625397 -35.815002 3.414323
-73.591980 96.625397 -35.815002 3.121283
-60.108704 96.625397 -35.815002 2.308845
-46.625397 96.625397 -35.815002 1.634822
-33.142090 96.625397 -35.815002 0.988214
-19.658783 96.625397 -35.815002 0.470947
-6.175476 96.625397 -35.815002 -0.359420
7.307800 96.625397 -35.815002 -0.980003
20.791107 96.625397 -35.815002 -1.393020
34.274414 96.625397 -35.815002 -1.817253
47.757721 96.625397 -35.815002 -2.738757
61.240997 96.625397 -35.815002 -2.839314
74.724304 96.625397 -35.815002 -2.784517
88.207611 96.625397 -35.815002 -2.698992
101.690918 96.625397 -35.815002 -2.319062
115.174225 96.625397 -35.815002 -1.489567
128.657501 96.625397 -35.815002 -0.720239
142.140808 96.625397 -35.815002 -0.329653
155.624115 96.625397 -35.815002 -0.215723
169.107422 96.625397 -35.815002 -0.181062
182.590698 96.625397 -35.815002 -0.211033
196.074036 96.625397 -35.815002 -0.098588
209.557312 96.625397 -35.815002 -0.078275
223.040588 96.625397 -35.815002 -0.038835
236.523926 96.625397 -35.815002 -0.003875
250.007202 96.625397 -35.815002 0.000600
263.490540 96.625397 -35.815002 -0.003161
276.973816 96.625397 -35.815002 -0.000224
290.457092 96.625397 -35.815002 -0.000912
303.940430 96.625397 -35.815002 0.012979
317.423706 96.625397 -35.815002 0.023456
330.907043 96.625397 -35.815002 0.000000
344.390320 96.625397 -35.815002 0.000000
-343.257996 83.142090 -35.815002 0.000000
-329.774689 83.142090 -35.815002 0.000000
-316.291382 83.142090 -35.815002 0.000000
-302.808105 83.142090 -35.815002 0.000000
-289.324799 83.142090 -35.815002 0.305564
-275.841492 83.142090 -35.815002 0.500698
-262.358185 83.142090 -35.815002 0.698229
-248.874893 83.142090 -35.815002 0.611300
-235.391602 83.142090 -35.815002 0.701133
-221.908295 83.142090 -35.815002 1.050433
-208.424988 83.142090 -35.815002 1.225072
-194.941696 83.142090 -35.815002 1.226975
-181.458389 83.142090 -35.815002 1.641599
-167.975098 83.142090 -35.815002 2.595224
-154.491791 83.142090 -35.815002 3.218213
-141.008499 83.142090 -35.815002 3.993032
-127.525192 83.142090 -35.815002 4.576996
-114.041885 83.142090 -35.815002 4.085074
-100.558594 83.142090 -35.815002 4.296625
-87.075287 83.142090 -35.815002 3.529691
-73.591980 83.142090 -35.815002 3.298925
-60.108704 83.142090 -35.815002 2.618986
-46.625397 83.142090 -35.815002 2.037666
-33.142090 83.142090 -35.815002 1.060059
-19.658783 83.142090 -35.815002 0.498841
-6.175476 83.142090 -35.815002 -0.252679
7.307800 83.142090 -35.815002 -0.677355
20.791107 83.142090 -35.815002 -1.336110
34.274414 83.142090 -35.815002 -2.171003
47.757721 83.142090 -35.815002 -2.533273
61.240997 83.142090 -35.815002 -3.005619
74.724304 83.142090 -35.815002 -2.912075
88.207611 83.142090 -35.815002 -3.021877
101.690918 83.142090 -35.815002 -2.395868
115.174225 83.142090 -35.815002 -1.829767
128.657501 83.142090 -35.815002 -1.228826
142.140808 83.142090 -35.815002 -0.726457
155.624115 83.142090 -35.815002 -0.419831
169.107422 83.142090 -35.815002 -0.299737
182.590698 83.142090 -35.815002 -0.314709
196.074036 83.142090 -35.815002 -0.164906
209.557312 83.142090 -35.815002 -0.104758
223.040588 83.142090 -35.815002 -0.022099
236.523926 83.142090 -35.815002 -0.007422
250.007202 83.142090 -35.815002 0.008640
263.490540 83.142090 -35.815002 -0.004371
276.973816 83.142090 -35.815002 0.006199
290.457092 83.142090 -35.815002 0.008396
303.940430 83.142090 -35.815002 0.022271
317.423706 83.142090 -35.815002 0.039656
330.907043 83.142090 -35.815002 0.000000
344.390320 83.142090 -35.815002 0.000000
-343.257996 69.658783 -35.815002 0.000000
-329.774689 69.658783 -35.815002 0.000000
-316.291382 69.658783 -35.815002 0.000000
-302.808105 69.658783 -35.815002 0.000000
-289.324799 69.658783 -35.815002 0.343697
-275.841492 69.658783 -35.815002 0.428645
-262.358185 69.658783 -35.815002 0.448343
-248.874893 69.658783 -35.815002 0.581923
-235.391602 69.658783 -35.815002 0.638122
-221.908295 69.658783 -35.815002 0.793257
-208.424988 69.658783 -35.815002 1.135312
-194.941696 69.658783 -35.815002 1.286526
-181.458389 69.658783 -35.815002 1.980831
-167.975098 69.658783 -35.815002 2.679241
-154.491791 69.658783 -35.815002 3.771006
-141.008499 69.658783 -35.815002 5.072955
-127.525192 69.658783 -35.815002 5.187803
-114.041885 69.658783 -35.815002 5.089665
-100.558594 69.658783 -35.815002 4.797279
-87.075287 69.658783 -35.815002 3.924576
-73.591980 69.658783 -35.815002 3.168309
-60.108704 69.658783 -35.815002 2.800744
-46.625397 69.658783 -35.815002 1.998679
-33.142090 69.658783 -35.815002 1.373358
-19.658783 69.658783 -35.815002 0.770075
-6.175476 69.658783 -35.815002 0.158317
7.307800 69.658783 -35.815002 -0.415129
20.791107 69.658783 -35.815002 -0.775992
34.274414 69.658783 -35.815002 -1.637139
47.757721 69.658783 -35.815002 -2.362470
61.240997 69.658783 -35.815002 -3.068396
74.724304 69.658783 -35.815002 -3.414741
88.207611 69.658783 -35.815002 -3.143106
101.690918 69.658783 -35.815002 -2.539183
115.174225 69.658783 -35.815002 -2.114272
128.657501 69.658783 -35.815002 -1.372595
142.140808 69.658783 -35.815002 -1.093724
155.624115 69.658783 -35.815002 -0.804222
169.107422 69.658783 -35.815002 -0.620985
182.590698 69.658783 -35.815002 -0.626907
196.074036 69.658783 -35.815002 -0.396009
209.557312 69.658783 -35.815002 -0.123720
223.040588 69.658783 -35.815002 0.005255
236.523926 69.658783 -35.815002 -0.019439
250.007202 69.658783 -35.815002 0.010539
263.490540 69.658783 -35.815002 0.032373
276.973816 69.658783 -35.815002 0.019784
290.457092 69.658783 -35.815002 0.027435
303.940430 69.658783 -35.815002 0.034912
317.423706 69.658783 -35.815002 0.038891
330.907043 69.658783 -35.815002 0.000000
344.390320 69.658783 -35.815002 0.000000
-343.257996 56.175476 -35.815002 0.000000
-329.774689 56.175476 -35.815002 0.000000
-316.291382 56.175476 -35.815002 0.000000
-302.808105 56.175476 -35.815002 0.394543
-289.324799 56.175476 -35.815002 0.379928
-275.841492 56.175476 -35.815002 0.408782
-262.358185 56.175476 -35.815002 0.483003
-248.874893 56.175476 -35.815002 0.558468
-235.391602 56.175476 -35.815002 0.431040
-221.908295 56.175476 -35.815002 0.681645
-208.424988 56.175476 -35.815002 1.266992
-194.941696 56.175476 -35.815002 1.556027
-181.458389 56.175476 -35.815002 2.262592
-167.975098 56.175476 -35.815002 3.741259
-154.491791 56.175476 -35.815002 4.733525
-141.008499 56.175476 -35.815002 5.479306
-127.525192 56.175476 -35.815002 5.337349
-114.041885 56.175476 -35.815002 5.221938
-100.558594 56.175476 -35.815002 5.106131
-87.075287 56.175476 -35.815002 4.733295
-73.591980 56.175476 -35.815002 3.386137
-60.108704 56.175476 -35.815002 2.801023
-46.625397 56.175476 -35.815002 1.983321
-33.142090 56.175476 -35.815002 1.846394
-19.658783 56.175476 -35.815002 0.822652
-6.175476 56.175476 -35.815002 0.135865
7.307800 56.175476 -35.815002 -0.493928
20.791107 56.175476 -35.815002 -0.821258
34.274414 56.175476 -35.815002 -1.388918
47.757721 56.175476 -35.815002 -2.114663
61.240997 56.175476 -35.815002 -2.790809
74.724304 56.175476 -35.815002 -3.229493
88.207611 56.175476 -35.815002 -3.091182
101.690918 56.175476 -35.815002 -2.745100
115.174225 56.175476 -35.815002 -2.019025
128.657501 56.175476 -35.815002 -1.664883
142.140808 56.175476 -35.815002 -1.447532
155.624115 56.175476 -35.815002 -1.322540
169.107422 56.175476 -35.815002 -1.136371
182.590698 56.175476 -35.815002 -0.980143
196.074036 56.175476 -35.815002 -0.622990
209.557312 56.175476 -35.815002 -0.286138
223.040588 56.175476 -35.815002 -0.076097
236.523926 56.175476 -35.815002 -0.038989
250.007202 56.175476 -35.815002 -0.021018
263.490540 56.175476 -35.815002 0.040332
276.973816 56.175476 -35.815002 0.058923
290.457092 56.175476 -35.815002 0.039746
303.940430 56.175476 -35.815002 0.045228
317.423706 56.175476 -35.815002 0.065343
330.907043 56.175476 -35.815002 0.000000
344.390320 56.175476 -35.815002 0.000000
-343.257996 42.692200 -35.815002 0.000000
-329.774689 42.692200 -35.815002 0.000000
-316.291382 42.692200 -35.815002 0.000000
-302.808105 42.692200 -35.815002 -0.008181
-289.324799 42.692200 -35.815002 0.230692
-275.841492 42.692200 -35.815002 0.365488
-262.358185 42.692200 -35.815002 0.445968
-248.874893 42.692200 -35.815002 0.500997
-235.391602 42.692200 -35.815002 0.670062
-221.908295 42.692200 -35.815002 0.958099
-208.424988 42.692200 -35.815002 1.457890
-194.941696 42.692200 -35.815002 1.924842
-181.458389 42.692200 -35.815002 2.722096
-167.975098 42.692200 -35.815002 4.013339
-154.491791 42.692200 -35.815002 4.888378
-141.008499 42.692200 -35.815002 5.627501
-127.525192 42.692200 -35.815002 5.875645
-114.041885 42.692200 -35.815002 5.414670
-100.558594 42.692200 -35.815002 5.058922
-87.075287 42.692200 -35.815002 4.511658
-73.591980 42.692200 -35.815002 3.388036
-60.108704 42.692200 -35.815002 3.005832
-46.625397 42.692200 -35.815002 2.271234
-33.142090 42.692200 -35.815002 1.711513
-19.658783 42.692200 -35.815002 1.065951
-6.175476 42.692200 -35.815002 0.433858
7.307800 42.692200 -35.815002 -0.109794
20.791107 42.692200 -35.815002 -0.919033
34.274414 42.692200 -35.815002 -1.286565
47.757721 42.692200 -35.815002 -1.647910
61.240997 42.692200 -35.815002 -2.236413
74.724304 42.692200 -35.815002 -2.511674
88.207611 42.692200 -35.815002 -2.537928
101.690918 42.692200 -35.815002 -2.314838
115.174225 42.692200 -35.815002 -1.958097
128.657501 42.692200 -35.815002 -1.792568
142.140808 42.692200 -35.815002 -1.723344
155.624115 42.692200 -35.815002 -1.641003
169.107422 42.692200 -35.815002 -1.560940
182.590698 42.692200 -35.815002 -1.277065
196.074036 42.692200 -35.815002 -0.809660
209.557312 42.692200 -35.815002 -0.406945
223.040588 42.692200 -35.815002 -0.232357
236.523926 42.692200 -35.815002 -0.147313
250.007202 42.692200 -35.815002 -0.023972
263.490540 42.692200 -35.815002 0.004251
276.973816 42.692200 -35.815002 -0.000555
290.457092 42.692200 -35.815002 0.019780
303.940430 42.692200 -35.815002 0.065467
317.423706 42.692200 -35.815002 0.066407
330.907043 42.692200 -35.815002 0.000000
344.390320 42.692200 -35.815002 0.000000
-343.257996 29.208893 -35.815002 0.000000
-329.774689 29.208893 -35.815002 0.000000
-316.291382 29.208893 -35.815002 0.000000
-302.808105 29.208893 -35.815002 -0.240172
-289.324799 29.208893 -35.815002 -0.121430
-275.841492 29.208893 -35.815002 0.199257
-262.358185 29.208893 -35.815002 0.367383
-248.874893 29.208893 -35.815002 0.511538
-235.391602 29.208893 -35.815002 0.851159
-221.908295 29.208893 -35.815002 1.123818
-208.424988 29.208893 -35.815002 1.194227
-194.941696 29.208893 -35.815002 1.848188
-181.458389 29.208893 -35.815002 3.088190
-167.975098 29.208893 -35.815002 3.922723
-154.491791 29.208893 -35.815002 4.848161
-141.008499 29.208893 -35.815002 5.620205
-127.525192 29.208893 -35.815002 5.931283
-114.041885 29.208893 -35.815002 5.817718
-100.558594 29.208893 -35.815002 5.516495
-87.075287 29.208893 -35.815002 4.385384
-73.591980 29.208893 -35.815002 3.379833
-60.108704 29.208893 -35.815002 2.117508
-46.625397 29.208893 -35.815002 1.958448
-33.142090 29.208893 -35.815002 1.644419
-19.658783 29.208893 -35.815002 0.947268
-6.175476 29.208893 -35.815002 0.410485
7.307800 29.208893 -35.815002 -0.010625
20.791107 29.208893 -35.815002 -1.004369
34.274414 29.208893 -35.815002 -0.964769
47.757721 29.208893 -35.815002 -1.287357
61.240997 29.208893 -35.815002 -1.996863
74.724304 29.208893 -35.815002 -2.100379
88.207611 29.208893 -35.815002 -2.396855
101.690918 29.208893 -35.815002 -2.329039
115.174225 29.208893 -35.815002 -1.931144
128.657501 29.208893 -35.815002 -1.545865
142.140808 29.208893 -35.815002 -1.648533
155.624115 29.208893 -35.815002 -1.513031
169.107422 29.208893 -35.815002 -1.628135
182.590698 29.208893 -35.815002 -1.387632
196.074036 29.208893 -35.815002 -0.997385
209.557312 29.208893 -35.815002 -0.685758
223.040588 29.208893 -35.815002 -0.370184
236.523926 29.208893 -35.815002 -0.319425
250.007202 29.208893 -35.815002 -0.199677
263.490540 29.208893 -35.815002 0.011123
276.973816 29.208893 -35.815002 -0.012557
290.457092 29.208893 -35.815002 -0.018673
303.940430 29.208893 -35.815002 0.045009
317.423706 29.208893 -35.815002 0.077545
330.907043 29.208893 -35.815002 0.000000
344.390320 29.208893 -35.815002 0.000000
-343.257996 15.725586 -35.815002 0.000000
-329.774689 15.725586 -35.815002 0.000000
-316.291382 15.725586 -35.815002 0.051952
-302.808105 15.725586 -35.815002 -0.090741
-289.324799 15.725586 -35.815002 -0.017901
-275.841492 15.725586 -35.815002 -0.048448
-262.358185 15.725586 -35.815002 0.276601
-248.874893 15.725586 -35.815002 0.709140
-235.391602 15.725586 -35.815002 0.502981
-221.908295 15.725586 -35.815002 0.624958
-208.424988 15.725586 -35.815002 1.283021
-194.941696 15.725586 -35.815002 2.117497
-181.458389 15.725586 -35.815002 3.180244
-167.975098 15.725586 -35.815002 4.057302
-154.491791 15.725586 -35.815002 5.207314
-141.008499 15.725586 -35.815002 6.195458
-127.525192 15.725586 -35.815002 6.143897
-114.041885 15.725586 -35.815002 5.552296
-100.558594 15.725586 -35.815002 4.646990
-87.075287 15.725586 -35.815002 4.011898
-73.591980 15.725586 -35.815002 3.424104
-60.108704 15.725586 -35.815002 2.583067
-46.625397 15.725586 -35.815002 1.837802
-33.142090 15.725586 -35.815002 1.468337
-19.658783 15.725586 -35.815002 0.959824
-6.175476 15.725586 -35.815002 0.270049
7.307800 15.725586 -35.815002 -0.281067
20.791107 15.725586 -35.815002 -0.848964
34.274414 15.725586 -35.815002 -1.141242
47.757721 15.725586 -35.815002 -1.114969
61.240997 15.725586 -35.815002 -1.866768
74.724304 15.725586 -35.815002 -2.287634
88.207611 15.725586 -35.815002 -2.169189
101.690918 15.725586 -35.815002 -2.101657
115.174225 15.725586 -35.815002 -1.769469
128.657501 15.725586 -35.815002 -1.641013
142.140808 15.725586 -35.815002 -1.624108
155.624115 15.725586 -35.815002 -1.503222
169.107422 15.725586 -35.815002 -1.598145
182.590698 15.725586 -35.815002 -1.345302
196.074036 15.725586 -35.815002 -1.216820
209.557312 15.725586 -35.815002 -0.819252
223.040588 15.725586 -35.815002 -0.521891
236.523926 15.725586 -35.815002 -0.388213
250.007202 15.725586 -35.815002 -0.194322
263.490540 15.725586 -35.815002 -0.132076
276.973816 15.725586 -35.815002 -0.054478
290.457092 15.725586 -35.815002 0.042755
303.940430 15.725586 -35.815002 0.009321
317.423706 15.725586 -35.815002 0.085699
330.907043 15.725586 -35.815002 0.000000
344.390320 15.725586 -35.815002 0.000000
-343.257996 2.242279 -35.815002 0.000000
-329.774689 2.242279 -35.815002 0.000000
-316.291382 2.242279 -35.815002 -0.130070
-302.808105 2.242279 -35.815002 0.015772
-289.324799 2.242279 -35.815002 0.320649
-275.841492 2.242279 -35.815002 0.327435
-262.358185 2.242279 -35.815002 0.262820
-248.874893 2.242279 -35.815002 0.708312
-235.391602 2.242279 -35.815002 0.825271
-221.908295 2.242279 -35.815002 1.219098
-208.424988 2.242279 -35.815002 1.726244
-194.941696 2.242279 -35.815002 2.187464
-181.458389 2.242279 -35.815002 3.268188
-167.975098 2.242279 -35.815002 4.365237
-154.491791 2.242279 -35.815002 4.943635
-141.008499 2.242279 -35.815002 6.019865
-127.525192 2.242279 -35.815002 6.456867
-114.041885 2.242279 -35.815002 4.984216
-100.558594 2.242279 -35.815002 3.637215
-87.075287 2.242279 -35.815002 3.032019
-73.591980 2.242279 -35.815002 2.237802
-60.108704 2.242279 -35.815002 2.087799
-46.625397 2.242279 -35.815002 1.872772
-33.142090 2.242279 -35.815002 1.100636
-19.658783 2.242279 -35.815002 0.597623
-6.175476 2.242279 -35.815002 -0.027568
7.307800 2.242279 -35.815002 -0.593522
20.791107 2.242279 -35.815002 -1.062170
34.274414 2.242279 -35.815002 -1.367817
47.757721 2.242279 -35.815002 -1.549408
61.240997 2.242279 -35.815002 -2.015891
74.724304 2.242279 -35.815002 -2.464306
88.207611 2.242279 -35.815002 -2.006537
101.690918 2.242279 -35.815002 -2.059722
115.174225 2.242279 -35.815002 -1.935889
128.657501 2.242279 -35.815002 -1.674302
142.140808 2.242279 -35.815002 -1.407566
155.624115 2.242279 -35.815002 -1.282365
169.107422 2.242279 -35.815002 -1.345448
182.590698 2.242279 -35.815002 -1.262144
196.074036 2.242279 -35.815002 -1.205344
209.557312 2.242279 -35.815002 -0.943952
223.040588 2.242279 -35.815002 -0.640320
236.523926 2.242279 -35.815002 -0.442562
250.007202 2.242279 -35.815002 -0.310707
263.490540 2.242279 -35.815002 -0.221593
276.973816 2.242279 -35.815002 -0.097363
290.457092 2.242279 -35.815002 -0.075083
303.940430 2.242279 -35.815002 -0.143910
317.423706 2.242279 -35.815002 -0.092507
330.907043 2.242279 -35.815002 0.000000
344.390320 2.242279 -35.815002 0.000000
-343.257996 -11.240997 -35.815002 0.000000
-329.774689 -11.240997 -35.815002 0.000000
-316.291382 -11.240997 -35.815002 -0.005904
-302.808105 -11.240997 -35.815002 0.113403
-289.324799 -11.240997 -35.815002 0.121710
-275.841492 -11.240997 -35.815002 0.041481
-262.358185 -11.240997 -35.815002 0.262684
-248.874893 -11.240997 -35.815002 0.507681
-235.391602 -11.240997 -35.815002 0.736336
-221.908295 -11.240997 -35.815002 1.358345
-208.424988 -11.240997 -35.815002 2.285094
-194.941696 -11.240997 -35.815002 2.115069
-181.458389 -11.240997 -35.815002 3.457047
-167.975098 -11.240997 -35.815002 4.447017
-154.491791 -11.240997 -35.815002 5.647021
-141.008499 -11.240997 -35.815002 6.053527
-127.525192 -11.240997 -35.815002 5.276398
-114.041885 -11.240997 -35.815002 4.069415
-100.558594 -11.240997 -35.815002 3.176013
-87.075287 -11.240997 -35.815002 2.431437
-73.591980 -11.240997 -35.815002 2.215121
-60.108704 -11.240997 -35.815002 2.044085
-46.625397 -11.240997 -35.815002 1.560304
-33.142090 -11.240997 -35.815002 1.341499
-19.658783 -11.240997 -35.815002 0.442726
-6.175476 -11.240997 -35.815002 -0.185762
7.307800 -11.240997 -35.815002 -0.876677
20.791107 -11.240997 -35.815002 -1.205348
34.274414 -11.240997 -35.815002 -1.584770
47.757721 -11.240997 -35.815002 -1.741698
61.240997 -11.240997 -35.815002 -2.364146
74.724304 -11.240997 -35.815002 -2.820818
88.207611 -11.240997 -35.815002 -2.329731
101.690918 -11.240997 -35.815002 -2.047355
115.174225 -11.240997 -35.815002 -1.519011
128.657501 -11.240997 -35.815002 -1.606964
142.140808 -11.240997 -35.815002 -1.300140
155.624115 -11.240997 -35.815002 -1.154901
169.107422 -11.240997 -35.815002 -1.315102
182.590698 -11.240997 -35.815002 -1.209472
196.074036 -11.240997 -35.815002 -1.239030
209.557312 -11.240997 -35.815002 -1.055567
223.040588 -11.240997 -35.815002 -0.675640
236.523926 -11.240997 -35.815002 -0.430529
250.007202 -11.240997 -35.815002 -0.345813
263.490540 -11.240997 -35.815002 -0.265141
276.973816 -11.240997 -35.815002 -0.268486
290.457092 -11.240997 -35.815002 -0.102172
303.940430 -11.240997 -35.815002 -0.083843
317.423706 -11.240997 -35.815002 -0.123289
330.907043 -11.240997 -35.815002 0.000000
344.390320 -11.240997 -35.815002 0.000000
-343.257996 -24.724304 -35.815002 0.000000
-329.774689 -24.724304 -35.815002 0.000000
-316.291382 -24.724304 -35.815002 -0.043483
-302.808105 -24.724304 -35.815002 -0.064159
-289.324799 -24.724304 -35.815002 0.087732
-275.841492 -24.724304 -35.815002 0.159790
-262.358185 -24.724304 -35.815002 -0.008849
-248.874893 -24.724304 -35.815002 0.281555
-235.391602 -24.724304 -35.815002 0.894800
-221.908295 -24.724304 -35.815002 1.230381
-208.424988 -24.724304 -35.815002 1.610048
-194.941696 -24.724304 -35.815002 2.346926
-181.458389 -24.724304 -35.815002 3.363707
-167.975098 -24.724304 -35.815002 4.172034
-154.491791 -24.724304 -35.815002 4.721342
-141.008499 -24.724304 -35.815002 5.462957
-127.525192 -24.724304 -35.815002 4.978466
-114.041885 -24.724304 -35.815002 3.608364
-100.558594 -24.724304 -35.815002 2.234240
-87.075287 -24.724304 -35.815002 1.215599
-73.591980 -24.724304 -35.815002 1.571026
-60.108704 -24.724304 -35.815002 1.291490
-46.625397 -24.724304 -35.815002 1.199400
-33.142090 -24.724304 -35.815002 0.860574
-19.658783 -24.724304 -35.815002 0.112561
-6.175476 -24.724304 -35.815002 -0.526927
7.307800 -24.724304 -35.815002 -1.311596
20.791107 -24.724304 -35.815002 -1.173758
34.274414 -24.724304 -35.815002 -1.801615
47.757721 -24.724304 -35.815002 -2.101737
61.240997 -24.724304 -35.815002 -2.574373
74.724304 -24.724304 -35.815002 -2.617305
88.207611 -24.724304 -35.815002 -2.283449
101.690918 -24.724304 -35.815002 -1.791087
115.174225 -24.724304 -35.815002 -1.463098
128.657501 -24.724304 -35.815002 -1.197508
142.140808 -24.724304 -35.815002 -1.170344
155.624115 -24.724304 -35.815002 -1.106013
169.107422 -24.724304 -35.815002 -1.085266
182.590698 -24.724304 -35.815002 -1.173881
196.074036 -24.724304 -35.815002 -1.077198
209.557312 -24.724304 -35.815002 -1.073197
223.040588 -24.724304 -35.815002 -0.890679
236.523926 -24.724304 -35.815002 -0.582967
250.007202 -24.724304 -35.815002 -0.456392
263.490540 -24.724304 -35.815002 -0.328179
276.973816 -24.724304 -35.815002 -0.268965
290.457092 -24.724304 -35.815002 -0.177935
303.940430 -24.724304 -35.815002 -0.065120
317.423706 -24.724304 -35.815002 -0.115645
330.907043 -24.724304 -35.815002 0.000000
344.390320 -24.724304 -35.815002 0.000000
-343.257996 -38.207611 -35.815002 0.000000
-329.774689 -38.207611 -35.815002 0.000000
-316.291382 -38.207611 -35.815002 0.086293
-302.808105 -38.207611 -35.815002 0.081568
-289.324799 -38.207611 -35.815002 0.104938
-275.841492 -38.207611 -35.815002 0.626138
-262.358185 -38.207611 -35.815002 0.414756
-248.874893 -38.207611 -35.815002 0.312480
-235.391602 -38.207611 -35.815002 0.652449
-221.908295 -38.207611 -35.815002 1.142145
-208.424988 -38.207611 -35.815002 1.459366
-194.941696 -38.207611 -35.815002 2.111177
-181.458389 -38.207611 -35.815002 3.555553
-167.975098 -38.207611 -35.815002 2.974408
-154.491791 -38.207611 -35.815002 3.257565
-141.008499 -38.207611 -35.815002 4.216200
-127.525192 -38.207611 -35.815002 3.134220
-114.041885 -38.207611 -35.815002 2.355093
-100.558594 -38.207611 -35.815002 1.629687
-87.075287 -38.207611 -35.815002 0.709849
-73.591980 -38.207611 -35.815002 0.484733
-60.108704 -38.207611 -35.815002 0.494444
-46.625397 -38.207611 -35.815002 0.210806
-33.142090 -38.207611 -35.815002 0.094962
-19.658783 -38.207611 -35.815002 -0.220129
-6.175476 -38.207611 -35.815002 -0.928852
7.307800 -38.207611 -35.815002 -1.588445
20.791107 -38.207611 -35.815002 -1.731012
34.274414 -38.207611 -35.815002 -2.171488
47.757721 -38.207611 -35.815002 -2.457444
61.240997 -38.207611 -35.815002 -2.320180
74.724304 -38.207611 -35.815002 -2.163480
88.207611 -38.207611 -35.815002 -1.958748
101.690918 -38.207611 -35.815002 -1.518804
115.174225 -38.207611 -35.815002 -1.466351
128.657501 -38.207611 -35.815002 -1.090294
142.140808 -38.207611 -35.815002 -0.890852
155.624115 -38.207611 -35.815002 -0.980233
169.107422 -38.207611 -35.815002 -0.758672
182.590698 -38.207611 -35.815002 -0.847520
196.074036 -38.207611 -35.815002 -0.852799
209.557312 -38.207611 -35.815002 -0.837961
223.040588 -38.207611 -35.815002 -0.752144
236.523926 -38.207611 -35.815002 -0.586922
250.007202 -38.207611 -35.815002 -0.491044
263.490540 -38.207611 -35.815002 -0.420963
276.973816 -38.207611 -35.815002 -0.322153
290.457092 -38.207611 -35.815002 -0.294074
303.940430 -38.207611 -35.815002 -0.039302
317.423706 -38.207611 -35.815002 0.036532
330.907043 -38.207611 -35.815002 0.000000
344.390320 -38.207611 -35.815002 0.000000
-343.257996 -51.690918 -35.815002 0.000000
-329.774689 -51.690918 -35.815002 0.000000
-316.291382 -51.690918 -35.815002 -0.138073
-302.808105 -51.690918 -35.815002 -0.242833
-289.324799 -51.690918 -35.815002 -0.035202
-275.841492 -51.690918 -35.815002 0.213674
-262.358185 -51.690918 -35.815002 0.299432
-248.874893 -51.690918 -35.815002 0.439242
-235.391602 -51.690918 -35.815002 0.910213
-221.908295 -51.690918 -35.815002 1.196344
-208.424988 -51.690918 -35.815002 1.359188
-194.941696 -51.690918 -35.815002 2.006127
-181.458389 -51.690918 -35.815002 2.355133
-167.975098 -51.690918 -35.815002 2.071996
-154.491791 -51.690918 -35.815002 2.325120
-141.008499 -51.690918 -35.815002 2.625671
-127.525192 -51.690918 -35.815002 1.936624
-114.041885 -51.690918 -35.815002 1.505819
-100.558594 -51.690918 -35.815002 0.328313
-87.075287 -51.690918 -35.815002 0.367137
-73.591980 -51.690918 -35.815002 0.138385
-60.108704 -51.690918 -35.815002 0.225494
-46.625397 -51.690918 -35.815002 -0.037166
-33.142090 -51.690918 -35.815002 -0.882222
-19.658783 -51.690918 -35.815002 -0.767598
-6.175476 -51.690918 -35.815002 -1.453624
7.307800 -51.690918 -35.815002 -1.804796
20.791107 -51.690918 -35.815002 -2.204610
34.274414 -51.690918 -35.815002 -2.418700
47.757721 -51.690918 -35.815002 -2.118195
61.240997 -51.690918 -35.815002 -1.846320
74.724304 -51.690918 -35.815002 -1.645660
88.207611 -51.690918 -35.815002 -1.293857
101.690918 -51.690918 -35.815002 -1.107275
115.174225 -51.690918 -35.815002 -1.030074
128.657501 -51.690918 -35.815002 -0.795207
142.140808 -51.690918 -35.815002 -0.702568
155.624115 -51.690918 -35.815002 -0.556477
169.107422 -51.690918 -35.815002 -0.664416
182.590698 -51.690918 -35.815002 -0.727207
196.074036 -51.690918 -35.815002 -0.755783
209.557312 -51.690918 -35.815002 -0.708313
223.040588 -51.690918 -35.815002 -0.708411
236.523926 -51.690918 -35.815002 -0.481379
250.007202 -51.690918 -35.815002 -0.420706
263.490540 -51.690918 -35.815002 -0.347112
276.973816 -51.690918 -35.815002 -0.394467
290.457092 -51.690918 -35.815002 -0.056911
303.940430 -51.690918 -35.815002 0.055507
317.423706 -51.690918 -35.815002 0.461927
330.907043 -51.690918 -35.815002 0.000000
344.390320 -51.690918 -35.815002 0.000000
-343.257996 -65.174225 -35.815002 0.000000
-329.774689 -65.174225 -35.815002 0.000000
-316.291382 -65.174225 -35.815002 0.233368
-302.808105 -65.174225 -35.815002 0.000930
-289.324799 -65.174225 -35.815002 0.181509
-275.841492 -65.174225 -35.815002 -0.166269
-262.358185 -65.174225 -35.815002 -0.035373
-248.874893 -65.174225 -35.815002 0.237820
-235.391602 -65.174225 -35.815002 0.412470
-221.908295 -65.174225 -35.815002 1.054621
-208.424988 -65.174225 -35.815002 0.840172
-194.941696 -65.174225 -35.815002 1.144608
-181.458389 -65.174225 -35.815002 0.946898
-167.975098 -65.174225 -35.815002 0.177191
-154.491791 -65.174225 -35.815002 0.037575
-141.008499 -65.174225 -35.815002 0.557749
-127.525192 -65.174225 -35.815002 0.298983
-114.041885 -65.174225 -35.815002 0.415255
-100.558594 -65.174225 -35.815002 0.036770
-87.075287 -65.174225 -35.815002 0.148625
-73.591980 -65.174225 -35.815002 0.013938
-60.108704 -65.174225 -35.815002 -0.580169
-46.625397 -65.174225 -35.815002 -0.573604
-33.142090 -65.174225 -35.815002 -1.022454
-19.658783 -65.174225 -35.815002 -1.329562
-6.175476 -65.174225 -35.815002 -1.733808
7.307800 -65.174225 -35.815002 -1.860623
20.791107 -65.174225 -35.815002 -1.968755
34.274414 -65.174225 -35.815002 -2.234888
47.757721 -65.174225 -35.815002 -1.557482
61.240997 -65.174225 -35.815002 -1.224811
74.724304 -65.174225 -35.815002 -0.869340
88.207611 -65.174225 -35.815002 -0.807561
101.690918 -65.174225 -35.815002 -0.560674
115.174225 -65.174225 -35.815002 -0.516033
128.657501 -65.174225 -35.815002 -0.448807
142.140808 -65.174225 -35.815002 -0.446207
155.624115 -65.174225 -35.815002 -0.430533
169.107422 -65.174225 -35.815002 -0.524431
182.590698 -65.174225 -35.815002 -0.542696
196.074036 -65.174225 -35.815002 -0.729661
209.557312 -65.174225 -35.815002 -0.656941
223.040588 -65.174225 -35.815002 -0.540373
236.523926 -65.174225 -35.815002 -0.539460
250.007202 -65.174225 -35.815002 -0.456360
263.490540 -65.174225 -35.815002 -0.303954
276.973816 -65.174225 -35.815002 -0.357570
290.457092 -65.174225 -35.815002 0.229742
303.940430 -65.174225 -35.815002 -0.011465
317.423706 -65.174225 -35.815002 0.233743
330.907043 -65.174225 -35.815002 0.000000
344.390320 -65.174225 -35.815002 0.000000
-343.257996 -78.657501 -35.815002 0.000000
-329.774689 -78.657501 -35.815002 0.000000
-316.291382 -78.657501 -35.815002 -0.161056
-302.808105 -78.657501 -35.815002 -0.259438
-289.324799 -78.657501 -35.815002 0.083559
-275.841492 -78.657501 -35.815002 0.357043
-262.358185 -78.657501 -35.815002 0.337613
-248.874893 -78.657501 -35.815002 -0.171724
-235.391602 -78.657501 -35.815002 0.651452
-221.908295 -78.657501 -35.815002 1.940694
-208.424988 -78.657501 -35.815002 1.648539
-194.941696 -78.657501 -35.815002 0.000000
-181.458389 -78.657501 -35.815002 -1.151584
-167.975098 -78.657501 -35.815002 0.000000
-154.491791 -78.657501 -35.815002 -1.458863
-141.008499 -78.657501 -35.815002 -0.535102
-127.525192 -78.657501 -35.815002 -0.278609
-114.041885 -78.657501 -35.815002 0.002488
-100.558594 -78.657501 -35.815002 -0.310323
-87.075287 -78.657501 -35.815002 -0.043720
-73.591980 -78.657501 -35.815002 -0.997160
-60.108704 -78.657501 -35.815002 -0.862612
-46.625397 -78.657501 -35.815002 -1.044978
-33.142090 -78.657501 -35.815002 -1.162473
-19.658783 -78.657501 -35.815002 -1.459500
-6.175476 -78.657501 -35.815002 -1.691279
7.307800 -78.657501 -35.815002 -1.850725
20.791107 -78.657501 -35.815002 -1.932159
34.274414 -78.657501 -35.815002 -1.759251
47.757721 -78.657501 -35.815002 -1.145720
61.240997 -78.657501 -35.815002 -0.712998
74.724304 -78.657501 -35.815002 -0.383930
88.207611 -78.657501 -35.815002 -0.556285
101.690918 -78.657501 -35.815002 -0.271169
115.174225 -78.657501 -35.815002 -0.237179
128.657501 -78.657501 -35.815002 -0.111208
142.140808 -78.657501 -35.815002 -0.207483
155.624115 -78.657501 -35.815002 -0.338408
169.107422 -78.657501 -35.815002 -0.257021
182.590698 -78.657501 -35.815002 -0.362603
196.074036 -78.657501 -35.815002 -0.502209
209.557312 -78.657501 -35.815002 -0.450036
223.040588 -78.657501 -35.815002 -0.428638
236.523926 -78.657501 -35.815002 -0.353635
250.007202 -78.657501 -35.815002 -0.355455
263.490540 -78.657501 -35.815002 -0.277889
276.973816 -78.657501 -35.815002 -0.591971
290.457092 -78.657501 -35.815002 0.012998
303.940430 -78.657501 -35.815002 -0.272675
317.423706 -78.657501 -35.815002 -0.273377
330.907043 -78.657501 -35.815002 0.000000
344.390320 -78.657501 -35.815002 0.000000
-343.257996 -92.140808 -35.815002 0.000000
-329.774689 -92.140808 -35.815002 0.000000
-316.291382 -92.140808 -35.815002 -0.381798
-302.808105 -92.140808 -35.815002 -0.376738
-289.324799 -92.140808 -35.815002 -0.191710
-275.841492 -92.140808 -35.815002 -0.631456
-262.358185 -92.140808 -35.815002 -0.495106
-248.874893 -92.140808 -35.815002 0.684910
-235.391602 -92.140808 -35.815002 0.000000
-221.908295 -92.140808 -35.815002 0.000000
-208.424988 -92.140808 -35.815002 0.000000
-194.941696 -92.140808 -35.815002 0.000000
-181.458389 -92.140808 -35.815002 0.000000
-167.975098 -92.140808 -35.815002 0.000000
-154.491791 -92.140808 -35.815002 -2.739489
-141.008499 -92.140808 -35.815002 -1.601378
-127.525192 -92.140808 -35.815002 -1.681136
-114.041885 -92.140808 -35.815002 -2.857099
-100.558594 -92.140808 -35.815002 -1.287964
-87.075287 -92.140808 -35.815002 -1.154689
-73.591980 -92.140808 -35.815002 -0.669392
-60.108704 -92.140808 -35.815002 -0.822277
-46.625397 -92.140808 -35.815002 -1.098863
-33.142090 -92.140808 -35.815002 -1.036871
-19.658783 -92.140808 -35.815002 -1.124043
-6.175476 -92.140808 -35.815002 -1.389056
7.307800 -92.140808 -35.815002 -1.256775
20.791107 -92.140808 -35.815002 -1.499512
34.274414 -92.140808 -35.815002 -1.435477
47.757721 -92.140808 -35.815002 -1.048648
61.240997 -92.140808 -35.815002 -0.622604
74.724304 -92.140808 -35.815002 -0.271685
88.207611 -92.140808 -35.815002 -0.301679
101.690918 -92.140808 -35.815002 -0.230296
115.174225 -92.140808 -35.815002 -0.115260
128.657501 -92.140808 -35.815002 -0.114595
142.140808 -92.140808 -35.815002 -0.334699
155.624115 -92.140808 -35.815002 -0.311543
169.107422 -92.140808 -35.815002 -0.290894
182.590698 -92.140808 -35.815002 -0.463063
196.074036 -92.140808 -35.815002 -0.376750
209.557312 -92.140808 -35.815002 -0.536764
223.040588 -92.140808 -35.815002 -0.410527
236.523926 -92.140808 -35.815002 -0.132269
250.007202 -92.140808 -35.815002 0.014461
263.490540 -92.140808 -35.815002 -0.265099
276.973816 -92.140808 -35.815002 -0.230519
290.457092 -92.140808 -35.815002 0.121330
303.940430 -92.140808 -35.815002 -0.333238
317.423706 -92.140808 -35.815002 -0.371671
330.907043 -92.140808 -35.815002 0.000000
344.390320 -92.140808 -35.815002 0.000000
-343.257996 -105.624115 -35.815002 0.000000
-329.774689 -105.624115 -35.815002 0.000000
-316.291382 -105.624115 -35.815002 0.000000
-302.808105 -105.624115 -35.815002 1.046671
-289.324799 -105.624115 -35.815002 1.638225
-275.841492 -105.624115 -35.815002 1.279471
-262.358185 -105.624115 -35.815002 1.015579
-248.874893 -105.624115 -35.815002 3.055806
-235.391602 -105.624115 -35.815002 0.000000
-221.908295 -105.624115 -35.815002 0.000000
-208.424988 -105.624115 -35.815002 0.000000
-194.941696 -105.624115 -35.815002 0.000000
-181.458389 -105.624115 -35.815002 0.000000
-167.975098 -105.624115 -35.815002 0.000000
-154.491791 -105.624115 -35.815002 -3.804012
-141.008499 -105.624115 -35.815002 -3.155144
-127.525192 -105.624115 -35.815002 -2.817591
-114.041885 -105.624115 -35.815002 -2.605435
-100.558594 -105.624115 -35.815002 -1.525357
-87.075287 -105.624115 -35.815002 -1.356303
-73.591980 -105.624115 -35.815002 -0.739003
-60.108704 -105.624115 -35.815002 -0.919406
-46.625397 -105.624115 -35.815002 -1.103496
-33.142090 -105.624115 -35.815002 -1.678055
-19.658783 -105.624115 -35.815002 -1.525977
-6.175476 -105.624115 -35.815002 -1.078926
7.307800 -105.624115 -35.815002 -1.080546
20.791107 -105.624115 -35.815002 -0.785526
34.274414 -105.624115 -35.815002 -0.841608
47.757721 -105.624115 -35.815002 -0.776500
61.240997 -105.624115 -35.815002 -0.336388
74.724304 -105.624115 -35.815002 -0.180703
88.207611 -105.624115 -35.815002 -0.024393
101.690918 -105.624115 -35.815002 0.074123
115.174225 -105.624115 -35.815002 -0.138140
128.657501 -105.624115 -35.815002 -0.168108
142.140808 -105.624115 -35.815002 -0.496915
155.624115 -105.624115 -35.815002 -0.535559
169.107422 -105.624115 -35.815002 -0.527104
182.590698 -105.624115 -35.815002 -0.708234
196.074036 -105.624115 -35.815002 -0.422645
209.557312 -105.624115 -35.815002 -0.312631
223.040588 -105.624115 -35.815002 -0.262854
236.523926 -105.624115 -35.815002 -0.121366
250.007202 -105.624115 -35.815002 -0.085948
263.490540 -105.624115 -35.815002 -0.541293
276.973816 -105.624115 -35.815002 -0.205582
290.457092 -105.624115 -35.815002 -0.194870
303.940430 -105.624115 -35.815002 -1.013530
317.423706 -105.624115 -35.815002 -0.356049
330.907043 -105.624115 -35.815002 0.000000
344.390320 -105.624115 -35.815002 0.000000
-343.257996 -119.107422 -35.815002 0.000000
-329.774689 -119.107422 -35.815002 0.000000
-316.291382 -119.107422 -35.815002 0.000000
-302.808105 -119.107422 -35.815002 0.000000
-289.324799 -119.107422 -35.815002 2.629145
-275.841492 -119.107422 -35.815002 2.968364
-262.358185 -119.107422 -35.815002 4.909789
-248.874893 -119.107422 -35.815002 3.987690
-235.391602 -119.107422 -35.815002 0.000000
-221.908295 -119.107422 -35.815002 0.000000
-208.424988 -119.107422 -35.815002 0.000000
-194.941696 -119.107422 -35.815002 0.000000
-181.458389 -119.107422 -35.815002 0.000000
-167.975098 -119.107422 -35.815002 0.000000
-154.491791 -119.107422 -35.815002 -3.576995
-141.008499 -119.107422 -35.815002 -4.190030
-127.525192 -119.107422 -35.815002 -2.930172
-114.041885 -119.107422 -35.815002 -2.158579
-100.558594 -119.107422 -35.815002 -2.109375
-87.075287 -119.107422 -35.815002 -1.007596
-73.591980 -119.107422 -35.815002 -1.700818
-60.108704 -119.107422 -35.815002 -1.435150
-46.625397 -119.107422 -35.815002 -1.413859
-33.142090 -119.107422 -35.815002 -1.534761
-19.658783 -119.107422 -35.815002 -0.947464
-6.175476 -119.107422 -35.815002 -0.687446
7.307800 -119.107422 -35.815002 -0.479740
20.791107 -119.107422 -35.815002 -0.623711
34.274414 -119.107422 -35.815002 -0.531504
47.757721 -119.107422 -35.815002 -0.548305
61.240997 -119.107422 -35.815002 -0.103070
74.724304 -119.107422 -35.815002 -0.281061
88.207611 -119.107422 -35.815002 -0.024926
101.690918 -119.107422 -35.815002 0.374532
115.174225 -119.107422 -35.815002 0.082781
128.657501 -119.107422 -35.815002 -0.399263
142.140808 -119.107422 -35.815002 -0.691522
155.624115 -119.107422 -35.815002 -0.693390
169.107422 -119.107422 -35.815002 -0.684226
182.590698 -119.107422 -35.815002 -0.511404
196.074036 -119.107422 -35.815002 -0.188443
209.557312 -119.107422 -35.815002 -0.269943
223.040588 -119.107422 -35.815002 -0.154511
236.523926 -119.107422 -35.815002 -0.460197
250.007202 -119.107422 -35.815002 -0.754689
263.490540 -119.107422 -35.815002 -1.353731
276.973816 -119.107422 -35.815002 -0.872456
290.457092 -119.107422 -35.815002 -1.983760
303.940430 -119.107422 -35.815002 -0.658429
317.423706 -119.107422 -35.815002 0.000000
330.907043 -119.107422 -35.815002 0.000000
344.390320 -119.107422 -35.815002 0.000000
-343.257996 -132.590698 -35.815002 0.000000
-329.774689 -132.590698 -35.815002 0.000000
-316.291382 -132.590698 -35.815002 0.000000
-302.808105 -132.590698 -35.815002 0.000000
-289.324799 -132.590698 -35.815002 5.640486
-275.841492 -132.590698 -35.815002 0.000000
-262.358185 -132.590698 -35.815002 5.554640
-248.874893 -132.590698 -35.815002 0.000000
-235.391602 -132.590698 -35.815002 0.000000
-221.908295 -132.590698 -35.815002 0.000000
-208.424988 -132.590698 -35.815002 0.000000
-194.941696 -132.590698 -35.815002 0.000000
-181.458389 -132.590698 -35.815002 0.000000
-167.975098 -132.590698 -35.815002 0.000000
-154.491791 -132.590698 -35.815002 -2.906320
-141.008499 -132.590698 -35.815002 0.000000
-127.525192 -132.590698 -35.815002 -3.768325
-114.041885 -132.590698 -35.815002 0.000000
-100.558594 -132.590698 -35.815002 -2.085117
-87.075287 -132.590698 -35.815002 -1.353478
-73.591980 -132.590698 -35.815002 -1.205653
-60.108704 -132.590698 -35.815002 -1.732943
-46.625397 -132.590698 -35.815002 -1.512933
-33.142090 -132.590698 -35.815002 -1.248436
-19.658783 -132.590698 -35.815002 -0.760029
-6.175476 -132.590698 -35.815002 0.408272
7.307800 -132.590698 -35.815002 -0.073729
20.791107 -132.590698 -35.815002 -0.218203
34.274414 -132.590698 -35.815002 -0.752715
47.757721 -132.590698 -35.815002 -0.754164
61.240997 -132.590698 -35.815002 -0.415612
74.724304 -132.590698 -35.815002 -0.184950
88.207611 -132.590698 -35.815002 0.231522
101.690918 -132.590698 -35.815002 0.341452
115.174225 -132.590698 -35.815002 -0.186647
128.657501 -132.590698 -35.815002 -0.736108
142.140808 -132.590698 -35.815002 -0.880332
155.624115 -132.590698 -35.815002 -1.258945
169.107422 -132.590698 -35.815002 -1.108706
182.590698 -132.590698 -35.815002 -0.899115
196.074036 -132.590698 -35.815002 -0.238814
209.557312 -132.590698 -35.815002 -0.398654
223.040588 -132.590698 -35.815002 -1.174484
236.523926 -132.590698 -35.815002 -1.297800
250.007202 -132.590698 -35.815002 -1.370626
263.490540 -132.590698 -35.815002 -1.552479
276.973816 -132.590698 -35.815002 -2.142606
290.457092 -132.590698 -35.815002 -3.051329
303.940430 -132.590698 -35.815002 0.000000
317.423706 -132.590698 -35.815002 0.000000
330.907043 -132.590698 -35.815002 0.000000
344.390320 -132.590698 -35.815002 0.000000
-343.257996 -146.074036 -35.815002 0.000000
-329.774689 -146.074036 -35.815002 0.000000
-316.291382 -146.074036 -35.815002 0.000000
-302.808105 -146.074036 -35.815002 0.000000
-289.324799 -146.074036 -35.815002 0.000000
-275.841492 -146.074036 -35.815002 0.000000
-262.358185 -146.074036 -35.815002 0.000000
-248.874893 -146.074036 -35.815002 0.000000
-235.391602 -146.074036 -35.815002 0.000000
-221.908295 -146.074036 -35.815002 0.000000
-208.424988 -146.074036 -35.815002 0.000000
-194.941696 -146.074036 -35.815002 0.000000
-181.458389 -146.074036 -35.815002 0.000000
-167.975098 -146.074036 -35.815002 0.000000
-154.491791 -146.074036 -35.815002 0.000000
-141.008499 -146.074036 -35.815002 0.000000
-127.525192 -146.074036 -35.815002 0.000000
-114.041885 -146.074036 -35.815002 0.000000
-100.558594 -146.074036 -35.815002 0.000000
-87.075287 -146.074036 -35.815002 0.000000
-73.591980 -146.074036 -35.815002 0.000000
-60.108704 -146.074036 -35.815002 0.000000
-46.625397 -146.074036 -35.815002 -1.149466
-33.142090 -146.074036 -35.815002 -1.829942
-19.658783 -146.074036 -35.815002 -1.469196
-6.175476 -146.074036 -35.815002 0.121828
7.307800 -146.074036 -35.815002 0.505556
20.791107 -146.074036 -35.815002 -0.573342
34.274414 -146.074036 -35.815002 -0.918124
47.757721 -146.074036 -35.815002 0.000000
61.240997 -146.074036 -35.815002 0.000000
74.724304 -146.074036 -35.815002 0.000000
88.207611 -146.074036 -35.815002 0.000000
101.690918 -146.074036 -35.815002 -0.313058
115.174225 -146.074036 -35.815002 -0.450153
128.657501 -146.074036 -35.815002 -0.965402
142.140808 -146.074036 -35.815002 -1.031895
155.624115 -146.074036 -35.815002 -1.213929
169.107422 -146.074036 -35.815002 -1.267131
182.590698 -146.074036 -35.815002 0.000000
196.074036 -146.074036 -35.815002 0.000000
209.557312 -146.074036 -35.815002 0.000000
223.040588 -146.074036 -35.815002 0.000000
236.523926 -146.074036 -35.815002 0.000000
250.007202 -146.074036 -35.815002 0.000000
263.490540 -146.074036 -35.815002 0.000000
276.973816 -146.074036 -35.815002 0.000000
290.457092 -146.074036 -35.815002 0.000000
303.940430 -146.074036 -35.815002 0.000000
317.423706 -146.074036 -35.815002 0.000000
330.907043 -146.074036 -35.815002 0.000000
344.390320 -146.074036 -35.815002 0.000000
-343.257996 -159.557312 -35.815002 0.000000
-329.774689 -159.557312 -35.815002 0.000000
-316.291382 -159.557312 -35.815002 0.000000
-302.808105 -159.557312 -35.815002 0.000000
-289.324799 -159.557312 -35.815002 0.000000
-275.841492 -159.557312 -35.815002 0.000000
-262.358185 -159.557312 -35.815002 0.000000
-248.874893 -159.557312 -35.815002 0.000000
-235.391602 -159.557312 -35.815002 0.000000
-221.908295 -159.557312 -35.815002 0.000000
-208.424988 -159.557312 -35.815002 0.000000
-194.941696 -159.557312 -35.815002 0.000000
-181.458389 -159.557312 -35.815002 0.000000
-167.975098 -159.557312 -35.815002 0.000000
-154.491791 -159.557312 -35.815002 0.000000
-141.008499 -159.557312 -35.815002 0.000000
-127.525192 -159.557312 -35.815002 0.000000
-114.041885 -159.557312 -35.815002 0.000000
-100.558594 -159.557312 -35.815002 0.000000
-87.075287 -159.557312 -35.815002 0.000000
-73.591980 -159.557312 -35.815002 0.000000
-60.108704 -159.557312 -35.815002 0.000000
-46.625397 -159.557312 -35.815002 0.000000
-33.142090 -159.557312 -35.815002 0.000000
-19.658783 -159.557312 -35.815002 0.000000
-6.175476 -159.557312 -35.815002 0.000000
7.307800 -159.557312 -35.815002 0.000000
20.791107 -159.557312 -35.815002 0.000000
34.274414 -159.557312 -35.815002 0.000000
47.757721 -159.557312 -35.815002 0.000000
61.240997 -159.557312 -35.815002 0.000000
74.724304 -159.557312 -35.815002 0.000000
88.207611 -159.557312 -35.815002 0.000000
101.690918 -159.557312 -35.815002 0.000000
115.174225 -159.557312 -35.815002 0.000000
128.657501 -159.557312 -35.815002 0.000000
142.140808 -159.557312 -35.815002 0.000000
155.624115 -159.557312 -35.815002 0.000000
169.107422 -159.557312 -35.815002 0.000000
182.590698 -159.557312 -35.815002 0.000000
196.074036 -159.557312 -35.815002 0.000000
209.557312 -159.557312 -35.815002 0.000000
223.040588 -159.557312 -35.815002 0.000000
236.523926 -159.557312 -35.815002 0.000000
250.007202 -159.557312 -35.815002 0.000000
263.490540 -159.557312 -35.815002 0.000000
276.973816 -159.557312 -35.815002 0.000000
290.457092 -159.557312 -35.815002 0.000000
303.940430 -159.557312 -35.815002 0.000000
317.423706 -159.557312 -35.815002 0.000000
330.907043 -159.557312 -35.815002 0.000000
344.390320 -159.557312 -35.815002 0.000000
-343.257996 -173.040588 -35.815002 0.000000
-329.774689 -173.040588 -35.815002 0.000000
-316.291382 -173.040588 -35.815002 0.000000
-302.808105 -173.040588 -35.815002 0.000000
-289.324799 -173.040588 -35.815002 0.000000
-275.841492 -173.040588 -35.815002 0.000000
-262.358185 -173.040588 -35.815002 0.000000
-248.874893 -173.040588 -35.815002 0.000000
-235.391602 -173.040588 -35.815002 0.000000
-221.908295 -173.040588 -35.815002 0.000000
-208.424988 -173.040588 -35.815002 0.000000
-194.941696 -173.040588 -35.815002 0.000000
-181.458389 -173.040588 -35.815002 0.000000
-167.975098 -173.040588 -35.815002 0.000000
-154.491791 -173.040588 -35.815002 0.000000
-141.008499 -173.040588 -35.815002 0.000000
-127.525192 -173.040588 -35.815002 0.000000
-114.041885 -173.040588 -35.815002 0.000000
-100.558594 -173.040588 -35.815002 0.000000
-87.075287 -173.040588 -35.815002 0.000000
-73.591980 -173.040588 -35.815002 0.000000
-60.108704 -173.040588 -35.815002 0.000000
-46.625397 -173.040588 -35.815002 0.000000
-33.142090 -173.040588 -35.815002 0.000000
-19.658783 -173.040588 -35.815002 0.000000
-6.175476 -173.040588 -35.815002 0.000000
7.307800 -173.040588 -35.815002 0.000000
20.791107 -173.040588 -35.815002 0.000000
34.274414 -173.040588 -35.815002 0.000000
47.757721 -173.040588 -35.815002 0.000000
61.240997 -173.040588 -35.815002 0.000000
74.724304 -173.040588 -35.815002 0.000000
88.207611 -173.040588 -35.815002 0.000000
101.690918 -173.040588 -35.815002 0.000000
115.174225 -173.040588 -35.815002 0.000000
128.657501 -173.040588 -35.815002 0.000000
142.140808 -173.040588 -35.815002 0.000000
155.624115 -173.040588 -35.815002 0.000000
169.107422 -173.040588 -35.815002 0.000000
182.590698 -173.040588 -35.815002 0.000000
196.074036 -173.040588 -35.815002 0.000000
209.557312 -173.040588 -35.815002 0.000000
223.040588 -173.040588 -35.815002 0.000000
236.523926 -173.040588 -35.815002 0.000000
250.007202 -173.040588 -35.815002 0.000000
263.490540 -173.040588 -35.815002 0.000000
276.973816 -173.040588 -35.815002 0.000000
290.457092 -173.040588 -35.815002 0.000000
303.940430 -173.040588 -35.815002 0.000000
317.423706 -173.040588 -35.815002 0.000000
330.907043 -173.040588 -35.815002 0.000000
344.390320 -173.040588 -35.815002 0.000000
-343.257996 -186.523926 -35.815002 0.000000
-329.774689 -186.523926 -35.815002 0.000000
-316.291382 -186.523926 -35.815002 0.000000
-302.808105 -186.523926 -35.815002 0.000000
-289.324799 -186.523926 -35.815002 0.000000
-275.841492 -186.523926 -35.815002 0.000000
-262.358185 -186.523926 -35.815002 0.000000
-248.874893 -186.523926 -35.815002 0.000000
-235.391602 -186.523926 -35.815002 0.000000
-221.908295 -186.523926 -35.815002 0.000000
-208.424988 -186.523926 -35.815002 0.000000
-194.941696 -186.523926 -35.815002 0.000000
-181.458389 -186.523926 -35.815002 0.000000
-167.975098 -186.523926 -35.815002 0.000000
-154.491791 -186.523926 -35.815002 0.000000
-141.008499 -186.523926 -35.815002 0.000000
-127.525192 -186.523926 -35.815002 0.000000
-114.041885 -186.523926 -35.815002 0.000000
-100.558594 -186.523926 -35.815002 0.000000
-87.075287 -186.523926 -35.815002 0.000000
-73.591980 -186.523926 -35.815002 0.000000
-60.108704 -186.523926 -35.815002 0.000000
-46.625397 -186.523926 -35.815002 0.000000
-33.142090 -186.523926 -35.815002 0.000000
-19.658783 -186.523926 -35.815002 0.000000
-6.175476 -186.523926 -35.815002 0.000000
7.307800 -186.523926 -35.815002 0.000000
20.791107 -186.523926 -35.815002 0.000000
34.274414 -186.523926 -35.815002 0.000000
47.757721 -186.523926 -35.815002 0.000000
61.240997 -186.523926 -35.815002 0.000000
74.724304 -186.523926 -35.815002 0.000000
88.207611 -186.523926 -35.815002 0.000000
101.690918 -186.523926 -35.815002 0.000000
115.174225 -186.523926 -35.815002 0.000000
128.657501 -186.523926 -35.815002 0.000000
142.140808 -186.523926 -35.815002 0.000000
155.624115 -186.523926 -35.815002 0.000000
169.107422 -186.523926 -35.815002 0.000000
182.590698 -186.523926 -35.815002 0.000000
196.074036 -186.523926 -35.815002 0.000000
209.557312 -186.523926 -35.815002 0.000000
223.040588 -186.523926 -35.815002 0.000000
236.523926 -186.523926 -35.815002 0.000000
250.007202 -186.523926 -35.815002 0.000000
263.490540 -186.523926 -35.815002 0.000000
276.973816 -186.523926 -35.815002 0.000000
290.457092 -186.523926 -35.815002 0.000000
303.940430 -186.523926 -35.815002 0.000000
317.423706 -186.523926 -35.815002 0.000000
330.907043 -186.523926 -35.815002 0.000000
344.390320 -186.523926 -35.815002 0.000000
-343.257996 -200.007202 -35.815002 0.000000
-329.774689 -200.007202 -35.815002 0.000000
-316.291382 -200.007202 -35.815002 0.000000
-302.808105 -200.007202 -35.815002 0.000000
-289.324799 -200.007202 -35.815002 0.000000
-275.841492 -200.007202 -35.815002 0.000000
-262.358185 -200.007202 -35.815002 0.000000
-248.874893 -200.007202 -35.815002 0.000000
-235.391602 -200.007202 -35.815002 0.000000
-221.908295 -200.007202 -35.815002 0.000000
-208.424988 -200.007202 -35.815002 0.000000
-194.941696 -200.007202 -35.815002 0.000000
-181.458389 -200.007202 -35.815002 0.000000
-167.975098 -200.007202 -35.815002 0.000000
-154.491791 -200.007202 -35.815002 0.000000
-141.008499 -200.007202 -35.815002 0.000000
-127.525192 -200.007202 -35.815002 0.000000
-114.041885 -200.007202 -35.815002 0.000000
-100.558594 -200.007202 -35.815002 0.000000
-87.075287 -200.007202 -35.815002 0.000000
-73.591980 -200.007202 -35.815002 0.000000
-60.108704 -200.007202 -35.815002 0.000000
-46.625397 -200.007202 -35.815002 0.000000
-33.142090 -200.007202 -35.815002 0.000000
-19.658783 -200.007202 -35.815002 0.000000
-6.175476 -200.007202 -35.815002 0.000000
7.307800 -200.007202 -35.815002 0.000000
20.791107 -200.007202 -35.815002 0.000000
34.274414 -200.007202 -35.815002 0.000000
47.757721 -200.007202 -35.815002 0.000000
61.240997 -200.007202 -35.815002 0.000000
74.724304 -200.007202 -35.815002 0.000000
88.207611 -200.007202 -35.815002 0.000000
101.690918 -200.007202 -35.815002 0.000000
115.174225 -200.007202 -35.815002 0.000000
128.657501 -200.007202 -35.815002 0.000000
142.140808 -200.007202 -35.815002 0.000000
155.624115 -200.007202 -35.815002 0.000000
169.107422 -200.007202 -35.815002 0.000000
182.590698 -200.007202 -35.815002 0.000000
196.074036 -200.007202 -35.815002 0.000000
209.557312 -200.007202 -35.815002 0.000000
223.040588 -200.007202 -35.815002 0.000000
236.523926 -200.007202 -35.815002 0.000000
250.007202 -200.007202 -35.815002 0.000000
263.490540 -200.007202 -35.815002 0.000000
276.973816 -200.007202 -35.815002 0.000000
290.457092 -200.007202 -35.815002 0.000000
303.940430 -200.007202 -35.815002 0.000000
317.423706 -200.007202 -35.815002 0.000000
330.907043 -200.007202 -35.815002 0.000000
344.390320 -200.007202 -35.815002 0.000000
-343.257996 393.257996 -22.331701 0.000000
-329.774689 393.257996 -22.331701 0.000000
-316.291382 393.257996 -22.331701 0.000000
-302.808105 393.257996 -22.331701 0.000000
-289.324799 393.257996 -22.331701 0.000000
-275.841492 393.257996 -22.331701 0.000000
-262.358185 393.257996 -22.331701 0.000000
-248.874893 393.257996 -22.331701 0.000000
-235.391602 393.257996 -22.331701 0.000000
-221.908295 393.257996 -22.331701 0.000000
-208.424988 393.257996 -22.331701 0.000000
-194.941696 393.257996 -22.331701 0.000000
-181.458389 393.257996 -22.331701 0.000000
-167.975098 393.257996 -22.331701 0.000000
-154.491791 393.257996 -22.331701 0.000000
-141.008499 393.257996 -22.331701 0.000000
-127.525192 393.257996 -22.331701 0.000000
-114.041885 393.257996 -22.331701 0.000000
-100.558594 393.257996 -22.331701 0.000000
-87.075287 393.257996 -22.331701 0.000000
-73.591980 393.257996 -22.331701 0.000000
-60.108704 393.257996 -22.331701 0.000000
-46.625397 393.257996 -22.331701 0.000000
-33.142090 393.257996 -22.331701 0.000000
-19.658783 393.257996 -22.331701 0.000000
-6.175476 393.257996 -22.331701 0.000000
7.307800 393.257996 -22.331701 0.000000
20.791107 393.257996 -22.331701 0.000000
34.274414 393.257996 -22.331701 0.000000
47.757721 393.257996 -22.331701 0.000000
61.240997 393.257996 -22.331701 0.000000
74.724304 393.257996 -22.331701 0.000000
88.207611 393.257996 -22.331701 0.000000
101.690918 393.257996 -22.331701 0.000000
115.174225 393.257996 -22.331701 0.000000
128.657501 393.257996 -22.331701 0.000000
142.140808 393.257996 -22.331701 0.000000
155.624115 393.257996 -22.331701 0.000000
169.107422 393.257996 -22.331701 0.000000
182.590698 393.257996 -22.331701 0.000000
196.074036 393.257996 -22.331701 0.000000
209.557312 393.257996 -22.331701 0.000000
223.040588 393.257996 -22.331701 0.000000
236.523926 393.257996 -22.331701 0.000000
250.007202 393.257996 -22.331701 0.000000
263.490540 393.257996 -22.331701 0.000000
276.973816 393.257996 -22.331701 0.000000
290.457092 393.257996 -22.331701 0.000000
303.940430 393.257996 -22.331701 0.000000
317.423706 393.257996 -22.331701 0.000000
330.907043 393.257996 -22.331701 0.000000
344.390320 393.257996 -22.331701 0.000000
-343.257996 379.774689 -22.331701 0.000000
-329.774689 379.774689 -22.331701 0.000000
-316.291382 379.774689 -22.331701 0.000000
-302.808105 379.774689 -22.331701 0.000000
-289.324799 379.774689 -22.331701 0.000000
-275.841492 379.774689 -22.331701 0.000000
-262.358185 379.774689 -22.331701 0.000000
-248.874893 379.774689 -22.331701 0.000000
-235.391602 379.774689 -22.331701 0.000000
-221.908295 379.774689 -22.331701 0.000000
-208.424988 379.774689 -22.331701 0.000000
-194.941696 379.774689 -22.331701 0.000000
-181.458389 379.774689 -22.331701 0.000000
-167.975098 379.774689 -22.331701 0.000000
-154.491791 379.774689 -22.331701 0.000000
-141.008499 379.774689 -22.331701 0.000000
-127.525192 379.774689 -22.331701 0.000000
-114.041885 379.774689 -22.331701 0.000000
-100.558594 379.774689 -22.331701 0.000000
-87.075287 379.774689 -22.331701 0.000000
-73.591980 379.774689 -22.331701 0.000000
-60.108704 379.774689 -22.331701 0.000000
-46.625397 379.774689 -22.331701 0.000000
-33.142090 379.774689 -22.331701 0.000000
-19.658783 379.774689 -22.331701 0.000000
-6.175476 379.774689 -22.331701 0.000000
7.307800 379.774689 -22.331701 0.000000
20.791107 379.774689 -22.331701 0.000000
34.274414 379.774689 -22.331701 0.000000
47.757721 379.774689 -22.331701 0.000000
61.240997 379.774689 -22.331701 0.000000
74.724304 379.774689 -22.331701 0.000000
88.207611 379.774689 -22.331701 0.000000
101.690918 379.774689 -22.331701 0.000000
115.174225 379.774689 -22.331701 0.000000
128.657501 379.774689 -22.331701 0.000000
142.140808 379.774689 -22.331701 0.000000
155.624115 379.774689 -22.331701 0.000000
169.107422 379.774689 -22.331701 0.000000
182.590698 379.774689 -22.331701 0.000000
196.074036 379.774689 -22.331701 0.000000
209.557312 379.774689 -22.331701 0.000000
223.040588 379.774689 -22.331701 0.000000
236.523926 379.774689 -22.331701 0.000000
250.007202 379.774689 -22.331701 0.000000
263.490540 379.774689 -22.331701 0.000000
276.973816 379.774689 -22.331701 0.000000
290.457092 379.774689 -22.331701 0.000000
303.940430 379.774689 -22.331701 0.000000
317.423706 379.774689 -22.331701 0.000000
330.907043 379.774689 -22.331701 0.000000
344.390320 379.774689 -22.331701 0.000000
-343.257996 366.291382 -22.331701 0.000000
-329.774689 366.291382 -22.331701 0.000000
-316.291382 366.291382 -22.331701 0.000000
-302.808105 366.291382 -22.331701 0.000000
-289.324799 366.291382 -22.331701 0.000000
-275.841492 366.291382 -22.331701 0.000000
-262.358185 366.291382 -22.331701 0.000000
-248.874893 366.291382 -22.331701 0.000000
-235.391602 366.291382 -22.331701 0.000000
-221.908295 366.291382 -22.331701 0.000000
-208.424988 366.291382 -22.331701 0.000000
-194.941696 366.291382 -22.331701 0.000000
-181.458389 366.291382 -22.331701 0.000000
-167.975098 366.291382 -22.331701 0.000000
-154.491791 366.291382 -22.331701 0.000000
-141.008499 366.291382 -22.331701 0.000000
-127.525192 366.291382 -22.331701 0.000000
-114.041885 366.291382 -22.331701 0.000000
-100.558594 366.291382 -22.331701 0.000000
-87.075287 366.291382 -22.331701 0.000000
-73.591980 366.291382 -22.331701 0.000000
-60.108704 366.291382 -22.331701 0.000000
-46.625397 366.291382 -22.331701 0.000000
-33.142090 366.291382 -22.331701 0.000000
-19.658783 366.291382 -22.331701 0.000000
-6.175476 366.291382 -22.331701 0.000000
7.307800 366.291382 -22.331701 0.000000
20.791107 366.291382 -22.331701 -0.107295
34.274414 366.291382 -22.331701 0.000000
47.757721 366.291382 -22.331701 -0.334396
61.240997 366.291382 -22.331701 -0.286035
74.724304 366.291382 -22.331701 -0.244523
88.207611 366.291382 -22.331701 -0.039719
101.690918 366.291382 -22.331701 0.086857
115.174225 366.291382 -22.331701 0.599288
128.657501 366.291382 -22.331701 0.000000
142.140808 366.291382 -22.331701 0.000000
155.624115 366.291382 -22.331701 0.000000
169.107422 366.291382 -22.331701 0.000000
182.590698 366.291382 -22.331701 0.000000
196.074036 366.291382 -22.331701 0.000000
209.557312 366.291382 -22.331701 0.000000
223.040588 366.291382 -22.331701 0.000000
236.523926 366.291382 -22.331701 0.000000
250.007202 366.291382 -22.331701 0.000000
263.490540 366.291382 -22.331701 0.000000
276.973816 366.291382 -22.331701 0.000000
290.457092 366.291382 -22.331701 0.000000
303.940430 366.291382 -22.331701 0.000000
317.423706 366.291382 -22.331701 0.000000
330.907043 366.291382 -22.331701 0.000000
344.390320 366.291382 -22.331701 0.000000
-343.257996 352.808105 -22.331701 0.000000
-329.774689 352.808105 -22.331701 0.000000
-316.291382 352.808105 -22.331701 0.000000
-302.808105 352.808105 -22.331701 0.000000
-289.324799 352.808105 -22.331701 0.000000
-275.841492 352.808105 -22.331701 0.000000
-262.358185 352.808105 -22.331701 0.000000
-248.874893 352.808105 -22.331701 0.000000
-235.391602 352.808105 -22.331701 0.000000
-221.908295 352.808105 -22.331701 1.266759
-208.424988 352.808105 -22.331701 1.331867
-194.941696 352.808105 -22.331701 1.360295
-181.458389 352.808105 -22.331701 1.547514
-167.975098 352.808105 -22.331701 1.743684
-154.491791 352.808105 -22.331701 2.010991
-141.008499 352.808105 -22.331701 2.116150
-127.525192 352.808105 -22.331701 1.819569
-114.041885 352.808105 -22.331701 1.356786
-100.558594 352.808105 -22.331701 0.685284
-87.075287 352.808105 -22.331701 0.275363
-73.591980 352.808105 -22.331701 0.147103
-60.108704 352.808105 -22.331701 -0.415405
-46.625397 352.808105 -22.331701 -0.318191
-33.142090 352.808105 -22.331701 -0.432405
-19.658783 352.808105 -22.331701 -0.103620
-6.175476 352.808105 -22.331701 0.133898
7.307800 352.808105 -22.331701 -0.016281
20.791107 352.808105 -22.331701 -0.098684
34.274414 352.808105 -22.331701 -0.164878
47.757721 352.808105 -22.331701 -0.188801
61.240997 352.808105 -22.331701 -0.253304
74.724304 352.808105 -22.331701 -0.211756
88.207611 352.808105 -22.331701 -0.023073
101.690918 352.808105 -22.331701 0.322819
115.174225 352.808105 -22.331701 0.534809
128.657501 352.808105 -22.331701 0.718582
142.140808 352.808105 -22.331701 0.364914
155.624115 352.808105 -22.331701 0.397136
169.107422 352.808105 -22.331701 0.252260
182.590698 352.808105 -22.331701 0.170863
196.074036 352.808105 -22.331701 0.084339
209.557312 352.808105 -22.331701 0.000000
223.040588 352.808105 -22.331701 0.000000
236.523926 352.808105 -22.331701 0.000000
250.007202 352.808105 -22.331701 0.000000
263.490540 352.808105 -22.331701 0.000000
276.973816 352.808105 -22.331701 0.000000
290.457092 352.808105 -22.331701 0.000000
303.940430 352.808105 -22.331701 0.000000
317.423706 352.808105 -22.331701 0.000000
330.907043 352.808105 -22.331701 0.000000
344.390320 352.808105 -22.331701 0.000000
-343.257996 339.324799 -22.331701 0.000000
-329.774689 339.324799 -22.331701 0.000000
-316.291382 339.324799 -22.331701 0.000000
-302.808105 339.324799 -22.331701 0.000000
-289.324799 339.324799 -22.331701 0.000000
-275.841492 339.324799 -22.331701 0.492634
-262.358185 339.324799 -22.331701 0.749195
-248.874893 339.324799 -22.331701 1.236418
-235.391602 339.324799 -22.331701 1.435246
-221.908295 339.324799 -22.331701 1.203294
-208.424988 339.324799 -22.331701 1.322033
-194.941696 339.324799 -22.331701 1.537263
-181.458389 339.324799 -22.331701 1.635114
-167.975098 339.324799 -22.331701 1.886642
-154.491791 339.324799 -22.331701 2.099307
-141.008499 339.324799 -22.331701 2.200909
-127.525192 339.324799 -22.331701 1.661477
-114.041885 339.324799 -22.331701 1.294644
-100.558594 339.324799 -22.331701 0.670709
-87.075287 339.324799 -22.331701 0.164567
-73.591980 339.324799 -22.331701 -0.042061
-60.108704 339.324799 -22.331701 -0.323584
-46.625397 339.324799 -22.331701 -0.592296
-33.142090 339.324799 -22.331701 -0.472263
-19.658783 339.324799 -22.331701 -0.249624
-6.175476 339.324799 -22.331701 -0.110849
7.307800 339.324799 -22.331701 -0.018096
20.791107 339.324799 -22.331701 -0.100127
34.274414 339.324799 -22.331701 -0.295795
47.757721 339.324799 -22.331701 -0.332319
61.240997 339.324799 -22.331701 -0.166442
74.724304 339.324799 -22.331701 -0.149803
88.207611 339.324799 -22.331701 0.038728
101.690918 339.324799 -22.331701 0.694898
115.174225 339.324799 -22.331701 0.689764
128.657501 339.324799 -22.331701 0.414116
142.140808 339.324799 -22.331701 -0.105064
155.624115 339.324799 -22.331701 -0.168778
169.107422 339.324799 -22.331701 -0.084081
182.590698 339.324799 -22.331701 -0.148961
196.074036 339.324799 -22.331701 -0.357873
209.557312 339.324799 -22.331701 -0.342310
223.040588 339.324799 -22.331701 -0.231239
236.523926 339.324799 -22.331701 0.204517
250.007202 339.324799 -22.331701 0.690660
263.490540 339.324799 -22.331701 0.541364
276.973816 339.324799 -22.331701 0.000000
290.457092 339.324799 -22.331701 0.000000
303.940430 339.324799 -22.331701 0.000000
317.423706 339.324799 -22.331701 0.000000
330.907043 339.324799 -22.331701 0.000000
344.390320 339.324799 -22.331701 0.000000
-343.257996 325.841492 -22.331701 0.000000
-329.774689 325.841492 -22.331701 0.000000
-316.291382 325.841492 -22.331701 0.000000
-302.808105 325.841492 -22.331701 0.000000
-289.324799 325.841492 -22.331701 0.751050
-275.841492 325.841492 -22.331701 0.687995
-262.358185 325.841492 -22.331701 0.670914
-248.874893 325.841492 -22.331701 0.740588
-235.391602 325.841492 -22.331701 0.821044
-221.908295 325.841492 -22.331701 0.946314
-208.424988 325.841492 -22.331701 1.527555
-194.941696 325.841492 -22.331701 1.552722
-181.458389 325.841492 -22.331701 1.639709
-167.975098 325.841492 -22.331701 1.931212
-154.491791 325.841492 -22.331701 1.936864
-141.008499 325.841492 -22.331701 2.112947
-127.525192 325.841492 -22.331701 1.961404
-114.041885 325.841492 -22.331701 1.350327
-100.558594 325.841492 -22.331701 0.697637
-87.075287 325.841492 -22.331701 0.329056
-73.591980 325.841492 -22.331701 -0.094531
-60.108704 325.841492 -22.331701 -0.360885
-46.625397 325.841492 -22.331701 -0.426185
-33.142090 325.841492 -22.331701 -0.334448
-19.658783 325.841492 -22.331701 -0.183629
-6.175476 325.841492 -22.331701 -0.117152
7.307800 325.841492 -22.331701 -0.153441
20.791107 325.841492 -22.331701 -0.085641
34.274414 325.841492 -22.331701 -0.221170
47.757721 325.841492 -22.331701 -0.280994
61.240997 325.841492 -22.331701 -0.245180
74.724304 325.841492 -22.331701 -0.116877
88.207611 325.841492 -22.331701 -0.003509
101.690918 325.841492 -22.331701 0.323351
115.174225 325.841492 -22.331701 0.139312
128.657501 325.841492 -22.331701 -0.151577
142.140808 325.841492 -22.331701 -0.631415
155.624115 325.841492 -22.331701 -0.685936
169.107422 325.841492 -22.331701 -0.591734
182.590698 325.841492 -22.331701 -0.489102
196.074036 325.841492 -22.331701 -0.183589
209.557312 325.841492 -22.331701 -0.302926
223.040588 325.841492 -22.331701 -0.182395
236.523926 325.841492 -22.331701 0.141410
250.007202 325.841492 -22.331701 0.065802
263.490540 325.841492 -22.331701 0.276833
276.973816 325.841492 -22.331701 0.270371
290.457092 325.841492 -22.331701 0.000000
303.940430 325.841492 -22.331701 0.000000
317.423706 325.841492 -22.331701 0.000000
330.907043 325.841492 -22.331701 0.000000
344.390320 325.841492 -22.331701 0.000000
-343.257996 312.358185 -22.331701 0.000000
-329.774689 312.358185 -22.331701 0.000000
-316.291382 312.358185 -22.331701 0.000000
-302.808105 312.358185 -22.331701 0.312426
-289.324799 312.358185 -22.331701 0.316687
-275.841492 312.358185 -22.331701 0.448688
-262.358185 312.358185 -22.331701 0.724874
-248.874893 312.358185 -22.331701 0.725615
-235.391602 312.358185 -22.331701 0.655782
-221.908295 312.358185 -22.331701 0.816977
-208.424988 312.358185 -22.331701 1.117082
-194.941696 312.358185 -22.331701 1.456842
-181.458389 312.358185 -22.331701 1.921365
-167.975098 312.358185 -22.331701 2.131102
-154.491791 312.358185 -22.331701 2.349517
-141.008499 312.358185 -22.331701 2.252158
-127.525192 312.358185 -22.331701 1.948618
-114.041885 312.358185 -22.331701 1.526356
-100.558594 312.358185 -22.331701 1.053653
-87.075287 312.358185 -22.331701 0.660333
-73.591980 312.358185 -22.331701 0.120739
-60.108704 312.358185 -22.331701 -0.066130
-46.625397 312.358185 -22.331701 -0.244576
-33.142090 312.358185 -22.331701 0.076554
-19.658783 312.358185 -22.331701 -0.191286
-6.175476 312.358185 -22.331701 -0.502562
7.307800 312.358185 -22.331701 -0.312383
20.791107 312.358185 -22.331701 -0.079033
34.274414 312.358185 -22.331701 -0.023423
47.757721 312.358185 -22.331701 -0.449660
61.240997 312.358185 -22.331701 -0.303772
74.724304 312.358185 -22.331701 0.034606
88.207611 312.358185 -22.331701 0.202336
101.690918 312.358185 -22.331701 0.124098
115.174225 312.358185 -22.331701 -0.232302
128.657501 312.358185 -22.331701 -0.501029
142.140808 312.358185 -22.331701 -0.929438
155.624115 312.358185 -22.331701 -0.993858
169.107422 312.358185 -22.331701 -1.002967
182.590698 312.358185 -22.331701 -0.768506
196.074036 312.358185 -22.331701 -0.467800
209.557312 312.358185 -22.331701 -0.248034
223.040588 312.358185 -22.331701 -0.326076
236.523926 312.358185 -22.331701 -0.002522
250.007202 312.358185 -22.331701 0.043674
263.490540 312.358185 -22.331701 0.296604
276.973816 312.358185 -22.331701 0.248539
290.457092 312.358185 -22.331701 0.404982
303.940430 312.358185 -22.331701 0.000000
317.423706 312.358185 -22.331701 0.000000
330.907043 312.358185 -22.331701 0.000000
344.390320 312.358185 -22.331701 0.000000
-343.257996 298.874878 -22.331701 0.000000
-329.774689 298.874878 -22.331701 0.000000
-316.291382 298.874878 -22.331701 0.545413
-302.808105 298.874878 -22.331701 0.390381
-289.324799 298.874878 -22.331701 0.423215
-275.841492 298.874878 -22.331701 0.369477
-262.358185 298.874878 -22.331701 0.502069
-248.874893 298.874878 -22.331701 0.496815
-235.391602 298.874878 -22.331701 0.462135
-221.908295 298.874878 -22.331701 0.463960
-208.424988 298.874878 -22.331701 0.728407
-194.941696 298.874878 -22.331701 1.074084
-181.458389 298.874878 -22.331701 1.675593
-167.975098 298.874878 -22.331701 2.120448
-154.491791 298.874878 -22.331701 2.119268
-141.008499 298.874878 -22.331701 2.096804
-127.525192 298.874878 -22.331701 1.846093
-114.041885 298.874878 -22.331701 1.768571
-100.558594 298.874878 -22.331701 1.447624
-87.075287 298.874878 -22.331701 0.897179
-73.591980 298.874878 -22.331701 0.510923
-60.108704 298.874878 -22.331701 0.231720
-46.625397 298.874878 -22.331701 0.106440
-33.142090 298.874878 -22.331701 0.020130
-19.658783 298.874878 -22.331701 -0.457958
-6.175476 298.874878 -22.331701 -0.483962
7.307800 298.874878 -22.331701 -0.367017
20.791107 298.874878 -22.331701 -0.085262
34.274414 298.874878 -22.331701 -0.324603
47.757721 298.874878 -22.331701 -0.625613
61.240997 298.874878 -22.331701 -0.284736
74.724304 298.874878 -22.331701 -0.142005
88.207611 298.874878 -22.331701 0.049399
101.690918 298.874878 -22.331701 -0.263076
115.174225 298.874878 -22.331701 -0.523195
128.657501 298.874878 -22.331701 -0.913459
142.140808 298.874878 -22.331701 -1.487350
155.624115 298.874878 -22.331701 -1.800723
169.107422 298.874878 -22.331701 -1.498118
182.590698 298.874878 -22.331701 -1.207438
196.074036 298.874878 -22.331701 -0.856878
209.557312 298.874878 -22.331701 -0.661551
223.040588 298.874878 -22.331701 -0.441041
236.523926 298.874878 -22.331701 -0.143154
250.007202 298.874878 -22.331701 -0.046118
263.490540 298.874878 -22.331701 0.159986
276.973816 298.874878 -22.331701 0.232427
290.457092 298.874878 -22.331701 0.432469
303.940430 298.874878 -22.331701 0.497285
317.423706 298.874878 -22.331701 0.000000
330.907043 298.874878 -22.331701 0.000000
344.390320 298.874878 -22.331701 0.000000
-343.257996 285.391602 -22.331701 0.000000
-329.774689 285.391602 -22.331701 0.000000
-316.291382 285.391602 -22.331701 0.451482
-302.808105 285.391602 -22.331701 0.319330
-289.324799 285.391602 -22.331701 0.363222
-275.841492 285.391602 -22.331701 0.213153
-262.358185 285.391602 -22.331701 0.310614
-248.874893 285.391602 -22.331701 0.377167
-235.391602 285.391602 -22.331701 0.406281
-221.908295 285.391602 -22.331701 0.444494
-208.424988 285.391602 -22.331701 0.715380
-194.941696 285.391602 -22.331701 0.980455
-181.458389 285.391602 -22.331701 1.338497
-167.975098 285.391602 -22.331701 1.731107
-154.491791 285.391602 -22.331701 2.007018
-141.008499 285.391602 -22.331701 1.853311
-127.525192 285.391602 -22.331701 1.762001
-114.041885 285.391602 -22.331701 1.860313
-100.558594 285.391602 -22.331701 1.465516
-87.075287 285.391602 -22.331701 0.910645
-73.591980 285.391602 -22.331701 0.665113
-60.108704 285.391602 -22.331701 0.644741
-46.625397 285.391602 -22.331701 0.403028
-33.142090 285.391602 -22.331701 0.011491
-19.658783 285.391602 -22.331701 -0.240311
-6.175476 285.391602 -22.331701 -0.364901
7.307800 285.391602 -22.331701 -0.312149
20.791107 285.391602 -22.331701 -0.063753
34.274414 285.391602 -22.331701 -0.210289
47.757721 285.391602 -22.331701 -0.358214
61.240997 285.391602 -22.331701 -0.338684
74.724304 285.391602 -22.331701 -0.056865
88.207611 285.391602 -22.331701 0.107016
101.690918 285.391602 -22.331701 -0.331899
115.174225 285.391602 -22.331701 -0.560966
128.657501 285.391602 -22.331701 -0.975357
142.140808 285.391602 -22.331701 -1.711687
155.624115 285.391602 -22.331701 -1.929211
169.107422 285.391602 -22.331701 -1.865249
182.590698 285.391602 -22.331701 -1.623134
196.074036 285.391602 -22.331701 -1.205845
209.557312 285.391602 -22.331701 -0.852038
223.040588 285.391602 -22.331701 -0.888473
236.523926 285.391602 -22.331701 -0.384649
250.007202 285.391602 -22.331701 -0.139290
263.490540 285.391602 -22.331701 0.085512
276.973816 285.391602 -22.331701 0.194726
290.457092 285.391602 -22.331701 0.292004
303.940430 285.391602 -22.331701 0.330004
317.423706 285.391602 -22.331701 0.000000
330.907043 285.391602 -22.331701 0.000000
344.390320 285.391602 -22.331701 0.000000
-343.257996 271.908295 -22.331701 0.000000
-329.774689 271.908295 -22.331701 0.000000
-316.291382 271.908295 -22.331701 0.272994
-302.808105 271.908295 -22.331701 0.273375
-289.324799 271.908295 -22.331701 0.254891
-275.841492 271.908295 -22.331701 0.231575
-262.358185 271.908295 -22.331701 0.282446
-248.874893 271.908295 -22.331701 0.385700
-235.391602 271.908295 -22.331701 0.439273
-221.908295 271.908295 -22.331701 0.292276
-208.424988 271.908295 -22.331701 0.519636
-194.941696 271.908295 -22.331701 0.876896
-181.458389 271.908295 -22.331701 1.301896
-167.975098 271.908295 -22.331701 1.593719
-154.491791 271.908295 -22.331701 1.711501
-141.008499 271.908295 -22.331701 1.673820
-127.525192 271.908295 -22.331701 1.510660
-114.041885 271.908295 -22.331701 1.496738
-100.558594 271.908295 -22.331701 1.320778
-87.075287 271.908295 -22.331701 1.207478
-73.591980 271.908295 -22.331701 0.877533
-60.108704 271.908295 -22.331701 0.853730
-46.625397 271.908295 -22.331701 0.350385
-33.142090 271.908295 -22.331701 -0.214557
-19.658783 271.908295 -22.331701 -0.269528
-6.175476 271.908295 -22.331701 -0.499915
7.307800 271.908295 -22.331701 -0.137533
20.791107 271.908295 -22.331701 -0.092855
34.274414 271.908295 -22.331701 0.060972
47.757721 271.908295 -22.331701 -0.001983
61.240997 271.908295 -22.331701 0.086705
74.724304 271.908295 -22.331701 0.185277
88.207611 271.908295 -22.331701 0.298774
101.690918 271.908295 -22.331701 -0.006747
115.174225 271.908295 -22.331701 -0.497173
128.657501 271.908295 -22.331701 -0.958667
142.140808 271.908295 -22.331701 -1.512067
155.624115 271.908295 -22.331701 -1.582688
169.107422 271.908295 -22.331701 -1.972749
182.590698 271.908295 -22.331701 -1.879972
196.074036 271.908295 -22.331701 -1.654456
209.557312 271.908295 -22.331701 -1.400751
223.040588 271.908295 -22.331701 -1.030624
236.523926 271.908295 -22.331701 -0.428156
250.007202 271.908295 -22.331701 -0.174652
263.490540 271.908295 -22.331701 0.083969
276.973816 271.908295 -22.331701 0.159088
290.457092 271.908295 -22.331701 0.216401
303.940430 271.908295 -22.331701 0.285318
317.423706 271.908295 -22.331701 0.315448
330.907043 271.908295 -22.331701 0.000000
344.390320 271.908295 -22.331701 0.000000
-343.257996 258.424988 -22.331701 0.000000
-329.774689 258.424988 -22.331701 0.000000
-316.291382 258.424988 -22.331701 0.245641
-302.808105 258.424988 -22.331701 0.192599
-289.324799 258.424988 -22.331701 0.184825
-275.841492 258.424988 -22.331701 0.185498
-262.358185 258.424988 -22.331701 0.201966
-248.874893 258.424988 -22.331701 0.245265
-235.391602 258.424988 -22.331701 0.311361
-221.908295 258.424988 -22.331701 0.353776
-208.424988 258.424988 -22.331701 0.433114
-194.941696 258.424988 -22.331701 0.753224
-181.458389 258.424988 -22.331701 1.088253
-167.975098 258.424988 -22.331701 1.379916
-154.491791 258.424988 -22.331701 1.688047
-141.008499 258.424988 -22.331701 1.798258
-127.525192 258.424988 -22.331701 1.632002
-114.041885 258.424988 -22.331701 1.487118
-100.558594 258.424988 -22.331701 1.510912
-87.075287 258.424988 -22.331701 1.319455
-73.591980 258.424988 -22.331701 0.992695
-60.108704 258.424988 -22.331701 0.710642
-46.625397 258.424988 -22.331701 0.388943
-33.142090 258.424988 -22.331701 -0.338025
-19.658783 258.424988 -22.331701 -0.624662
-6.175476 258.424988 -22.331701 -0.522385
7.307800 258.424988 -22.331701 -0.356792
20.791107 258.424988 -22.331701 -0.056155
34.274414 258.424988 -22.331701 0.279955
47.757721 258.424988 -22.331701 0.288301
61.240997 258.424988 -22.331701 0.123361
74.724304 258.424988 -22.331701 0.186517
88.207611 258.424988 -22.331701 0.104465
101.690918 258.424988 -22.331701 0.172138
115.174225 258.424988 -22.331701 -0.293693
128.657501 258.424988 -22.331701 -1.030934
142.140808 258.424988 -22.331701 -1.456232
155.624115 258.424988 -22.331701 -1.548242
169.107422 258.424988 -22.331701 -1.821045
182.590698 258.424988 -22.331701 -2.206934
196.074036 258.424988 -22.331701 -2.065661
209.557312 258.424988 -22.331701 -1.743476
223.040588 258.424988 -22.331701 -1.081163
236.523926 258.424988 -22.331701 -0.469559
250.007202 258.424988 -22.331701 -0.228515
263.490540 258.424988 -22.331701 -0.052427
276.973816 258.424988 -22.331701 0.036680
290.457092 258.424988 -22.331701 0.134083
303.940430 258.424988 -22.331701 0.175987
317.423706 258.424988 -22.331701 0.175665
330.907043 258.424988 -22.331701 0.000000
344.390320 258.424988 -22.331701 0.000000
-343.257996 244.941696 -22.331701 0.000000
-329.774689 244.941696 -22.331701 0.000000
-316.291382 244.941696 -22.331701 0.126315
-302.808105 244.941696 -22.331701 0.047944
-289.324799 244.941696 -22.331701 0.093228
-275.841492 244.941696 -22.331701 0.100188
-262.358185 244.941696 -22.331701 0.121389
-248.874893 244.941696 -22.331701 0.151647
-235.391602 244.941696 -22.331701 0.233597
-221.908295 244.941696 -22.331701 0.307317
-208.424988 244.941696 -22.331701 0.253609
-194.941696 244.941696 -22.331701 0.487247
-181.458389 244.941696 -22.331701 0.840882
-167.975098 244.941696 -22.331701 1.036195
-154.491791 244.941696 -22.331701 1.382464
-141.008499 244.941696 -22.331701 1.449735
-127.525192 244.941696 -22.331701 1.590021
-114.041885 244.941696 -22.331701 1.810101
-100.558594 244.941696 -22.331701 1.488279
-87.075287 244.941696 -22.331701 1.564034
-73.591980 244.941696 -22.331701 1.216430
-60.108704 244.941696 -22.331701 0.754543
-46.625397 244.941696 -22.331701 0.426148
-33.142090 244.941696 -22.331701 -0.048834
-19.658783 244.941696 -22.331701 -0.478873
-6.175476 244.941696 -22.331701 -0.417008
7.307800 244.941696 -22.331701 -0.394652
20.791107 244.941696 -22.331701 -0.029650
34.274414 244.941696 -22.331701 0.074613
47.757721 244.941696 -22.331701 0.068557
61.240997 244.941696 -22.331701 0.058939
74.724304 244.941696 -22.331701 0.114701
88.207611 244.941696 -22.331701 0.099472
101.690918 244.941696 -22.331701 -0.104180
115.174225 244.941696 -22.331701 -0.635832
128.657501 244.941696 -22.331701 -1.071681
142.140808 244.941696 -22.331701 -1.472540
155.624115 244.941696 -22.331701 -1.889082
169.107422 244.941696 -22.331701 -1.998881
182.590698 244.941696 -22.331701 -2.289104
196.074036 244.941696 -22.331701 -2.055000
209.557312 244.941696 -22.331701 -1.596493
223.040588 244.941696 -22.331701 -1.016039
236.523926 244.941696 -22.331701 -0.483344
250.007202 244.941696 -22.331701 -0.173678
263.490540 244.941696 -22.331701 -0.025477
276.973816 244.941696 -22.331701 0.094136
290.457092 244.941696 -22.331701 0.093628
303.940430 244.941696 -22.331701 0.242227
317.423706 244.941696 -22.331701 0.207202
330.907043 244.941696 -22.331701 0.000000
344.390320 244.941696 -22.331701 0.000000
-343.257996 231.458389 -22.331701 0.000000
-329.774689 231.458389 -22.331701 0.000000
-316.291382 231.458389 -22.331701 0.121459
-302.808105 231.458389 -22.331701 0.078333
-289.324799 231.458389 -22.331701 0.084493
-275.841492 231.458389 -22.331701 0.087479
-262.358185 231.458389 -22.331701 0.067178
-248.874893 231.458389 -22.331701 0.120943
-235.391602 231.458389 -22.331701 0.212588
-221.908295 231.458389 -22.331701 0.292583
-208.424988 231.458389 -22.331701 0.360419
-194.941696 231.458389 -22.331701 0.524019
-181.458389 231.458389 -22.331701 0.922151
-167.975098 231.458389 -22.331701 1.028720
-154.491791 231.458389 -22.331701 1.101635
-141.008499 231.458389 -22.331701 1.296888
-127.525192 231.458389 -22.331701 1.524076
-114.041885 231.458389 -22.331701 1.773375
-100.558594 231.458389 -22.331701 1.833043
-87.075287 231.458389 -22.331701 1.946642
-73.591980 231.458389 -22.331701 1.458988
-60.108704 231.458389 -22.331701 1.112361
-46.625397 231.458389 -22.331701 0.488759
-33.142090 231.458389 -22.331701 -0.083664
-19.658783 231.458389 -22.331701 -0.682304
-6.175476 231.458389 -22.331701 -0.511098
7.307800 231.458389 -22.331701 -0.598583
20.791107 231.458389 -22.331701 -0.109341
34.274414 231.458389 -22.331701 -0.077032
47.757721 231.458389 -22.331701 0.036128
61.240997 231.458389 -22.331701 -0.038016
74.724304 231.458389 -22.331701 -0.052529
88.207611 231.458389 -22.331701 -0.358528
101.690918 231.458389 -22.331701 -0.631226
115.174225 231.458389 -22.331701 -1.153428
128.657501 231.458389 -22.331701 -1.335257
142.140808 231.458389 -22.331701 -1.634635
155.624115 231.458389 -22.331701 -1.799070
169.107422 231.458389 -22.331701 -2.074450
182.590698 231.458389 -22.331701 -2.028248
196.074036 231.458389 -22.331701 -2.030757
209.557312 231.458389 -22.331701 -1.463002
223.040588 231.458389 -22.331701 -0.850476
236.523926 231.458389 -22.331701 -0.257451
250.007202 231.458389 -22.331701 -0.108215
263.490540 231.458389 -22.331701 -0.038012
276.973816 231.458389 -22.331701 0.047023
290.457092 231.458389 -22.331701 0.123696
303.940430 231.458389 -22.331701 0.122081
317.423706 231.458389 -22.331701 0.145396
330.907043 231.458389 -22.331701 0.000000
344.390320 231.458389 -22.331701 0.000000
-343.257996 217.975098 -22.331701 0.000000
-329.774689 217.975098 -22.331701 0.000000
-316.291382 217.975098 -22.331701 0.100893
-302.808105 217.975098 -22.331701 0.070780
-289.324799 217.975098 -22.331701 0.114564
-275.841492 217.975098 -22.331701 0.124005
-262.358185 217.975098 -22.331701 0.127039
-248.874893 217.975098 -22.331701 0.189136
-235.391602 217.975098 -22.331701 0.175336
-221.908295 217.975098 -22.331701 0.316099
-208.424988 217.975098 -22.331701 0.513421
-194.941696 217.975098 -22.331701 0.800942
-181.458389 217.975098 -22.331701 0.909301
-167.975098 217.975098 -22.331701 1.024714
-154.491791 217.975098 -22.331701 1.044625
-141.008499 217.975098 -22.331701 1.293965
-127.525192 217.975098 -22.331701 1.437958
-114.041885 217.975098 -22.331701 1.575004
-100.558594 217.975098 -22.331701 1.746954
-87.075287 217.975098 -22.331701 1.882987
-73.591980 217.975098 -22.331701 1.602532
-60.108704 217.975098 -22.331701 1.050033
-46.625397 217.975098 -22.331701 0.532782
-33.142090 217.975098 -22.331701 0.022872
-19.658783 217.975098 -22.331701 -0.228249
-6.175476 217.975098 -22.331701 -0.422152
7.307800 217.975098 -22.331701 -0.497430
20.791107 217.975098 -22.331701 -0.394876
34.274414 217.975098 -22.331701 -0.104285
47.757721 217.975098 -22.331701 -0.016683
61.240997 217.975098 -22.331701 -0.170126
74.724304 217.975098 -22.331701 -0.375453
88.207611 217.975098 -22.331701 -0.675538
101.690918 217.975098 -22.331701 -1.065676
115.174225 217.975098 -22.331701 -1.457954
128.657501 217.975098 -22.331701 -1.534313
142.140808 217.975098 -22.331701 -1.535233
155.624115 217.975098 -22.331701 -1.850557
169.107422 217.975098 -22.331701 -1.752768
182.590698 217.975098 -22.331701 -1.880373
196.074036 217.975098 -22.331701 -1.751389
209.557312 217.975098 -22.331701 -1.339584
223.040588 217.975098 -22.331701 -0.776593
236.523926 217.975098 -22.331701 -0.283286
250.007202 217.975098 -22.331701 -0.077614
263.490540 217.975098 -22.331701 -0.073656
276.973816 217.975098 -22.331701 -0.020411
290.457092 217.975098 -22.331701 0.045066
303.940430 217.975098 -22.331701 0.093909
317.423706 217.975098 -22.331701 0.117973
330.907043 217.975098 -22.331701 0.000000
344.390320 217.975098 -22.331701 0.000000
-343.257996 204.491791 -22.331701 0.000000
-329.774689 204.491791 -22.331701 0.000000
-316.291382 204.491791 -22.331701 0.077230
-302.808105 204.491791 -22.331701 0.103355
-289.324799 204.491791 -22.331701 0.161338
-275.841492 204.491791 -22.331701 0.138557
-262.358185 204.491791 -22.331701 0.139599
-248.874893 204.491791 -22.331701 0.211773
-235.391602 204.491791 -22.331701 0.202444
-221.908295 204.491791 -22.331701 0.449842
-208.424988 204.491791 -22.331701 0.547020
-194.941696 204.491791 -22.331701 0.698929
-181.458389 204.491791 -22.331701 0.912260
-167.975098 204.491791 -22.331701 1.091662
-154.491791 204.491791 -22.331701 1.138877
-141.008499 204.491791 -22.331701 1.440821
-127.525192 204.491791 -22.331701 1.553136
-114.041885 204.491791 -22.331701 1.687459
-100.558594 204.491791 -22.331701 1.963508
-87.075287 204.491791 -22.331701 2.227895
-73.591980 204.491791 -22.331701 1.832765
-60.108704 204.491791 -22.331701 1.182339
-46.625397 204.491791 -22.331701 0.852149
-33.142090 204.491791 -22.331701 0.443197
-19.658783 204.491791 -22.331701 -0.149429
-6.175476 204.491791 -22.331701 -0.158527
7.307800 204.491791 -22.331701 -0.376198
20.791107 204.491791 -22.331701 -0.592366
34.274414 204.491791 -22.331701 -0.643943
47.757721 204.491791 -22.331701 -0.523378
61.240997 204.491791 -22.331701 -0.519608
74.724304 204.491791 -22.331701 -0.904220
88.207611 204.491791 -22.331701 -1.408277
101.690918 204.491791 -22.331701 -1.483608
115.174225 204.491791 -22.331701 -1.837234
128.657501 204.491791 -22.331701 -1.793265
142.140808 204.491791 -22.331701 -1.428932
155.624115 204.491791 -22.331701 -1.570606
169.107422 204.491791 -22.331701 -1.594523
182.590698 204.491791 -22.331701 -1.646845
196.074036 204.491791 -22.331701 -1.422500
209.557312 204.491791 -22.331701 -1.097738
223.040588 204.491791 -22.331701 -0.612044
236.523926 204.491791 -22.331701 -0.207051
250.007202 204.491791 -22.331701 -0.063574
263.490540 204.491791 -22.331701 -0.046318
276.973816 204.491791 -22.331701 -0.034281
290.457092 204.491791 -22.331701 0.012209
303.940430 204.491791 -22.331701 0.061723
317.423706 204.491791 -22.331701 0.091318
330.907043 204.491791 -22.331701 0.000000
344.390320 204.491791 -22.331701 0.000000
-343.257996 191.008499 -22.331701 0.000000
-329.774689 191.008499 -22.331701 0.000000
-316.291382 191.008499 -22.331701 0.096800
-302.808105 191.008499 -22.331701 0.082492
-289.324799 191.008499 -22.331701 0.168803
-275.841492 191.008499 -22.331701 0.111742
-262.358185 191.008499 -22.331701 0.218875
-248.874893 191.008499 -22.331701 0.308821
-235.391602 191.008499 -22.331701 0.348325
-221.908295 191.008499 -22.331701 0.606282
-208.424988 191.008499 -22.331701 0.574403
-194.941696 191.008499 -22.331701 0.784006
-181.458389 191.008499 -22.331701 0.903617
-167.975098 191.008499 -22.331701 1.046419
-154.491791 191.008499 -22.331701 1.204547
-141.008499 191.008499 -22.331701 1.548359
-127.525192 191.008499 -22.331701 1.550317
-114.041885 191.008499 -22.331701 2.083507
-100.558594 191.008499 -22.331701 2.455898
-87.075287 191.008499 -22.331701 2.520900
-73.591980 191.008499 -22.331701 2.205619
-60.108704 191.008499 -22.331701 1.724818
-46.625397 191.008499 -22.331701 1.265835
-33.142090 191.008499 -22.331701 0.758625
-19.658783 191.008499 -22.331701 -0.106130
-6.175476 191.008499 -22.331701 -0.566492
7.307800 191.008499 -22.331701 -0.818371
20.791107 191.008499 -22.331701 -0.567712
34.274414 191.008499 -22.331701 -0.808709
47.757721 191.008499 -22.331701 -0.932391
61.240997 191.008499 -22.331701 -1.357494
74.724304 191.008499 -22.331701 -1.489835
88.207611 191.008499 -22.331701 -1.823791
101.690918 191.008499 -22.331701 -1.685205
115.174225 191.008499 -22.331701 -1.906127
128.657501 191.008499 -22.331701 -1.550846
142.140808 191.008499 -22.331701 -1.217621
155.624115 191.008499 -22.331701 -1.099643
169.107422 191.008499 -22.331701 -1.185889
182.590698 191.008499 -22.331701 -1.253890
196.074036 191.008499 -22.331701 -1.056382
209.557312 191.008499 -22.331701 -0.756261
223.040588 191.008499 -22.331701 -0.319857
236.523926 191.008499 -22.331701 -0.056062
250.007202 191.008499 -22.331701 0.013584
263.490540 191.008499 -22.331701 0.001236
276.973816 191.008499 -22.331701 -0.018457
290.457092 191.008499 -22.331701 0.000821
303.940430 191.008499 -22.331701 0.032594
317.423706 191.008499 -22.331701 0.051278
330.907043 191.008499 -22.331701 0.000000
344.390320 191.008499 -22.331701 0.000000
-343.257996 177.525192 -22.331701 0.000000
-329.774689 177.525192 -22.331701 0.000000
-316.291382 177.525192 -22.331701 0.091107
-302.808105 177.525192 -22.331701 0.129552
-289.324799 177.525192 -22.331701 0.211491
-275.841492 177.525192 -22.331701 0.141684
-262.358185 177.525192 -22.331701 0.141869
-248.874893 177.525192 -22.331701 0.337212
-235.391602 177.525192 -22.331701 0.523287
-221.908295 177.525192 -22.331701 0.540147
-208.424988 177.525192 -22.331701 0.584774
-194.941696 177.525192 -22.331701 0.769104
-181.458389 177.525192 -22.331701 0.938625
-167.975098 177.525192 -22.331701 1.066580
-154.491791 177.525192 -22.331701 1.351248
-141.008499 177.525192 -22.331701 1.589436
-127.525192 177.525192 -22.331701 1.906927
-114.041885 177.525192 -22.331701 2.209939
-100.558594 177.525192 -22.331701 2.696293
-87.075287 177.525192 -22.331701 2.934586
-73.591980 177.525192 -22.331701 2.496920
-60.108704 177.525192 -22.331701 2.332065
-46.625397 177.525192 -22.331701 1.723490
-33.142090 177.525192 -22.331701 0.991541
-19.658783 177.525192 -22.331701 -0.064578
-6.175476 177.525192 -22.331701 -0.757530
7.307800 177.525192 -22.331701 -1.023765
20.791107 177.525192 -22.331701 -1.140553
34.274414 177.525192 -22.331701 -1.376531
47.757721 177.525192 -22.331701 -1.140841
61.240997 177.525192 -22.331701 -1.418028
74.724304 177.525192 -22.331701 -1.705006
88.207611 177.525192 -22.331701 -1.914829
101.690918 177.525192 -22.331701 -1.903782
115.174225 177.525192 -22.331701 -1.865072
128.657501 177.525192 -22.331701 -1.453382
142.140808 177.525192 -22.331701 -1.107872
155.624115 177.525192 -22.331701 -0.861544
169.107422 177.525192 -22.331701 -0.917008
182.590698 177.525192 -22.331701 -0.713284
196.074036 177.525192 -22.331701 -0.690468
209.557312 177.525192 -22.331701 -0.391645
223.040588 177.525192 -22.331701 -0.168110
236.523926 177.525192 -22.331701 0.065843
250.007202 177.525192 -22.331701 0.027205
263.490540 177.525192 -22.331701 -0.001043
276.973816 177.525192 -22.331701 -0.023517
290.457092 177.525192 -22.331701 -0.014682
303.940430 177.525192 -22.331701 -0.008545
317.423706 177.525192 -22.331701 0.011840
330.907043 177.525192 -22.331701 0.000000
344.390320 177.525192 -22.331701 0.000000
-343.257996 164.041885 -22.331701 0.000000
-329.774689 164.041885 -22.331701 0.000000
-316.291382 164.041885 -22.331701 0.158061
-302.808105 164.041885 -22.331701 0.161595
-289.324799 164.041885 -22.331701 0.175304
-275.841492 164.041885 -22.331701 0.204733
-262.358185 164.041885 -22.331701 0.173586
-248.874893 164.041885 -22.331701 0.357464
-235.391602 164.041885 -22.331701 0.458412
-221.908295 164.041885 -22.331701 0.552059
-208.424988 164.041885 -22.331701 0.634752
-194.941696 164.041885 -22.331701 0.811322
-181.458389 164.041885 -22.331701 1.024869
-167.975098 164.041885 -22.331701 1.092111
-154.491791 164.041885 -22.331701 1.221251
-141.008499 164.041885 -22.331701 1.696139
-127.525192 164.041885 -22.331701 2.079300
-114.041885 164.041885 -22.331701 2.087275
-100.558594 164.041885 -22.331701 2.548629
-87.075287 164.041885 -22.331701 2.749851
-73.591980 164.041885 -22.331701 2.863883
-60.108704 164.041885 -22.331701 2.573142
-46.625397 164.041885 -22.331701 1.975725
-33.142090 164.041885 -22.331701 1.274654
-19.658783 164.041885 -22.331701 0.117718
-6.175476 164.041885 -22.331701 -0.630895
7.307800 164.041885 -22.331701 -0.900912
20.791107 164.041885 -22.331701 -1.427930
34.274414 164.041885 -22.331701 -1.587012
47.757721 164.041885 -22.331701 -1.675232
61.240997 164.041885 -22.331701 -1.787135
74.724304 164.041885 -22.331701 -2.079540
88.207611 164.041885 -22.331701 -1.790555
101.690918 164.041885 -22.331701 -1.672487
115.174225 164.041885 -22.331701 -1.369307
128.657501 164.041885 -22.331701 -1.146285
142.140808 164.041885 -22.331701 -0.752639
155.624115 164.041885 -22.331701 -0.679104
169.107422 164.041885 -22.331701 -0.543841
182.590698 164.041885 -22.331701 -0.519562
196.074036 164.041885 -22.331701 -0.441096
209.557312 164.041885 -22.331701 -0.231453
223.040588 164.041885 -22.331701 -0.079697
236.523926 164.041885 -22.331701 -0.005620
250.007202 164.041885 -22.331701 0.006735
263.490540 164.041885 -22.331701 -0.020000
276.973816 164.041885 -22.331701 -0.013321
290.457092 164.041885 -22.331701 -0.022257
303.940430 164.041885 -22.331701 -0.011581
317.423706 164.041885 -22.331701 0.004848
330.907043 164.041885 -22.331701 0.000000
344.390320 164.041885 -22.331701 0.000000
-343.257996 150.558594 -22.331701 0.000000
-329.774689 150.558594 -22.331701 0.000000
-316.291382 150.558594 -22.331701 0.232879
-302.808105 150.558594 -22.331701 0.272213
-289.324799 150.558594 -22.331701 0.281129
-275.841492 150.558594 -22.331701 0.331350
-262.358185 150.558594 -22.331701 0.299163
-248.874893 150.558594 -22.331701 0.436336
-235.391602 150.558594 -22.331701 0.511153
-221.908295 150.558594 -22.331701 0.615259
-208.424988 150.558594 -22.331701 0.912674
-194.941696 150.558594 -22.331701 0.912834
-181.458389 150.558594 -22.331701 0.995902
-167.975098 150.558594 -22.331701 1.193088
-154.491791 150.558594 -22.331701 1.460564
-141.008499 150.558594 -22.331701 1.733487
-127.525192 150.558594 -22.331701 2.243200
-114.041885 150.558594 -22.331701 2.267397
-100.558594 150.558594 -22.331701 2.376137
-87.075287 150.558594 -22.331701 2.653905
-73.591980 150.558594 -22.331701 2.953410
-60.108704 150.558594 -22.331701 2.590422
-46.625397 150.558594 -22.331701 1.841719
-33.142090 150.558594 -22.331701 0.967588
-19.658783 150.558594 -22.331701 0.082717
-6.175476 150.558594 -22.331701 -0.681993
7.307800 150.558594 -22.331701 -1.378777
20.791107 150.558594 -22.331701 -1.932014
34.274414 150.558594 -22.331701 -2.103535
47.757721 150.558594 -22.331701 -2.001985
61.240997 150.558594 -22.331701 -2.193833
74.724304 150.558594 -22.331701 -1.988746
88.207611 150.558594 -22.331701 -1.420046
101.690918 150.558594 -22.331701 -1.507070
115.174225 150.558594 -22.331701 -1.107927
128.657501 150.558594 -22.331701 -0.957973
142.140808 150.558594 -22.331701 -0.678398
155.624115 150.558594 -22.331701 -0.495297
169.107422 150.558594 -22.331701 -0.458956
182.590698 150.558594 -22.331701 -0.373060
196.074036 150.558594 -22.331701 -0.331200
209.557312 150.558594 -22.331701 -0.227258
223.040588 150.558594 -22.331701 -0.076857
236.523926 150.558594 -22.331701 0.008625
250.007202 150.558594 -22.331701 -0.003753
263.490540 150.558594 -22.331701 -0.014872
276.973816 150.558594 -22.331701 -0.023456
290.457092 150.558594 -22.331701 -0.029977
303.940430 150.558594 -22.331701 -0.003515
317.423706 150.558594 -22.331701 0.008479
330.907043 150.558594 -22.331701 0.000000
344.390320 150.558594 -22.331701 0.000000
-343.257996 137.075287 -22.331701 0.000000
-329.774689 137.075287 -22.331701 0.000000
-316.291382 137.075287 -22.331701 0.441174
-302.808105 137.075287 -22.331701 0.307268
-289.324799 137.075287 -22.331701 0.446038
-275.841492 137.075287 -22.331701 0.421861
-262.358185 137.075287 -22.331701 0.504444
-248.874893 137.075287 -22.331701 0.441398
-235.391602 137.075287 -22.331701 0.532287
-221.908295 137.075287 -22.331701 0.719699
-208.424988 137.075287 -22.331701 0.927635
-194.941696 137.075287 -22.331701 1.000167
-181.458389 137.075287 -22.331701 1.224400
-167.975098 137.075287 -22.331701 1.582591
-154.491791 137.075287 -22.331701 1.524757
-141.008499 137.075287 -22.331701 1.743400
-127.525192 137.075287 -22.331701 2.089396
-114.041885 137.075287 -22.331701 2.357475
-100.558594 137.075287 -22.331701 2.565416
-87.075287 137.075287 -22.331701 2.750200
-73.591980 137.075287 -22.331701 2.596942
-60.108704 137.075287 -22.331701 2.480532
-46.625397 137.075287 -22.331701 1.625005
-33.142090 137.075287 -22.331701 0.560924
-19.658783 137.075287 -22.331701 -0.125065
-6.175476 137.075287 -22.331701 -0.770232
7.307800 137.075287 -22.331701 -1.449719
20.791107 137.075287 -22.331701 -1.726897
34.274414 137.075287 -22.331701 -2.272171
47.757721 137.075287 -22.331701 -2.113165
61.240997 137.075287 -22.331701 -2.342946
74.724304 137.075287 -22.331701 -2.181075
88.207611 137.075287 -22.331701 -1.570867
101.690918 137.075287 -22.331701 -1.175911
115.174225 137.075287 -22.331701 -0.868897
128.657501 137.075287 -22.331701 -0.716937
142.140808 137.075287 -22.331701 -0.687369
155.624115 137.075287 -22.331701 -0.460109
169.107422 137.075287 -22.331701 -0.310522
182.590698 137.075287 -22.331701 -0.362930
196.074036 137.075287 -22.331701 -0.295329
209.557312 137.075287 -22.331701 -0.151510
223.040588 137.075287 -22.331701 -0.054968
236.523926 137.075287 -22.331701 0.023478
250.007202 137.075287 -22.331701 0.009437
263.490540 137.075287 -22.331701 -0.015750
276.973816 137.075287 -22.331701 -0.026902
290.457092 137.075287 -22.331701 -0.025957
303.940430 137.075287 -22.331701 -0.016799
317.423706 137.075287 -22.331701 0.007321
330.907043 137.075287 -22.331701 0.000000
344.390320 137.075287 -22.331701 0.000000
-343.257996 123.591980 -22.331701 0.000000
-329.774689 123.591980 -22.331701 0.000000
-316.291382 123.591980 -22.331701 0.000000
-302.808105 123.591980 -22.331701 0.442728
-289.324799 123.591980 -22.331701 0.606886
-275.841492 123.591980 -22.331701 0.474505
-262.358185 123.591980 -22.331701 0.529386
-248.874893 123.591980 -22.331701 0.616003
-235.391602 123.591980 -22.331701 0.668379
-221.908295 123.591980 -22.331701 0.902084
-208.424988 123.591980 -22.331701 1.041666
-194.941696 123.591980 -22.331701 1.229545
-181.458389 123.591980 -22.331701 1.353867
-167.975098 123.591980 -22.331701 1.583799
-154.491791 123.591980 -22.331701 1.767094
-141.008499 123.591980 -22.331701 1.990283
-127.525192 123.591980 -22.331701 2.289523
-114.041885 123.591980 -22.331701 2.676047
-100.558594 123.591980 -22.331701 3.251399
-87.075287 123.591980 -22.331701 3.130417
-73.591980 123.591980 -22.331701 2.911214
-60.108704 123.591980 -22.331701 2.158537
-46.625397 123.591980 -22.331701 1.247150
-33.142090 123.591980 -22.331701 0.460913
-19.658783 123.591980 -22.331701 -0.275706
-6.175476 123.591980 -22.331701 -0.907865
7.307800 123.591980 -22.331701 -1.675829
20.791107 123.591980 -22.331701 -1.795493
34.274414 123.591980 -22.331701 -2.097898
47.757721 123.591980 -22.331701 -2.054318
61.240997 123.591980 -22.331701 -1.949927
74.724304 123.591980 -22.331701 -1.928081
88.207611 123.591980 -22.331701 -1.861698
101.690918 123.591980 -22.331701 -1.295663
115.174225 123.591980 -22.331701 -0.778793
128.657501 123.591980 -22.331701 -0.530852
142.140808 123.591980 -22.331701 -0.562947
155.624115 123.591980 -22.331701 -0.360914
169.107422 123.591980 -22.331701 -0.287565
182.590698 123.591980 -22.331701 -0.265392
196.074036 123.591980 -22.331701 -0.138770
209.557312 123.591980 -22.331701 -0.136022
223.040588 123.591980 -22.331701 -0.047108
236.523926 123.591980 -22.331701 0.017111
250.007202 123.591980 -22.331701 0.009523
263.490540 123.591980 -22.331701 -0.013344
276.973816 123.591980 -22.331701 -0.002813
290.457092 123.591980 -22.331701 -0.008963
303.940430 123.591980 -22.331701 -0.006397
317.423706 123.591980 -22.331701 -0.001488
330.907043 123.591980 -22.331701 0.000000
344.390320 123.591980 -22.331701 0.000000
-343.257996 110.108704 -22.331701 0.000000
-329.774689 110.108704 -22.331701 0.000000
-316.291382 110.108704 -22.331701 0.000000
-302.808105 110.108704 -22.331701 0.514224
-289.324799 110.108704 -22.331701 0.554446
-275.841492 110.108704 -22.331701 0.579545
-262.358185 110.108704 -22.331701 0.672744
-248.874893 110.108704 -22.331701 0.695183
-235.391602 110.108704 -22.331701 0.740072
-221.908295 110.108704 -22.331701 0.997010
-208.424988 110.108704 -22.331701 1.107796
-194.941696 110.108704 -22.331701 1.576187
-181.458389 110.108704 -22.331701 1.714303
-167.975098 110.108704 -22.331701 2.005782
-154.491791 110.108704 -22.331701 2.291619
-141.008499 110.108704 -22.331701 2.446571
-127.525192 110.108704 -22.331701 2.947732
-114.041885 110.108704 -22.331701 3.029354
-100.558594 110.108704 -22.331701 3.042804
-87.075287 110.108704 -22.331701 3.278586
-73.591980 110.108704 -22.331701 3.244602
-60.108704 110.108704 -22.331701 2.443652
-46.625397 110.108704 -22.331701 1.636839
-33.142090 110.108704 -22.331701 0.598966
-19.658783 110.108704 -22.331701 -0.057339
-6.175476 110.108704 -22.331701 -0.610946
7.307800 110.108704 -22.331701 -1.190137
20.791107 110.108704 -22.331701 -1.522119
34.274414 110.108704 -22.331701 -2.031104
47.757721 110.108704 -22.331701 -2.462117
61.240997 110.108704 -22.331701 -2.348265
74.724304 110.108704 -22.331701 -2.442345
88.207611 110.108704 -22.331701 -2.291085
101.690918 110.108704 -22.331701 -1.567363
115.174225 110.108704 -22.331701 -1.071698
128.657501 110.108704 -22.331701 -0.564828
142.140808 110.108704 -22.331701 -0.400993
155.624115 110.108704 -22.331701 -0.263628
169.107422 110.108704 -22.331701 -0.191156
182.590698 110.108704 -22.331701 -0.204004
196.074036 110.108704 -22.331701 -0.147065
209.557312 110.108704 -22.331701 -0.108737
223.040588 110.108704 -22.331701 -0.064421
236.523926 110.108704 -22.331701 -0.020788
250.007202 110.108704 -22.331701 0.005950
263.490540 110.108704 -22.331701 0.000640
276.973816 110.108704 -22.331701 0.003098
290.457092 110.108704 -22.331701 0.004771
303.940430 110.108704 -22.331701 -0.001636
317.423706 110.108704 -22.331701 0.005869
330.907043 110.108704 -22.331701 0.000000
344.390320 110.108704 -22.331701 0.000000
-343.257996 96.625397 -22.331701 0.000000
-329.774689 96.625397 -22.331701 0.000000
-316.291382 96.625397 -22.331701 0.000000
-302.808105 96.625397 -22.331701 0.414146
-289.324799 96.625397 -22.331701 0.423401
-275.841492 96.625397 -22.331701 0.453581
-262.358185 96.625397 -22.331701 0.729716
-248.874893 96.625397 -22.331701 0.604035
-235.391602 96.625397 -22.331701 0.716546
-221.908295 96.625397 -22.331701 0.895708
-208.424988 96.625397 -22.331701 1.138246
-194.941696 96.625397 -22.331701 1.545896
-181.458389 96.625397 -22.331701 1.525150
-167.975098 96.625397 -22.331701 2.403977
-154.491791 96.625397 -22.331701 2.902440
-141.008499 96.625397 -22.331701 3.302196
-127.525192 96.625397 -22.331701 3.367352
-114.041885 96.625397 -22.331701 3.451229
-100.558594 96.625397 -22.331701 3.733160
-87.075287 96.625397 -22.331701 3.396734
-73.591980 96.625397 -22.331701 3.128573
-60.108704 96.625397 -22.331701 2.432326
-46.625397 96.625397 -22.331701 1.961106
-33.142090 96.625397 -22.331701 1.045893
-19.658783 96.625397 -22.331701 0.494704
-6.175476 96.625397 -22.331701 -0.173928
7.307800 96.625397 -22.331701 -1.026632
20.791107 96.625397 -22.331701 -1.428497
34.274414 96.625397 -22.331701 -1.927765
47.757721 96.625397 -22.331701 -2.861561
61.240997 96.625397 -22.331701 -2.930692
74.724304 96.625397 -22.331701 -2.894644
88.207611 96.625397 -22.331701 -2.679805
101.690918 96.625397 -22.331701 -2.328851
115.174225 96.625397 -22.331701 -1.480696
128.657501 96.625397 -22.331701 -0.742963
142.140808 96.625397 -22.331701 -0.413891
155.624115 96.625397 -22.331701 -0.261180
169.107422 96.625397 -22.331701 -0.166551
182.590698 96.625397 -22.331701 -0.197947
196.074036 96.625397 -22.331701 -0.118507
209.557312 96.625397 -22.331701 -0.088535
223.040588 96.625397 -22.331701 -0.030407
236.523926 96.625397 -22.331701 -0.013819
250.007202 96.625397 -22.331701 0.003158
263.490540 96.625397 -22.331701 -0.009198
276.973816 96.625397 -22.331701 0.000696
290.457092 96.625397 -22.331701 0.000997
303.940430 96.625397 -22.331701 0.009623
317.423706 96.625397 -22.331701 0.018012
330.907043 96.625397 -22.331701 0.000000
344.390320 96.625397 -22.331701 0.000000
-343.257996 83.142090 -22.331701 0.000000
-329.774689 83.142090 -22.331701 0.000000
-316.291382 83.142090 -22.331701 0.000000
-302.808105 83.142090 -22.331701 0.278284
-289.324799 83.142090 -22.331701 0.374948
-275.841492 83.142090 -22.331701 0.586749
-262.358185 83.142090 -22.331701 0.733364
-248.874893 83.142090 -22.331701 0.574483
-235.391602 83.142090 -22.331701 0.704258
-221.908295 83.142090 -22.331701 0.995704
-208.424988 83.142090 -22.331701 1.391597
-194.941696 83.142090 -22.331701 1.286592
-181.458389 83.142090 -22.331701 1.586271
-167.975098 83.142090 -22.331701 2.609138
-154.491791 83.142090 -22.331701 3.327110
-141.008499 83.142090 -22.331701 3.900813
-127.525192 83.142090 -22.331701 4.051170
-114.041885 83.142090 -22.331701 3.862127
-100.558594 83.142090 -22.331701 4.017923
-87.075287 83.142090 -22.331701 3.785308
-73.591980 83.142090 -22.331701 3.079854
-60.108704 83.142090 -22.331701 2.739705
-46.625397 83.142090 -22.331701 1.983255
-33.142090 83.142090 -22.331701 1.099507
-19.658783 83.142090 -22.331701 0.394563
-6.175476 83.142090 -22.331701 -0.308256
7.307800 83.142090 -22.331701 -0.638425
20.791107 83.142090 -22.331701 -1.240015
34.274414 83.142090 -22.331701 -2.016941
47.757721 83.142090 -22.331701 -2.594425
61.240997 83.142090 -22.331701 -3.043199
74.724304 83.142090 -22.331701 -3.105927
88.207611 83.142090 -22.331701 -3.072129
101.690918 83.142090 -22.331701 -2.465588
115.174225 83.142090 -22.331701 -1.895625
128.657501 83.142090 -22.331701 -1.092133
142.140808 83.142090 -22.331701 -0.851697
155.624115 83.142090 -22.331701 -0.442787
169.107422 83.142090 -22.331701 -0.347085
182.590698 83.142090 -22.331701 -0.315816
196.074036 83.142090 -22.331701 -0.174018
209.557312 83.142090 -22.331701 -0.102398
223.040588 83.142090 -22.331701 0.003666
236.523926 83.142090 -22.331701 -0.000816
250.007202 83.142090 -22.331701 0.004564
263.490540 83.142090 -22.331701 0.007787
276.973816 83.142090 -22.331701 0.004440
290.457092 83.142090 -22.331701 0.004972
303.940430 83.142090 -22.331701 0.023082
317.423706 83.142090 -22.331701 0.038545
330.907043 83.142090 -22.331701 0.000000
344.390320 83.142090 -22.331701 0.000000
-343.257996 69.658783 -22.331701 0.000000
-329.774689 69.658783 -22.331701 0.000000
-316.291382 69.658783 -22.331701 0.000000
-302.808105 69.658783 -22.331701 0.000000
-289.324799 69.658783 -22.331701 0.359913
-275.841492 69.658783 -22.331701 0.586349
-262.358185 69.658783 -22.331701 0.544275
-248.874893 69.658783 -22.331701 0.535532
-235.391602 69.658783 -22.331701 0.715805
-221.908295 69.658783 -22.331701 0.745157
-208.424988 69.658783 -22.331701 1.112260
-194.941696 69.658783 -22.331701 1.247112
-181.458389 69.658783 -22.331701 2.060507
-167.975098 69.658783 -22.331701 2.760021
-154.491791 69.658783 -22.331701 3.997290
-141.008499 69.658783 -22.331701 4.722682
-127.525192 69.658783 -22.331701 4.850363
-114.041885 69.658783 -22.331701 4.777015
-100.558594 69.658783 -22.331701 4.761415
-87.075287 69.658783 -22.331701 4.008222
-73.591980 69.658783 -22.331701 3.204079
-60.108704 69.658783 -22.331701 2.699967
-46.625397 69.658783 -22.331701 2.062240
-33.142090 69.658783 -22.331701 1.273236
-19.658783 69.658783 -22.331701 0.719218
-6.175476 69.658783 -22.331701 0.233947
7.307800 69.658783 -22.331701 -0.481673
20.791107 69.658783 -22.331701 -0.779794
34.274414 69.658783 -22.331701 -1.851948
47.757721 69.658783 -22.331701 -2.423263
61.240997 69.658783 -22.331701 -3.120320
74.724304 69.658783 -22.331701 -3.549970
88.207611 69.658783 -22.331701 -3.174686
101.690918 69.658783 -22.331701 -2.677878
115.174225 69.658783 -22.331701 -2.108751
128.657501 69.658783 -22.331701 -1.296053
142.140808 69.658783 -22.331701 -1.170012
155.624115 69.658783 -22.331701 -0.845687
169.107422 69.658783 -22.331701 -0.781122
182.590698 69.658783 -22.331701 -0.645338
196.074036 69.658783 -22.331701 -0.406449
209.557312 69.658783 -22.331701 -0.124185
223.040588 69.658783 -22.331701 0.007776
236.523926 69.658783 -22.331701 -0.013956
250.007202 69.658783 -22.331701 0.022242
263.490540 69.658783 -22.331701 0.023487
276.973816 69.658783 -22.331701 0.014121
290.457092 69.658783 -22.331701 0.022470
303.940430 69.658783 -22.331701 0.032633
317.423706 69.658783 -22.331701 0.035830
330.907043 69.658783 -22.331701 0.000000
344.390320 69.658783 -22.331701 0.000000
-343.257996 56.175476 -22.331701 0.000000
-329.774689 56.175476 -22.331701 0.000000
-316.291382 56.175476 -22.331701 0.000000
-302.808105 56.175476 -22.331701 0.451488
-289.324799 56.175476 -22.331701 0.464129
-275.841492 56.175476 -22.331701 0.439602
-262.358185 56.175476 -22.331701 0.437368
-248.874893 56.175476 -22.331701 0.489009
-235.391602 56.175476 -22.331701 0.514275
-221.908295 56.175476 -22.331701 0.810391
-208.424988 56.175476 -22.331701 1.323635
-194.941696 56.175476 -22.331701 1.763461
-181.458389 56.175476 -22.331701 2.281164
-167.975098 56.175476 -22.331701 3.854398
-154.491791 56.175476 -22.331701 4.741012
-141.008499 56.175476 -22.331701 5.226060
-127.525192 56.175476 -22.331701 5.274233
-114.041885 56.175476 -22.331701 5.230601
-100.558594 56.175476 -22.331701 5.221985
-87.075287 56.175476 -22.331701 4.496193
-73.591980 56.175476 -22.331701 3.358739
-60.108704 56.175476 -22.331701 2.826288
-46.625397 56.175476 -22.331701 2.273424
-33.142090 56.175476 -22.331701 1.624795
-19.658783 56.175476 -22.331701 0.851192
-6.175476 56.175476 -22.331701 0.288163
7.307800 56.175476 -22.331701 -0.327846
20.791107 56.175476 -22.331701 -0.763138
34.274414 56.175476 -22.331701 -1.255440
47.757721 56.175476 -22.331701 -2.226096
61.240997 56.175476 -22.331701 -2.774862
74.724304 56.175476 -22.331701 -3.178618
88.207611 56.175476 -22.331701 -2.804757
101.690918 56.175476 -22.331701 -2.596351
115.174225 56.175476 -22.331701 -2.058832
128.657501 56.175476 -22.331701 -1.457871
142.140808 56.175476 -22.331701 -1.467559
155.624115 56.175476 -22.331701 -1.374848
169.107422 56.175476 -22.331701 -1.165309
182.590698 56.175476 -22.331701 -1.035323
196.074036 56.175476 -22.331701 -0.676966
209.557312 56.175476 -22.331701 -0.259545
223.040588 56.175476 -22.331701 -0.089474
236.523926 56.175476 -22.331701 -0.041452
250.007202 56.175476 -22.331701 -0.028963
263.490540 56.175476 -22.331701 0.033809
276.973816 56.175476 -22.331701 0.049173
290.457092 56.175476 -22.331701 0.040229
303.940430 56.175476 -22.331701 0.053395
317.423706 56.175476 -22.331701 0.045948
330.907043 56.175476 -22.331701 0.000000
344.390320 56.175476 -22.331701 0.000000
-343.257996 42.692200 -22.331701 0.000000
-329.774689 42.692200 -22.331701 0.000000
-316.291382 42.692200 -22.331701 0.000000
-302.808105 42.692200 -22.331701 0.043234
-289.324799 42.692200 -22.331701 0.150637
-275.841492 42.692200 -22.331701 0.477393
-262.358185 42.692200 -22.331701 0.401339
-248.874893 42.692200 -22.331701 0.416118
-235.391602 42.692200 -22.331701 0.949136
-221.908295 42.692200 -22.331701 0.953424
-208.424988 42.692200 -22.331701 1.516232
-194.941696 42.692200 -22.331701 1.920656
-181.458389 42.692200 -22.331701 2.805707
-167.975098 42.692200 -22.331701 3.695881
-154.491791 42.692200 -22.331701 4.639171
-141.008499 42.692200 -22.331701 5.363690
-127.525192 42.692200 -22.331701 5.576541
-114.041885 42.692200 -22.331701 5.438713
-100.558594 42.692200 -22.331701 5.076510
-87.075287 42.692200 -22.331701 4.692379
-73.591980 42.692200 -22.331701 3.386263
-60.108704 42.692200 -22.331701 2.807338
-46.625397 42.692200 -22.331701 2.631686
-33.142090 42.692200 -22.331701 1.796708
-19.658783 42.692200 -22.331701 1.236122
-6.175476 42.692200 -22.331701 0.456389
7.307800 42.692200 -22.331701 -0.169179
20.791107 42.692200 -22.331701 -0.988333
34.274414 42.692200 -22.331701 -1.120128
47.757721 42.692200 -22.331701 -1.696133
61.240997 42.692200 -22.331701 -2.354887
74.724304 42.692200 -22.331701 -2.469928
88.207611 42.692200 -22.331701 -2.626579
101.690918 42.692200 -22.331701 -2.234787
115.174225 42.692200 -22.331701 -1.864364
128.657501 42.692200 -22.331701 -1.775354
142.140808 42.692200 -22.331701 -1.874027
155.624115 42.692200 -22.331701 -1.644496
169.107422 42.692200 -22.331701 -1.648944
182.590698 42.692200 -22.331701 -1.237682
196.074036 42.692200 -22.331701 -0.860387
209.557312 42.692200 -22.331701 -0.428117
223.040588 42.692200 -22.331701 -0.198401
236.523926 42.692200 -22.331701 -0.119612
250.007202 42.692200 -22.331701 -0.039361
263.490540 42.692200 -22.331701 -0.008262
276.973816 42.692200 -22.331701 0.002717
290.457092 42.692200 -22.331701 0.011845
303.940430 42.692200 -22.331701 0.042525
317.423706 42.692200 -22.331701 0.043708
330.907043 42.692200 -22.331701 0.000000
344.390320 42.692200 -22.331701 0.000000
-343.257996 29.208893 -22.331701 0.000000
-329.774689 29.208893 -22.331701 0.000000
-316.291382 29.208893 -22.331701 0.000000
-302.808105 29.208893 -22.331701 -0.025190
-289.324799 29.208893 -22.331701 0.021833
-275.841492 29.208893 -22.331701 0.310472
-262.358185 29.208893 -22.331701 0.421262
-248.874893 29.208893 -22.331701 0.561759
-235.391602 29.208893 -22.331701 0.723475
-221.908295 29.208893 -22.331701 1.068597
-208.424988 29.208893 -22.331701 1.120757
-194.941696 29.208893 -22.331701 1.831210
-181.458389 29.208893 -22.331701 2.890526
-167.975098 29.208893 -22.331701 3.916454
-154.491791 29.208893 -22.331701 4.694415
-141.008499 29.208893 -22.331701 5.809789
-127.525192 29.208893 -22.331701 6.144113
-114.041885 29.208893 -22.331701 5.816765
-100.558594 29.208893 -22.331701 5.210266
-87.075287 29.208893 -22.331701 4.570246
-73.591980 29.208893 -22.331701 3.505981
-60.108704 29.208893 -22.331701 2.071358
-46.625397 29.208893 -22.331701 1.943986
-33.142090 29.208893 -22.331701 1.567718
-19.658783 29.208893 -22.331701 0.916226
-6.175476 29.208893 -22.331701 0.463898
7.307800 29.208893 -22.331701 0.043143
20.791107 29.208893 -22.331701 -0.540527
34.274414 29.208893 -22.331701 -0.965334
47.757721 29.208893 -22.331701 -1.127145
61.240997 29.208893 -22.331701 -2.011334
74.724304 29.208893 -22.331701 -2.105616
88.207611 29.208893 -22.331701 -2.392309
101.690918 29.208893 -22.331701 -2.256252
115.174225 29.208893 -22.331701 -1.723762
128.657501 29.208893 -22.331701 -1.605935
142.140808 29.208893 -22.331701 -1.691685
155.624115 29.208893 -22.331701 -1.601458
169.107422 29.208893 -22.331701 -1.599378
182.590698 29.208893 -22.331701 -1.422486
196.074036 29.208893 -22.331701 -1.067573
209.557312 29.208893 -22.331701 -0.712076
223.040588 29.208893 -22.331701 -0.387888
236.523926 29.208893 -22.331701 -0.339901
250.007202 29.208893 -22.331701 -0.203459
263.490540 29.208893 -22.331701 0.023975
276.973816 29.208893 -22.331701 -0.012982
290.457092 29.208893 -22.331701 -0.008262
303.940430 29.208893 -22.331701 0.006334
317.423706 29.208893 -22.331701 0.039573
330.907043 29.208893 -22.331701 0.000000
344.390320 29.208893 -22.331701 0.000000
-343.257996 15.725586 -22.331701 0.000000
-329.774689 15.725586 -22.331701 0.000000
-316.291382 15.725586 -22.331701 0.052381
-302.808105 15.725586 -22.331701 0.160473
-289.324799 15.725586 -22.331701 0.179359
-275.841492 15.725586 -22.331701 0.061885
-262.358185 15.725586 -22.331701 0.287186
-248.874893 15.725586 -22.331701 0.658207
-235.391602 15.725586 -22.331701 0.365771
-221.908295 15.725586 -22.331701 0.774055
-208.424988 15.725586 -22.331701 1.235460
-194.941696 15.725586 -22.331701 1.752997
-181.458389 15.725586 -22.331701 3.186064
-167.975098 15.725586 -22.331701 4.095466
-154.491791 15.725586 -22.331701 5.450047
-141.008499 15.725586 -22.331701 6.317658
-127.525192 15.725586 -22.331701 6.071035
-114.041885 15.725586 -22.331701 5.322903
-100.558594 15.725586 -22.331701 4.493608
-87.075287 15.725586 -22.331701 3.970443
-73.591980 15.725586 -22.331701 3.498222
-60.108704 15.725586 -22.331701 2.375493
-46.625397 15.725586 -22.331701 1.726845
-33.142090 15.725586 -22.331701 1.403667
-19.658783 15.725586 -22.331701 1.030198
-6.175476 15.725586 -22.331701 0.323928
7.307800 15.725586 -22.331701 -0.202857
20.791107 15.725586 -22.331701 -0.851932
34.274414 15.725586 -22.331701 -1.255221
47.757721 15.725586 -22.331701 -1.185771
61.240997 15.725586 -22.331701 -1.988134
74.724304 15.725586 -22.331701 -2.269283
88.207611 15.725586 -22.331701 -2.240765
101.690918 15.725586 -22.331701 -1.975686
115.174225 15.725586 -22.331701 -1.911467
128.657501 15.725586 -22.331701 -1.528043
142.140808 15.725586 -22.331701 -1.564473
155.624115 15.725586 -22.331701 -1.475542
169.107422 15.725586 -22.331701 -1.502654
182.590698 15.725586 -22.331701 -1.303297
196.074036 15.725586 -22.331701 -1.247876
209.557312 15.725586 -22.331701 -0.893889
223.040588 15.725586 -22.331701 -0.608604
236.523926 15.725586 -22.331701 -0.422575
250.007202 15.725586 -22.331701 -0.247742
263.490540 15.725586 -22.331701 -0.135858
276.973816 15.725586 -22.331701 -0.057499
290.457092 15.725586 -22.331701 -0.026002
303.940430 15.725586 -22.331701 -0.022536
317.423706 15.725586 -22.331701 0.009295
330.907043 15.725586 -22.331701 0.000000
344.390320 15.725586 -22.331701 0.000000
-343.257996 2.242279 -22.331701 0.000000
-329.774689 2.242279 -22.331701 0.000000
-316.291382 2.242279 -22.331701 -0.383431
-302.808105 2.242279 -22.331701 -0.033266
-289.324799 2.242279 -22.331701 0.261875
-275.841492 2.242279 -22.331701 0.267282
-262.358185 2.242279 -22.331701 0.335642
-248.874893 2.242279 -22.331701 0.633750
-235.391602 2.242279 -22.331701 0.734337
-221.908295 2.242279 -22.331701 1.034983
-208.424988 2.242279 -22.331701 1.598094
-194.941696 2.242279 -22.331701 2.029525
-181.458389 2.242279 -22.331701 3.453118
-167.975098 2.242279 -22.331701 4.428274
-154.491791 2.242279 -22.331701 5.350338
-141.008499 2.242279 -22.331701 5.983341
-127.525192 2.242279 -22.331701 6.231187
-114.041885 2.242279 -22.331701 5.003498
-100.558594 2.242279 -22.331701 4.012259
-87.075287 2.242279 -22.331701 3.397355
-73.591980 2.242279 -22.331701 2.397104
-60.108704 2.242279 -22.331701 1.945315
-46.625397 2.242279 -22.331701 1.911033
-33.142090 2.242279 -22.331701 1.174004
-19.658783 2.242279 -22.331701 0.524862
-6.175476 2.242279 -22.331701 -0.141965
7.307800 2.242279 -22.331701 -0.572232
20.791107 2.242279 -22.331701 -0.896014
34.274414 2.242279 -22.331701 -1.242411
47.757721 2.242279 -22.331701 -1.559553
61.240997 2.242279 -22.331701 -1.999029
74.724304 2.242279 -22.331701 -2.471437
88.207611 2.242279 -22.331701 -2.206340
101.690918 2.242279 -22.331701 -2.059794
115.174225 2.242279 -22.331701 -1.893876
128.657501 2.242279 -22.331701 -1.584630
142.140808 2.242279 -22.331701 -1.350729
155.624115 2.242279 -22.331701 -1.283875
169.107422 2.242279 -22.331701 -1.369093
182.590698 2.242279 -22.331701 -1.313673
196.074036 2.242279 -22.331701 -1.171302
209.557312 2.242279 -22.331701 -0.917116
223.040588 2.242279 -22.331701 -0.612700
236.523926 2.242279 -22.331701 -0.410978
250.007202 2.242279 -22.331701 -0.262547
263.490540 2.242279 -22.331701 -0.176288
276.973816 2.242279 -22.331701 -0.183860
290.457092 2.242279 -22.331701 -0.049431
303.940430 2.242279 -22.331701 -0.124232
317.423706 2.242279 -22.331701 -0.058766
330.907043 2.242279 -22.331701 0.000000
344.390320 2.242279 -22.331701 0.000000
-343.257996 -11.240997 -22.331701 0.000000
-329.774689 -11.240997 -22.331701 0.000000
-316.291382 -11.240997 -22.331701 0.050521
-302.808105 -11.240997 -22.331701 0.142061
-289.324799 -11.240997 -22.331701 0.212397
-275.841492 -11.240997 -22.331701 0.043531
-262.358185 -11.240997 -22.331701 0.191493
-248.874893 -11.240997 -22.331701 0.396878
-235.391602 -11.240997 -22.331701 0.794795
-221.908295 -11.240997 -22.331701 1.316920
-208.424988 -11.240997 -22.331701 1.961965
-194.941696 -11.240997 -22.331701 2.241196
-181.458389 -11.240997 -22.331701 3.570620
-167.975098 -11.240997 -22.331701 4.630337
-154.491791 -11.240997 -22.331701 5.688895
-141.008499 -11.240997 -22.331701 6.379786
-127.525192 -11.240997 -22.331701 5.417917
-114.041885 -11.240997 -22.331701 4.271210
-100.558594 -11.240997 -22.331701 3.405288
-87.075287 -11.240997 -22.331701 2.398903
-73.591980 -11.240997 -22.331701 2.154117
-60.108704 -11.240997 -22.331701 1.886432
-46.625397 -11.240997 -22.331701 1.388186
-33.142090 -11.240997 -22.331701 1.231479
-19.658783 -11.240997 -22.331701 0.245741
-6.175476 -11.240997 -22.331701 -0.302073
7.307800 -11.240997 -22.331701 -0.844454
20.791107 -11.240997 -22.331701 -1.350521
34.274414 -11.240997 -22.331701 -1.352720
47.757721 -11.240997 -22.331701 -1.676331
61.240997 -11.240997 -22.331701 -2.336378
74.724304 -11.240997 -22.331701 -2.762362
88.207611 -11.240997 -22.331701 -2.560042
101.690918 -11.240997 -22.331701 -2.005379
115.174225 -11.240997 -22.331701 -1.694291
128.657501 -11.240997 -22.331701 -1.444805
142.140808 -11.240997 -22.331701 -1.158657
155.624115 -11.240997 -22.331701 -1.252160
169.107422 -11.240997 -22.331701 -1.250180
182.590698 -11.240997 -22.331701 -1.275744
196.074036 -11.240997 -22.331701 -1.290194
209.557312 -11.240997 -22.331701 -1.086894
223.040588 -11.240997 -22.331701 -0.737002
236.523926 -11.240997 -22.331701 -0.537644
250.007202 -11.240997 -22.331701 -0.391183
263.490540 -11.240997 -22.331701 -0.254085
276.973816 -11.240997 -22.331701 -0.106701
290.457092 -11.240997 -22.331701 -0.136627
303.940430 -11.240997 -22.331701 -0.125017
317.423706 -11.240997 -22.331701 -0.164879
330.907043 -11.240997 -22.331701 0.000000
344.390320 -11.240997 -22.331701 0.000000
-343.257996 -24.724304 -22.331701 0.000000
-329.774689 -24.724304 -22.331701 0.000000
-316.291382 -24.724304 -22.331701 -0.068364
-302.808105 -24.724304 -22.331701 -0.126625
-289.324799 -24.724304 -22.331701 0.163529
-275.841492 -24.724304 -22.331701 0.254084
-262.358185 -24.724304 -22.331701 0.020692
-248.874893 -24.724304 -22.331701 0.355479
-235.391602 -24.724304 -22.331701 0.967703
-221.908295 -24.724304 -22.331701 1.246025
-208.424988 -24.724304 -22.331701 2.050362
-194.941696 -24.724304 -22.331701 2.842610
-181.458389 -24.724304 -22.331701 3.448886
-167.975098 -24.724304 -22.331701 4.469526
-154.491791 -24.724304 -22.331701 4.797706
-141.008499 -24.724304 -22.331701 5.365870
-127.525192 -24.724304 -22.331701 4.911689
-114.041885 -24.724304 -22.331701 3.820226
-100.558594 -24.724304 -22.331701 2.313458
-87.075287 -24.724304 -22.331701 1.806964
-73.591980 -24.724304 -22.331701 1.625473
-60.108704 -24.724304 -22.331701 1.061357
-46.625397 -24.724304 -22.331701 1.161236
-33.142090 -24.724304 -22.331701 0.793330
-19.658783 -24.724304 -22.331701 -0.001618
-6.175476 -24.724304 -22.331701 -0.627125
7.307800 -24.724304 -22.331701 -1.141726
20.791107 -24.724304 -22.331701 -1.567414
34.274414 -24.724304 -22.331701 -1.714747
47.757721 -24.724304 -22.331701 -2.202844
61.240997 -24.724304 -22.331701 -2.382134
74.724304 -24.724304 -22.331701 -2.572000
88.207611 -24.724304 -22.331701 -2.224108
101.690918 -24.724304 -22.331701 -1.956170
115.174225 -24.724304 -22.331701 -1.533435
128.657501 -24.724304 -22.331701 -1.261857
142.140808 -24.724304 -22.331701 -1.004918
155.624115 -24.724304 -22.331701 -1.184452
169.107422 -24.724304 -22.331701 -1.116063
182.590698 -24.724304 -22.331701 -1.185488
196.074036 -24.724304 -22.331701 -1.040134
209.557312 -24.724304 -22.331701 -0.990860
223.040588 -24.724304 -22.331701 -0.900223
236.523926 -24.724304 -22.331701 -0.620801
250.007202 -24.724304 -22.331701 -0.473418
263.490540 -24.724304 -22.331701 -0.305745
276.973816 -24.724304 -22.331701 -0.239906
290.457092 -24.724304 -22.331701 -0.277838
303.940430 -24.724304 -22.331701 -0.034017
317.423706 -24.724304 -22.331701 -0.002198
330.907043 -24.724304 -22.331701 0.000000
344.390320 -24.724304 -22.331701 0.000000
-343.257996 -38.207611 -22.331701 0.000000
-329.774689 -38.207611 -22.331701 0.000000
-316.291382 -38.207611 -22.331701 -0.005000
-302.808105 -38.207611 -22.331701 -0.097463
-289.324799 -38.207611 -22.331701 0.113045
-275.841492 -38.207611 -22.331701 0.516837
-262.358185 -38.207611 -22.331701 0.381074
-248.874893 -38.207611 -22.331701 0.494283
-235.391602 -38.207611 -22.331701 0.655149
-221.908295 -38.207611 -22.331701 1.358284
-208.424988 -38.207611 -22.331701 1.792334
-194.941696 -38.207611 -22.331701 2.530422
-181.458389 -38.207611 -22.331701 3.377791
-167.975098 -38.207611 -22.331701 3.520072
-154.491791 -38.207611 -22.331701 3.552866
-141.008499 -38.207611 -22.331701 4.244976
-127.525192 -38.207611 -22.331701 3.662682
-114.041885 -38.207611 -22.331701 2.744843
-100.558594 -38.207611 -22.331701 1.755682
-87.075287 -38.207611 -22.331701 0.695121
-73.591980 -38.207611 -22.331701 0.415591
-60.108704 -38.207611 -22.331701 0.508977
-46.625397 -38.207611 -22.331701 0.216235
-33.142090 -38.207611 -22.331701 0.075907
-19.658783 -38.207611 -22.331701 -0.254788
-6.175476 -38.207611 -22.331701 -0.717784
7.307800 -38.207611 -22.331701 -1.319513
20.791107 -38.207611 -22.331701 -1.717760
34.274414 -38.207611 -22.331701 -2.093817
47.757721 -38.207611 -22.331701 -2.324341
61.240997 -38.207611 -22.331701 -2.174948
74.724304 -38.207611 -22.331701 -2.259098
88.207611 -38.207611 -22.331701 -2.125974
101.690918 -38.207611 -22.331701 -1.591495
115.174225 -38.207611 -22.331701 -1.397346
128.657501 -38.207611 -22.331701 -0.986173
142.140808 -38.207611 -22.331701 -0.944193
155.624115 -38.207611 -22.331701 -1.075384
169.107422 -38.207611 -22.331701 -0.853633
182.590698 -38.207611 -22.331701 -1.004949
196.074036 -38.207611 -22.331701 -0.927281
209.557312 -38.207611 -22.331701 -0.875922
223.040588 -38.207611 -22.331701 -0.799598
236.523926 -38.207611 -22.331701 -0.579387
250.007202 -38.207611 -22.331701 -0.505668
263.490540 -38.207611 -22.331701 -0.426038
276.973816 -38.207611 -22.331701 -0.268613
290.457092 -38.207611 -22.331701 -0.317399
303.940430 -38.207611 -22.331701 -0.025893
317.423706 -38.207611 -22.331701 -0.018615
330.907043 -38.207611 -22.331701 0.000000
344.390320 -38.207611 -22.331701 0.000000
-343.257996 -51.690918 -22.331701 0.000000
-329.774689 -51.690918 -22.331701 0.000000
-316.291382 -51.690918 -22.331701 -0.255798
-302.808105 -51.690918 -22.331701 -0.001247
-289.324799 -51.690918 -22.331701 0.034644
-275.841492 -51.690918 -22.331701 0.402400
-262.358185 -51.690918 -22.331701 0.019870
-248.874893 -51.690918 -22.331701 0.167593
-235.391602 -51.690918 -22.331701 0.621373
-221.908295 -51.690918 -22.331701 1.388753
-208.424988 -51.690918 -22.331701 1.602067
-194.941696 -51.690918 -22.331701 1.971249
-181.458389 -51.690918 -22.331701 2.837479
-167.975098 -51.690918 -22.331701 2.400416
-154.491791 -51.690918 -22.331701 2.148410
-141.008499 -51.690918 -22.331701 2.954974
-127.525192 -51.690918 -22.331701 2.219050
-114.041885 -51.690918 -22.331701 1.091004
-100.558594 -51.690918 -22.331701 0.651353
-87.075287 -51.690918 -22.331701 0.041285
-73.591980 -51.690918 -22.331701 0.164544
-60.108704 -51.690918 -22.331701 0.474884
-46.625397 -51.690918 -22.331701 -0.133574
-33.142090 -51.690918 -22.331701 -0.778609
-19.658783 -51.690918 -22.331701 -0.899561
-6.175476 -51.690918 -22.331701 -1.361827
7.307800 -51.690918 -22.331701 -1.770337
20.791107 -51.690918 -22.331701 -2.061853
34.274414 -51.690918 -22.331701 -2.390486
47.757721 -51.690918 -22.331701 -2.075747
61.240997 -51.690918 -22.331701 -1.862022
74.724304 -51.690918 -22.331701 -1.629157
88.207611 -51.690918 -22.331701 -1.461966
101.690918 -51.690918 -22.331701 -0.970455
115.174225 -51.690918 -22.331701 -1.011280
128.657501 -51.690918 -22.331701 -0.786461
142.140808 -51.690918 -22.331701 -0.728055
155.624115 -51.690918 -22.331701 -0.609834
169.107422 -51.690918 -22.331701 -0.678349
182.590698 -51.690918 -22.331701 -0.825527
196.074036 -51.690918 -22.331701 -0.867585
209.557312 -51.690918 -22.331701 -0.771308
223.040588 -51.690918 -22.331701 -0.695457
236.523926 -51.690918 -22.331701 -0.515299
250.007202 -51.690918 -22.331701 -0.415277
263.490540 -51.690918 -22.331701 -0.300080
276.973816 -51.690918 -22.331701 -0.327070
290.457092 -51.690918 -22.331701 -0.092807
303.940430 -51.690918 -22.331701 -0.198070
317.423706 -51.690918 -22.331701 0.157074
330.907043 -51.690918 -22.331701 0.000000
344.390320 -51.690918 -22.331701 0.000000
-343.257996 -65.174225 -22.331701 0.000000
-329.774689 -65.174225 -22.331701 0.000000
-316.291382 -65.174225 -22.331701 0.074244
-302.808105 -65.174225 -22.331701 -0.245108
-289.324799 -65.174225 -22.331701 0.150604
-275.841492 -65.174225 -22.331701 -0.148875
-262.358185 -65.174225 -22.331701 -0.027034
-248.874893 -65.174225 -22.331701 0.098521
-235.391602 -65.174225 -22.331701 0.217334
-221.908295 -65.174225 -22.331701 0.802583
-208.424988 -65.174225 -22.331701 1.229905
-194.941696 -65.174225 -22.331701 0.626542
-181.458389 -65.174225 -22.331701 0.828482
-167.975098 -65.174225 -22.331701 0.408669
-154.491791 -65.174225 -22.331701 0.931937
-141.008499 -65.174225 -22.331701 0.787238
-127.525192 -65.174225 -22.331701 -0.235243
-114.041885 -65.174225 -22.331701 0.070181
-100.558594 -65.174225 -22.331701 -0.059754
-87.075287 -65.174225 -22.331701 -0.139375
-73.591980 -65.174225 -22.331701 -0.052200
-60.108704 -65.174225 -22.331701 -0.269616
-46.625397 -65.174225 -22.331701 -0.498628
-33.142090 -65.174225 -22.331701 -0.995483
-19.658783 -65.174225 -22.331701 -1.440141
-6.175476 -65.174225 -22.331701 -1.789946
7.307800 -65.174225 -22.331701 -1.884091
20.791107 -65.174225 -22.331701 -1.961155
34.274414 -65.174225 -22.331701 -2.213819
47.757721 -65.174225 -22.331701 -1.534402
61.240997 -65.174225 -22.331701 -1.395672
74.724304 -65.174225 -22.331701 -1.014256
88.207611 -65.174225 -22.331701 -0.795327
101.690918 -65.174225 -22.331701 -0.701739
115.174225 -65.174225 -22.331701 -0.567384
128.657501 -65.174225 -22.331701 -0.517204
142.140808 -65.174225 -22.331701 -0.440519
155.624115 -65.174225 -22.331701 -0.430909
169.107422 -65.174225 -22.331701 -0.624235
182.590698 -65.174225 -22.331701 -0.580738
196.074036 -65.174225 -22.331701 -0.686592
209.557312 -65.174225 -22.331701 -0.638331
223.040588 -65.174225 -22.331701 -0.627140
236.523926 -65.174225 -22.331701 -0.506602
250.007202 -65.174225 -22.331701 -0.420965
263.490540 -65.174225 -22.331701 -0.310285
276.973816 -65.174225 -22.331701 -0.338272
290.457092 -65.174225 -22.331701 -0.239833
303.940430 -65.174225 -22.331701 -0.362551
317.423706 -65.174225 -22.331701 0.086433
330.907043 -65.174225 -22.331701 0.000000
344.390320 -65.174225 -22.331701 0.000000
-343.257996 -78.657501 -22.331701 0.000000
-329.774689 -78.657501 -22.331701 0.000000
-316.291382 -78.657501 -22.331701 -0.093194
-302.808105 -78.657501 -22.331701 0.412420
-289.324799 -78.657501 -22.331701 0.223393
-275.841492 -78.657501 -22.331701 -0.649635
-262.358185 -78.657501 -22.331701 0.189443
-248.874893 -78.657501 -22.331701 -0.321926
-235.391602 -78.657501 -22.331701 1.001265
-221.908295 -78.657501 -22.331701 1.047082
-208.424988 -78.657501 -22.331701 0.000000
-194.941696 -78.657501 -22.331701 0.000000
-181.458389 -78.657501 -22.331701 0.000000
-167.975098 -78.657501 -22.331701 -1.585283
-154.491791 -78.657501 -22.331701 -0.869926
-141.008499 -78.657501 -22.331701 -1.034876
-127.525192 -78.657501 -22.331701 -0.684759
-114.041885 -78.657501 -22.331701 -0.660057
-100.558594 -78.657501 -22.331701 -0.391425
-87.075287 -78.657501 -22.331701 -0.612033
-73.591980 -78.657501 -22.331701 -0.885539
-60.108704 -78.657501 -22.331701 -0.665636
-46.625397 -78.657501 -22.331701 -0.843934
-33.142090 -78.657501 -22.331701 -0.931182
-19.658783 -78.657501 -22.331701 -1.335644
-6.175476 -78.657501 -22.331701 -1.546988
7.307800 -78.657501 -22.331701 -1.825237
20.791107 -78.657501 -22.331701 -1.914756
34.274414 -78.657501 -22.331701 -1.915378
47.757721 -78.657501 -22.331701 -1.476986
61.240997 -78.657501 -22.331701 -0.737866
74.724304 -78.657501 -22.331701 -0.526870
88.207611 -78.657501 -22.331701 -0.497013
101.690918 -78.657501 -22.331701 -0.418829
115.174225 -78.657501 -22.331701 -0.260730
128.657501 -78.657501 -22.331701 -0.204624
142.140808 -78.657501 -22.331701 -0.242325
155.624115 -78.657501 -22.331701 -0.348254
169.107422 -78.657501 -22.331701 -0.340625
182.590698 -78.657501 -22.331701 -0.526295
196.074036 -78.657501 -22.331701 -0.521346
209.557312 -78.657501 -22.331701 -0.524863
223.040588 -78.657501 -22.331701 -0.442617
236.523926 -78.657501 -22.331701 -0.289452
250.007202 -78.657501 -22.331701 -0.370716
263.490540 -78.657501 -22.331701 -0.402163
276.973816 -78.657501 -22.331701 -0.301525
290.457092 -78.657501 -22.331701 0.079801
303.940430 -78.657501 -22.331701 -0.216185
317.423706 -78.657501 -22.331701 -0.167131
330.907043 -78.657501 -22.331701 0.000000
344.390320 -78.657501 -22.331701 0.000000
-343.257996 -92.140808 -22.331701 0.000000
-329.774689 -92.140808 -22.331701 0.000000
-316.291382 -92.140808 -22.331701 0.000000
-302.808105 -92.140808 -22.331701 -0.260225
-289.324799 -92.140808 -22.331701 -0.532791
-275.841492 -92.140808 -22.331701 -1.054441
-262.358185 -92.140808 -22.331701 -0.304843
-248.874893 -92.140808 -22.331701 0.325189
-235.391602 -92.140808 -22.331701 0.000000
-221.908295 -92.140808 -22.331701 0.000000
-208.424988 -92.140808 -22.331701 0.000000
-194.941696 -92.140808 -22.331701 0.000000
-181.458389 -92.140808 -22.331701 0.000000
-167.975098 -92.140808 -22.331701 0.000000
-154.491791 -92.140808 -22.331701 -2.975660
-141.008499 -92.140808 -22.331701 -1.938314
-127.525192 -92.140808 -22.331701 -0.812151
-114.041885 -92.140808 -22.331701 -2.668432
-100.558594 -92.140808 -22.331701 -1.708895
-87.075287 -92.140808 -22.331701 -1.233379
-73.591980 -92.140808 -22.331701 -0.812736
-60.108704 -92.140808 -22.331701 -0.948968
-46.625397 -92.140808 -22.331701 -1.313661
-33.142090 -92.140808 -22.331701 -0.936092
-19.658783 -92.140808 -22.331701 -1.107487
-6.175476 -92.140808 -22.331701 -1.400510
7.307800 -92.140808 -22.331701 -1.496680
20.791107 -92.140808 -22.331701 -1.438393
34.274414 -92.140808 -22.331701 -1.408814
47.757721 -92.140808 -22.331701 -1.149993
61.240997 -92.140808 -22.331701 -0.664697
74.724304 -92.140808 -22.331701 -0.338660
88.207611 -92.140808 -22.331701 -0.316425
101.690918 -92.140808 -22.331701 -0.276262
115.174225 -92.140808 -22.331701 -0.064735
128.657501 -92.140808 -22.331701 -0.193771
142.140808 -92.140808 -22.331701 -0.291153
155.624115 -92.140808 -22.331701 -0.212655
169.107422 -92.140808 -22.331701 -0.351219
182.590698 -92.140808 -22.331701 -0.585877
196.074036 -92.140808 -22.331701 -0.281361
209.557312 -92.140808 -22.331701 -0.524240
223.040588 -92.140808 -22.331701 -0.404726
236.523926 -92.140808 -22.331701 -0.097872
250.007202 -92.140808 -22.331701 -0.246728
263.490540 -92.140808 -22.331701 -0.457820
276.973816 -92.140808 -22.331701 -0.404064
290.457092 -92.140808 -22.331701 -0.398164
303.940430 -92.140808 -22.331701 -0.251157
317.423706 -92.140808 -22.331701 -1.508450
330.907043 -92.140808 -22.331701 0.000000
344.390320 -92.140808 -22.331701 0.000000
-343.257996 -105.624115 -22.331701 0.000000
-329.774689 -105.624115 -22.331701 0.000000
-316.291382 -105.624115 -22.331701 0.000000
-302.808105 -105.624115 -22.331701 2.026053
-289.324799 -105.624115 -22.331701 0.683718
-275.841492 -105.624115 -22.331701 -0.276784
-262.358185 -105.624115 -22.331701 1.359170
-248.874893 -105.624115 -22.331701 3.277222
-235.391602 -105.624115 -22.331701 0.000000
-221.908295 -105.624115 -22.331701 0.000000
-208.424988 -105.624115 -22.331701 0.000000
-194.941696 -105.624115 -22.331701 0.000000
-181.458389 -105.624115 -22.331701 0.000000
-167.975098 -105.624115 -22.331701 0.000000
-154.491791 -105.624115 -22.331701 0.000000
-141.008499 -105.624115 -22.331701 -2.911190
-127.525192 -105.624115 -22.331701 -3.611451
-114.041885 -105.624115 -22.331701 -2.127766
-100.558594 -105.624115 -22.331701 -1.632099
-87.075287 -105.624115 -22.331701 -1.012243
-73.591980 -105.624115 -22.331701 -1.045529
-60.108704 -105.624115 -22.331701 -1.438660
-46.625397 -105.624115 -22.331701 -1.440215
-33.142090 -105.624115 -22.331701 -1.693338
-19.658783 -105.624115 -22.331701 -1.261968
-6.175476 -105.624115 -22.331701 -1.239401
7.307800 -105.624115 -22.331701 -1.065842
20.791107 -105.624115 -22.331701 -1.053720
34.274414 -105.624115 -22.331701 -1.012967
47.757721 -105.624115 -22.331701 -0.618960
61.240997 -105.624115 -22.331701 -0.291687
74.724304 -105.624115 -22.331701 -0.257804
88.207611 -105.624115 -22.331701 -0.032739
101.690918 -105.624115 -22.331701 -0.035697
115.174225 -105.624115 -22.331701 -0.129692
128.657501 -105.624115 -22.331701 -0.170472
142.140808 -105.624115 -22.331701 -0.427945
155.624115 -105.624115 -22.331701 -0.620563
169.107422 -105.624115 -22.331701 -0.528008
182.590698 -105.624115 -22.331701 -0.889229
196.074036 -105.624115 -22.331701 -0.366288
209.557312 -105.624115 -22.331701 -0.430338
223.040588 -105.624115 -22.331701 -0.520733
236.523926 -105.624115 -22.331701 -0.137992
250.007202 -105.624115 -22.331701 -0.478772
263.490540 -105.624115 -22.331701 -0.253696
276.973816 -105.624115 -22.331701 -0.289530
290.457092 -105.624115 -22.331701 0.540641
303.940430 -105.624115 -22.331701 -0.162857
317.423706 -105.624115 -22.331701 0.000000
330.907043 -105.624115 -22.331701 0.000000
344.390320 -105.624115 -22.331701 0.000000
-343.257996 -119.107422 -22.331701 0.000000
-329.774689 -119.107422 -22.331701 0.000000
-316.291382 -119.107422 -22.331701 0.000000
-302.808105 -119.107422 -22.331701 0.000000
-289.324799 -119.107422 -22.331701 1.453565
-275.841492 -119.107422 -22.331701 3.150565
-262.358185 -119.107422 -22.331701 4.539610
-248.874893 -119.107422 -22.331701 0.000000
-235.391602 -119.107422 -22.331701 0.000000
-221.908295 -119.107422 -22.331701 0.000000
-208.424988 -119.107422 -22.331701 0.000000
-194.941696 -119.107422 -22.331701 0.000000
-181.458389 -119.107422 -22.331701 0.000000
-167.975098 -119.107422 -22.331701 0.000000
-154.491791 -119.107422 -22.331701 -3.388969
-141.008499 -119.107422 -22.331701 -4.130731
-127.525192 -119.107422 -22.331701 -2.921055
-114.041885 -119.107422 -22.331701 -1.868187
-100.558594 -119.107422 -22.331701 -2.503156
-87.075287 -119.107422 -22.331701 -1.979085
-73.591980 -119.107422 -22.331701 -1.387898
-60.108704 -119.107422 -22.331701 -1.516945
-46.625397 -119.107422 -22.331701 -1.903196
-33.142090 -119.107422 -22.331701 -1.300218
-19.658783 -119.107422 -22.331701 -1.261686
-6.175476 -119.107422 -22.331701 -0.719531
7.307800 -119.107422 -22.331701 -0.700257
20.791107 -119.107422 -22.331701 -0.817160
34.274414 -119.107422 -22.331701 -0.466366
47.757721 -119.107422 -22.331701 -0.669892
61.240997 -119.107422 -22.331701 -0.376447
74.724304 -119.107422 -22.331701 -0.268039
88.207611 -119.107422 -22.331701 0.103358
101.690918 -119.107422 -22.331701 0.288498
115.174225 -119.107422 -22.331701 -0.060190
128.657501 -119.107422 -22.331701 -0.393012
142.140808 -119.107422 -22.331701 -0.574353
155.624115 -119.107422 -22.331701 -0.872821
169.107422 -119.107422 -22.331701 -0.875136
182.590698 -119.107422 -22.331701 -0.666126
196.074036 -119.107422 -22.331701 -0.385226
209.557312 -119.107422 -22.331701 -0.213259
223.040588 -119.107422 -22.331701 -0.332811
236.523926 -119.107422 -22.331701 -0.531573
250.007202 -119.107422 -22.331701 -0.934932
263.490540 -119.107422 -22.331701 -0.730433
276.973816 -119.107422 -22.331701 -1.006113
290.457092 -119.107422 -22.331701 -0.469764
303.940430 -119.107422 -22.331701 -1.567732
317.423706 -119.107422 -22.331701 0.000000
330.907043 -119.107422 -22.331701 0.000000
344.390320 -119.107422 -22.331701 0.000000
-343.257996 -132.590698 -22.331701 0.000000
-329.774689 -132.590698 -22.331701 0.000000
-316.291382 -132.590698 -22.331701 0.000000
-302.808105 -132.590698 -22.331701 0.000000
-289.324799 -132.590698 -22.331701 0.000000
-275.841492 -132.590698 -22.331701 0.000000
-262.358185 -132.590698 -22.331701 0.000000
-248.874893 -132.590698 -22.331701 0.000000
-235.391602 -132.590698 -22.331701 0.000000
-221.908295 -132.590698 -22.331701 0.000000
-208.424988 -132.590698 -22.331701 0.000000
-194.941696 -132.590698 -22.331701 0.000000
-181.458389 -132.590698 -22.331701 0.000000
-167.975098 -132.590698 -22.331701 0.000000
-154.491791 -132.590698 -22.331701 0.000000
-141.008499 -132.590698 -22.331701 -1.645459
-127.525192 -132.590698 -22.331701 -1.371296
-114.041885 -132.590698 -22.331701 -1.048997
-100.558594 -132.590698 -22.331701 -3.753376
-87.075287 -132.590698 -22.331701 -1.416361
-73.591980 -132.590698 -22.331701 -1.440380
-60.108704 -132.590698 -22.331701 -1.513532
-46.625397 -132.590698 -22.331701 -1.701940
-33.142090 -132.590698 -22.331701 -1.331178
-19.658783 -132.590698 -22.331701 -0.322796
-6.175476 -132.590698 -22.331701 0.319611
7.307800 -132.590698 -22.331701 -0.135188
20.791107 -132.590698 -22.331701 -0.425911
34.274414 -132.590698 -22.331701 -0.897270
47.757721 -132.590698 -22.331701 -0.703128
61.240997 -132.590698 -22.331701 -0.371931
74.724304 -132.590698 -22.331701 -0.136593
88.207611 -132.590698 -22.331701 0.049161
101.690918 -132.590698 -22.331701 0.120333
115.174225 -132.590698 -22.331701 -0.211082
128.657501 -132.590698 -22.331701 -0.549594
142.140808 -132.590698 -22.331701 -0.858106
155.624115 -132.590698 -22.331701 -1.116878
169.107422 -132.590698 -22.331701 -1.024523
182.590698 -132.590698 -22.331701 -0.845397
196.074036 -132.590698 -22.331701 -0.550554
209.557312 -132.590698 -22.331701 -1.015964
223.040588 -132.590698 -22.331701 -1.374160
236.523926 -132.590698 -22.331701 -1.292071
250.007202 -132.590698 -22.331701 -1.158898
263.490540 -132.590698 -22.331701 -1.063212
276.973816 -132.590698 -22.331701 -1.714495
290.457092 -132.590698 -22.331701 0.000000
303.940430 -132.590698 -22.331701 0.000000
317.423706 -132.590698 -22.331701 0.000000
330.907043 -132.590698 -22.331701 0.000000
344.390320 -132.590698 -22.331701 0.000000
-343.257996 -146.074036 -22.331701 0.000000
-329.774689 -146.074036 -22.331701 0.000000
-316.291382 -146.074036 -22.331701 0.000000
-302.808105 -146.074036 -22.331701 0.000000
-289.324799 -146.074036 -22.331701 0.000000
-275.841492 -146.074036 -22.331701 0.000000
-262.358185 -146.074036 -22.331701 0.000000
-248.874893 -146.074036 -22.331701 0.000000
-235.391602 -146.074036 -22.331701 0.000000
-221.908295 -146.074036 -22.331701 0.000000
-208.424988 -146.074036 -22.331701 0.000000
-194.941696 -146.074036 -22.331701 0.000000
-181.458389 -146.074036 -22.331701 0.000000
-167.975098 -146.074036 -22.331701 0.000000
-154.491791 -146.074036 -22.331701 0.000000
-141.008499 -146.074036 -22.331701 0.000000
-127.525192 -146.074036 -22.331701 0.000000
-114.041885 -146.074036 -22.331701 0.000000
-100.558594 -146.074036 -22.331701 0.000000
-87.075287 -146.074036 -22.331701 0.000000
-73.591980 -146.074036 -22.331701 0.000000
-60.108704 -146.074036 -22.331701 0.000000
-46.625397 -146.074036 -22.331701 -0.727533
-33.142090 -146.074036 -22.331701 -0.651098
-19.658783 -146.074036 -22.331701 -0.018751
-6.175476 -146.074036 -22.331701 0.182897
7.307800 -146.074036 -22.331701 -0.558283
20.791107 -146.074036 -22.331701 -0.663576
34.274414 -146.074036 -22.331701 0.000000
47.757721 -146.074036 -22.331701 0.000000
61.240997 -146.074036 -22.331701 0.000000
74.724304 -146.074036 -22.331701 0.000000
88.207611 -146.074036 -22.331701 0.000000
101.690918 -146.074036 -22.331701 0.000000
115.174225 -146.074036 -22.331701 -0.460005
128.657501 -146.074036 -22.331701 -0.862714
142.140808 -146.074036 -22.331701 -1.127898
155.624115 -146.074036 -22.331701 0.000000
169.107422 -146.074036 -22.331701 0.000000
182.590698 -146.074036 -22.331701 0.000000
196.074036 -146.074036 -22.331701 0.000000
209.557312 -146.074036 -22.331701 0.000000
223.040588 -146.074036 -22.331701 0.000000
236.523926 -146.074036 -22.331701 0.000000
250.007202 -146.074036 -22.331701 0.000000
263.490540 -146.074036 -22.331701 0.000000
276.973816 -146.074036 -22.331701 0.000000
290.457092 -146.074036 -22.331701 0.000000
303.940430 -146.074036 -22.331701 0.000000
317.423706 -146.074036 -22.331701 0.000000
330.907043 -146.074036 -22.331701 0.000000
344.390320 -146.074036 -22.331701 0.000000
-343.257996 -159.557312 -22.331701 0.000000
-329.774689 -159.557312 -22.331701 0.000000
-316.291382 -159.557312 -22.331701 0.000000
-302.808105 -159.557312 -22.331701 0.000000
-289.324799 -159.557312 -22.331701 0.000000
-275.841492 -159.557312 -22.331701 0.000000
-262.358185 -159.557312 -22.331701 0.000000
-248.874893 -159.557312 -22.331701 0.000000
-235.391602 -159.557312 -22.331701 0.000000
-221.908295 -159.557312 -22.331701 0.000000
-208.424988 -159.557312 -22.331701 0.000000
-194.941696 -159.557312 -22.331701 0.000000
-181.458389 -159.557312 -22.331701 0.000000
-167.975098 -159.557312 -22.331701 0.000000
-154.491791 -159.557312 -22.331701 0.000000
-141.008499 -159.557312 -22.331701 0.000000
-127.525192 -159.557312 -22.331701 0.000000
-114.041885 -159.557312 -22.331701 0.000000
-100.558594 -159.557312 -22.331701 0.000000
-87.075287 -159.557312 -22.331701 0.000000
-73.591980 -159.557312 -22.331701 0.000000
-60.108704 -159.557312 -22.331701 0.000000
-46.625397 -159.557312 -22.331701 0.000000
-33.142090 -159.557312 -22.331701 0.000000
-19.658783 -159.557312 -22.331701 0.000000
-6.175476 -159.557312 -22.331701 0.000000
7.307800 -159.557312 -22.331701 0.000000
20.791107 -159.557312 -22.331701 0.000000
34.274414 -159.557312 -22.331701 0.000000
47.757721 -159.557312 -22.331701 0.000000
61.240997 -159.557312 -22.331701 0.000000
74.724304 -159.557312 -22.331701 0.000000
88.207611 -159.557312 -22.331701 0.000000
101.690918 -159.557312 -22.331701 0.000000
115.174225 -159.557312 -22.331701 0.000000
128.657501 -159.557312 -22.331701 0.000000
142.140808 -159.557312 -22.331701 0.000000
155.624115 -159.557312 -22.331701 0.000000
169.107422 -159.557312 -22.331701 0.000000
182.590698 -159.557312 -22.331701 0.000000
196.074036 -159.557312 -22.331701 0.000000
209.557312 -159.557312 -22.331701 0.000000
223.040588 -159.557312 -22.331701 0.000000
236.523926 -159.557312 -22.331701 0.000000
250.007202 -159.557312 -22.331701 0.000000
263.490540 -159.557312 -22.331701 0.000000
276.973816 -159.557312 -22.331701 0.000000
290.457092 -159.557312 -22.331701 0.000000
303.940430 -159.557312 -22.331701 0.000000
317.423706 -159.557312 -22.331701 0.000000
330.907043 -159.557312 -22.331701 0.000000
344.390320 -159.557312 -22.331701 0.000000
-343.257996 -173.040588 -22.331701 0.000000
-329.774689 -173.040588 -22.331701 0.000000
-316.291382 -173.040588 -22.331701 0.000000
-302.808105 -173.040588 -22.331701 0.000000
-289.324799 -173.040588 -22.331701 0.000000
-275.841492 -173.040588 -22.331701 0.000000
-262.358185 -173.040588 -22.331701 0.000000
-248.874893 -173.040588 -22.331701 0.000000
-235.391602 -173.040588 -22.331701 0.000000
-221.908295 -173.040588 -22.331701 0.000000
-208.424988 -173.040588 -22.331701 0.000000
-194.941696 -173.040588 -22.331701 0.000000
-181.458389 -173.040588 -22.331701 0.000000
-167.975098 -173.040588 -22.331701 0.000000
-154.491791 -173.040588 -22.331701 0.000000
-141.008499 -173.040588 -22.331701 0.000000
-127.525192 -173.040588 -22.331701 0.000000
-114.041885 -173.040588 -22.331701 0.000000
-100.558594 -173.040588 -22.331701 0.000000
-87.075287 -173.040588 -22.331701 0.000000
-73.591980 -173.040588 -22.331701 0.000000
-60.108704 -173.040588 -22.331701 0.000000
-46.625397 -173.040588 -22.331701 0.000000
-33.142090 -173.040588 -22.331701 0.000000
-19.658783 -173.040588 -22.331701 0.000000
-6.175476 -173.040588 -22.331701 0.000000
7.307800 -173.040588 -22.331701 0.000000
20.791107 -173.040588 -22.331701 0.000000
34.274414 -173.040588 -22.331701 0.000000
47.757721 -173.040588 -22.331701 0.000000
61.240997 -173.040588 -22.331701 0.000000
74.724304 -173.040588 -22.331701 0.000000
88.207611 -173.040588 -22.331701 0.000000
101.690918 -173.040588 -22.331701 0.000000
115.174225 -173.040588 -22.331701 0.000000
128.657501 -173.040588 -22.331701 0.000000
142.140808 -173.040588 -22.331701 0.000000
155.624115 -173.040588 -22.331701 0.000000
169.107422 -173.040588 -22.331701 0.000000
182.590698 -173.040588 -22.331701 0.000000
196.074036 -173.040588 -22.331701 0.000000
209.557312 -173.040588 -22.331701 0.000000
223.040588 -173.040588 -22.331701 0.000000
236.523926 -173.040588 -22.331701 0.000000
250.007202 -173.040588 -22.331701 0.000000
263.490540 -173.040588 -22.331701 0.000000
276.973816 -173.040588 -22.331701 0.000000
290.457092 -173.040588 -22.331701 0.000000
303.940430 -173.040588 -22.331701 0.000000
317.423706 -173.040588 -22.331701 0.000000
330.907043 -173.040588 -22.331701 0.000000
344.390320 -173.040588 -22.331701 0.000000
-343.257996 -186.523926 -22.331701 0.000000
-329.774689 -186.523926 -22.331701 0.000000
-316.291382 -186.523926 -22.331701 0.000000
-302.808105 -186.523926 -22.331701 0.000000
-289.324799 -186.523926 -22.331701 0.000000
-275.841492 -186.523926 -22.331701 0.000000
-262.358185 -186.523926 -22.331701 0.000000
-248.874893 -186.523926 -22.331701 0.000000
-235.391602 -186.523926 -22.331701 0.000000
-221.908295 -186.523926 -22.331701 0.000000
-208.424988 -186.523926 -22.331701 0.000000
-194.941696 -186.523926 -22.331701 0.000000
-181.458389 -186.523926 -22.331701 0.000000
-167.975098 -186.523926 -22.331701 0.000000
-154.491791 -186.523926 -22.331701 0.000000
-141.008499 -186.523926 -22.331701 0.000000
-127.525192 -186.523926 -22.331701 0.000000
-114.041885 -186.523926 -22.331701 0.000000
-100.558594 -186.523926 -22.331701 0.000000
-87.075287 -186.523926 -22.331701 0.000000
-73.591980 -186.523926 -22.331701 0.000000
-60.108704 -186.523926 -22.331701 0.000000
-46.625397 -186.523926 -22.331701 0.000000
-33.142090 -186.523926 -22.331701 0.000000
-19.658783 -186.523926 -22.331701 0.000000
-6.175476 -186.523926 -22.331701 0.000000
7.307800 -186.523926 -22.331701 0.000000
20.791107 -186.523926 -22.331701 0.000000
34.274414 -186.523926 -22.331701 0.000000
47.757721 -186.523926 -22.331701 0.000000
61.240997 -186.523926 -22.331701 0.000000
74.724304 -186.523926 -22.331701 0.000000
88.207611 -186.523926 -22.331701 0.000000
101.690918 -186.523926 -22.331701 0.000000
115.174225 -186.523926 -22.331701 0.000000
128.657501 -186.523926 -22.331701 0.000000
142.140808 -186.523926 -22.331701 0.000000
155.624115 -186.523926 -22.331701 0.000000
169.107422 -186.523926 -22.331701 0.000000
182.590698 -186.523926 -22.331701 0.000000
196.074036 -186.523926 -22.331701 0.000000
209.557312 -186.523926 -22.331701 0.000000
223.040588 -186.523926 -22.331701 0.000000
236.523926 -186.523926 -22.331701 0.000000
250.007202 -186.523926 -22.331701 0.000000
263.490540 -186.523926 -22.331701 0.000000
276.973816 -186.523926 -22.331701 0.000000
290.457092 -186.523926 -22.331701 0.000000
303.940430 -186.523926 -22.331701 0.000000
317.423706 -186.523926 -22.331701 0.000000
330.907043 -186.523926 -22.331701 0.000000
344.390320 -186.523926 -22.331701 0.000000
-343.257996 -200.007202 -22.331701 0.000000
-329.774689 -200.007202 -22.331701 0.000000
-316.291382 -200.007202 -22.331701 0.000000
-302.808105 -200.007202 -22.331701 0.000000
-289.324799 -200.007202 -22.331701 0.000000
-275.841492 -200.007202 -22.331701 0.000000
-262.358185 -200.007202 -22.331701 0.000000
-248.874893 -200.007202 -22.331701 0.000000
-235.391602 -200.007202 -22.331701 0.000000
-221.908295 -200.007202 -22.331701 0.000000
-208.424988 -200.007202 -22.331701 0.000000
-194.941696 -200.007202 -22.331701 0.000000
-181.458389 -200.007202 -22.331701 0.000000
-167.975098 -200.007202 -22.331701 0.000000
-154.491791 -200.007202 -22.331701 0.000000
-141.008499 -200.007202 -22.331701 0.000000
-127.525192 -200.007202 -22.331701 0.000000
-114.041885 -200.007202 -22.331701 0.000000
-100.558594 -200.007202 -22.331701 0.000000
-87.075287 -200.007202 -22.331701 0.000000
-73.591980 -200.007202 -22.331701 0.000000
-60.108704 -200.007202 -22.331701 0.000000
-46.625397 -200.007202 -22.331701 0.000000
-33.142090 -200.007202 -22.331701 0.000000
-19.658783 -200.007202 -22.331701 0.000000
-6.175476 -200.007202 -22.331701 0.000000
7.307800 -200.007202 -22.331701 0.000000
20.791107 -200.007202 -22.331701 0.000000
34.274414 -200.007202 -22.331701 0.000000
47.757721 -200.007202 -22.331701 0.000000
61.240997 -200.007202 -22.331701 0.000000
74.724304 -200.007202 -22.331701 0.000000
88.207611 -200.007202 -22.331701 0.000000
101.690918 -200.007202 -22.331701 0.000000
115.174225 -200.007202 -22.331701 0.000000
128.657501 -200.007202 -22.331701 0.000000
142.140808 -200.007202 -22.331701 0.000000
155.624115 -200.007202 -22.331701 0.000000
169.107422 -200.007202 -22.331701 0.000000
182.590698 -200.007202 -22.331701 0.000000
196.074036 -200.007202 -22.331701 0.000000
209.557312 -200.007202 -22.331701 0.000000
223.040588 -200.007202 -22.331701 0.000000
236.523926 -200.007202 -22.331701 0.000000
250.007202 -200.007202 -22.331701 0.000000
263.490540 -200.007202 -22.331701 0.000000
276.973816 -200.007202 -22.331701 0.000000
290.457092 -200.007202 -22.331701 0.000000
303.940430 -200.007202 -22.331701 0.000000
317.423706 -200.007202 -22.331701 0.000000
330.907043 -200.007202 -22.331701 0.000000
344.390320 -200.007202 -22.331701 0.000000
-343.257996 393.257996 -8.848400 0.000000
-329.774689 393.257996 -8.848400 0.000000
-316.291382 393.257996 -8.848400 0.000000
-302.808105 393.257996 -8.848400 0.000000
-289.324799 393.257996 -8.848400 0.000000
-275.841492 393.257996 -8.848400 0.000000
-262.358185 393.257996 -8.848400 0.000000
-248.874893 393.257996 -8.848400 0.000000
-235.391602 393.257996 -8.848400 0.000000
-221.908295 393.257996 -8.848400 0.000000
-208.424988 393.257996 -8.848400 0.000000
-194.941696 393.257996 -8.848400 0.000000
-181.458389 393.257996 -8.848400 0.000000
-167.975098 393.257996 -8.848400 0.000000
-154.491791 393.257996 -8.848400 0.000000
-141.008499 393.257996 -8.848400 0.000000
-127.525192 393.257996 -8.848400 0.000000
-114.041885 393.257996 -8.848400 0.000000
-100.558594 393.257996 -8.848400 0.000000
-87.075287 393.257996 -8.848400 0.000000
-73.591980 393.257996 -8.848400 0.000000
-60.108704 393.257996 -8.848400 0.000000
-46.625397 393.257996 -8.848400 0.000000
-33.142090 393.257996 -8.848400 0.000000
-19.658783 393.257996 -8.848400 0.000000
-6.175476 393.257996 -8.848400 0.000000
7.307800 393.257996 -8.848400 0.000000
20.791107 393.257996 -8.848400 0.000000
34.274414 393.257996 -8.848400 0.000000
47.757721 393.257996 -8.848400 0.000000
61.240997 393.257996 -8.848400 0.000000
74.724304 393.257996 -8.848400 0.000000
88.207611 393.257996 -8.848400 0.000000
101.690918 393.257996 -8.848400 0.000000
115.174225 393.257996 -8.848400 0.000000
128.657501 393.257996 -8.848400 0.000000
142.140808 393.257996 -8.848400 0.000000
155.624115 393.257996 -8.848400 0.000000
169.107422 393.257996 -8.848400 0.000000
182.590698 393.257996 -8.848400 0.000000
196.074036 393.257996 -8.848400 0.000000
209.557312 393.257996 -8.848400 0.000000
223.040588 393.257996 -8.848400 0.000000
236.523926 393.257996 -8.848400 0.000000
250.007202 393.257996 -8.848400 0.000000
263.490540 393.257996 -8.848400 0.000000
276.973816 393.257996 -8.848400 0.000000
290.457092 393.257996 -8.848400 0.000000
303.940430 393.257996 -8.848400 0.000000
317.423706 393.257996 -8.848400 0.000000
330.907043 393.257996 -8.848400 0.000000
344.390320 393.257996 -8.848400 0.000000
-343.257996 379.774689 -8.848400 0.000000
-329.774689 379.774689 -8.848400 0.000000
-316.291382 379.774689 -8.848400 0.000000
-302.808105 379.774689 -8.848400 0.000000
-289.324799 379.774689 -8.848400 0.000000
-275.841492 379.774689 -8.848400 0.000000
-262.358185 379.774689 -8.848400 0.000000
-248.874893 379.774689 -8.848400 0.000000
-235.391602 379.774689 -8.848400 0.000000
-221.908295 379.774689 -8.848400 0.000000
-208.424988 379.774689 -8.848400 0.000000
-194.941696 379.774689 -8.848400 0.000000
-181.458389 379.774689 -8.848400 0.000000
-167.975098 379.774689 -8.848400 0.000000
-154.491791 379.774689 -8.848400 0.000000
-141.008499 379.774689 -8.848400 0.000000
-127.525192 379.774689 -8.848400 0.000000
-114.041885 379.774689 -8.848400 0.000000
-100.558594 379.774689 -8.848400 0.000000
-87.075287 379.774689 -8.848400 0.000000
-73.591980 379.774689 -8.848400 0.000000
-60.108704 379.774689 -8.848400 0.000000
-46.625397 379.774689 -8.848400 0.000000
-33.142090 379.774689 -8.848400 0.000000
-19.658783 379.774689 -8.848400 0.000000
-6.175476 379.774689 -8.848400 0.000000
7.307800 379.774689 -8.848400 0.000000
20.791107 379.774689 -8.848400 0.000000
34.274414 379.774689 -8.848400 0.000000
47.757721 379.774689 -8.848400 0.000000
61.240997 379.774689 -8.848400 0.000000
74.724304 379.774689 -8.848400 0.000000
88.207611 379.774689 -8.848400 0.000000
101.690918 379.774689 -8.848400 0.000000
115.174225 379.774689 -8.848400 0.000000
128.657501 379.774689 -8.848400 0.000000
142.140808 379.774689 -8.848400 0.000000
155.624115 379.774689 -8.848400 0.000000
169.107422 379.774689 -8.848400 0.000000
182.590698 379.774689 -8.848400 0.000000
196.074036 379.774689 -8.848400 0.000000
209.557312 379.774689 -8.848400 0.000000
223.040588 379.774689 -8.848400 0.000000
236.523926 379.774689 -8.848400 0.000000
250.007202 379.774689 -8.848400 0.000000
263.490540 379.774689 -8.848400 0.000000
276.973816 379.774689 -8.848400 0.000000
290.457092 379.774689 -8.848400 0.000000
303.940430 379.774689 -8.848400 0.000000
317.423706 379.774689 -8.848400 0.000000
330.907043 379.774689 -8.848400 0.000000
344.390320 379.774689 -8.848400 0.000000
-343.257996 366.291382 -8.848400 0.000000
-329.774689 366.291382 -8.848400 0.000000
-316.291382 366.291382 -8.848400 0.000000
-302.808105 366.291382 -8.848400 0.000000
-289.324799 366.291382 -8.848400 0.000000
-275.841492 366.291382 -8.848400 0.000000
-262.358185 366.291382 -8.848400 0.000000
-248.874893 366.291382 -8.848400 0.000000
-235.391602 366.291382 -8.848400 0.000000
-221.908295 366.291382 -8.848400 0.000000
-208.424988 366.291382 -8.848400 0.000000
-194.941696 366.291382 -8.848400 0.000000
-181.458389 366.291382 -8.848400 0.000000
-167.975098 366.291382 -8.848400 0.000000
-154.491791 366.291382 -8.848400 0.000000
-141.008499 366.291382 -8.848400 0.000000
-127.525192 366.291382 -8.848400 0.000000
-114.041885 366.291382 -8.848400 0.000000
-100.558594 366.291382 -8.848400 0.000000
-87.075287 366.291382 -8.848400 0.000000
-73.591980 366.291382 -8.848400 0.000000
-60.108704 366.291382 -8.848400 0.000000
-46.625397 366.291382 -8.848400 0.000000
-33.142090 366.291382 -8.848400 0.000000
-19.658783 366.291382 -8.848400 0.000000
-6.175476 366.291382 -8.848400 0.000000
7.307800 366.291382 -8.848400 0.000000
20.791107 366.291382 -8.848400 0.000000
34.274414 366.291382 -8.848400 0.000000
47.757721 366.291382 -8.848400 0.000000
61.240997 366.291382 -8.848400 0.000000
74.724304 366.291382 -8.848400 0.000000
88.207611 366.291382 -8.848400 0.000000
101.690918 366.291382 -8.848400 0.000000
115.174225 366.291382 -8.848400 0.000000
128.657501 366.291382 -8.848400 0.000000
142.140808 366.291382 -8.848400 0.000000
155.624115 366.291382 -8.848400 0.000000
169.107422 366.291382 -8.848400 0.000000
182.590698 366.291382 -8.848400 0.000000
196.074036 366.291382 -8.848400 0.000000
209.557312 366.291382 -8.848400 0.000000
223.040588 366.291382 -8.848400 0.000000
236.523926 366.291382 -8.848400 0.000000
250.007202 366.291382 -8.848400 0.000000
263.490540 366.291382 -8.848400 0.000000
276.973816 366.291382 -8.848400 0.000000
290.457092 366.291382 -8.848400 0.000000
303.940430 366.291382 -8.848400 0.000000
317.423706 366.291382 -8.848400 0.000000
330.907043 366.291382 -8.848400 0.000000
344.390320 366.291382 -8.848400 0.000000
-343.257996 352.808105 -8.848400 0.000000
-329.774689 352.808105 -8.848400 0.000000
-316.291382 352.808105 -8.848400 0.000000
-302.808105 352.808105 -8.848400 0.000000
-289.324799 352.808105 -8.848400 0.000000
-275.841492 352.808105 -8.848400 0.000000
-262.358185 352.808105 -8.848400 0.000000
-248.874893 352.808105 -8.848400 0.000000
-235.391602 352.808105 -8.848400 0.000000
-221.908295 352.808105 -8.848400 0.000000
-208.424988 352.808105 -8.848400 0.000000
-194.941696 352.808105 -8.848400 0.000000
-181.458389 352.808105 -8.848400 0.000000
-167.975098 352.808105 -8.848400 0.000000
-154.491791 352.808105 -8.848400 0.000000
-141.008499 352.808105 -8.848400 0.000000
-127.525192 352.808105 -8.848400 0.000000
-114.041885 352.808105 -8.848400 0.000000
-100.558594 352.808105 -8.848400 0.000000
-87.075287 352.808105 -8.848400 0.000000
-73.591980 352.808105 -8.848400 0.000000
-60.108704 352.808105 -8.848400 0.000000
-46.625397 352.808105 -8.848400 0.000000
-33.142090 352.808105 -8.848400 0.000000
-19.658783 352.808105 -8.848400 0.000000
-6.175476 352.808105 -8.848400 0.000000
7.307800 352.808105 -8.848400 0.000000
20.791107 352.808105 -8.848400 0.000000
34.274414 352.808105 -8.848400 0.000000
47.757721 352.808105 -8.848400 0.000000
61.240997 352.808105 -8.848400 0.000000
74.724304 352.808105 -8.848400 0.000000
88.207611 352.808105 -8.848400 0.000000
101.690918 352.808105 -8.848400 0.000000
115.174225 352.808105 -8.848400 0.000000
128.657501 352.808105 -8.848400 0.000000
142.140808 352.808105 -8.848400 0.000000
155.624115 352.808105 -8.848400 0.000000
169.107422 352.808105 -8.848400 0.000000
182.590698 352.808105 -8.848400 0.000000
196.074036 352.808105 -8.848400 0.000000
209.557312 352.808105 -8.848400 0.000000
223.040588 352.808105 -8.848400 0.000000
236.523926 352.808105 -8.848400 0.000000
250.007202 352.808105 -8.848400 0.000000
263.490540 352.808105 -8.848400 0.000000
276.973816 352.808105 -8.848400 0.000000
290.457092 352.808105 -8.848400 0.000000
303.940430 352.808105 -8.848400 0.000000
317.423706 352.808105 -8.848400 0.000000
330.907043 352.808105 -8.848400 0.000000
344.390320 352.808105 -8.848400 0.000000
-343.257996 339.324799 -8.848400 0.000000
-329.774689 339.324799 -8.848400 0.000000
-316.291382 339.324799 -8.848400 0.000000
-302.808105 339.324799 -8.848400 0.000000
-289.324799 339.324799 -8.848400 0.000000
-275.841492 339.324799 -8.848400 0.000000
-262.358185 339.324799 -8.848400 0.000000
-248.874893 339.324799 -8.848400 0.000000
-235.391602 339.324799 -8.848400 0.000000
-221.908295 339.324799 -8.848400 0.000000
-208.424988 339.324799 -8.848400 0.000000
-194.941696 339.324799 -8.848400 0.000000
-181.458389 339.324799 -8.848400 0.000000
-167.975098 339.324799 -8.848400 0.000000
-154.491791 339.324799 -8.848400 0.000000
-141.008499 339.324799 -8.848400 0.000000
-127.525192 339.324799 -8.848400 0.000000
-114.041885 339.324799 -8.848400 0.000000
-100.558594 339.324799 -8.848400 0.000000
-87.075287 339.324799 -8.848400 0.000000
-73.591980 339.324799 -8.848400 0.000000
-60.108704 339.324799 -8.848400 0.000000
-46.625397 339.324799 -8.848400 0.000000
-33.142090 339.324799 -8.848400 0.000000
-19.658783 339.324799 -8.848400 0.000000
-6.175476 339.324799 -8.848400 0.000000
7.307800 339.324799 -8.848400 0.000000
20.791107 339.324799 -8.848400 0.000000
34.274414 339.324799 -8.848400 0.000000
47.757721 339.324799 -8.848400 0.000000
61.240997 339.324799 -8.848400 0.000000
74.724304 339.324799 -8.848400 0.000000
88.207611 339.324799 -8.848400 0.000000
101.690918 339.324799 -8.848400 0.000000
115.174225 339.324799 -8.848400 0.000000
128.657501 339.324799 -8.848400 0.000000
142.140808 339.324799 -8.848400 0.000000
155.624115 339.324799 -8.848400 0.000000
169.107422 339.324799 -8.848400 0.000000
182.590698 339.324799 -8.848400 0.000000
196.074036 339.324799 -8.848400 0.000000
209.557312 339.324799 -8.848400 0.000000
223.040588 339.324799 -8.848400 0.000000
236.523926 339.324799 -8.848400 0.000000
250.007202 339.324799 -8.848400 0.000000
263.490540 339.324799 -8.848400 0.000000
276.973816 339.324799 -8.848400 0.000000
290.457092 339.324799 -8.848400 0.000000
303.940430 339.324799 -8.848400 0.000000
317.423706 339.324799 -8.848400 0.000000
330.907043 339.324799 -8.848400 0.000000
344.390320 339.324799 -8.848400 0.000000
-343.257996 325.841492 -8.848400 0.000000
-329.774689 325.841492 -8.848400 0.000000
-316.291382 325.841492 -8.848400 0.000000
-302.808105 325.841492 -8.848400 0.000000
-289.324799 325.841492 -8.848400 0.000000
-275.841492 325.841492 -8.848400 0.000000
-262.358185 325.841492 -8.848400 0.000000
-248.874893 325.841492 -8.848400 0.000000
-235.391602 325.841492 -8.848400 0.000000
-221.908295 325.841492 -8.848400 0.000000
-208.424988 325.841492 -8.848400 0.000000
-194.941696 325.841492 -8.848400 0.000000
-181.458389 325.841492 -8.848400 0.000000
-167.975098 325.841492 -8.848400 0.000000
-154.491791 325.841492 -8.848400 0.000000
-141.008499 325.841492 -8.848400 0.000000
-127.525192 325.841492 -8.848400 1.165623
-114.041885 325.841492 -8.848400 0.689838
-100.558594 325.841492 -8.848400 0.278368
-87.075287 325.841492 -8.848400 0.261831
-73.591980 325.841492 -8.848400 0.145226
-60.108704 325.841492 -8.848400 -0.152632
-46.625397 325.841492 -8.848400 -0.260880
-33.142090 325.841492 -8.848400 0.000000
-19.658783 325.841492 -8.848400 0.000000
-6.175476 325.841492 -8.848400 0.000000
7.307800 325.841492 -8.848400 0.000000
20.791107 325.841492 -8.848400 0.000000
34.274414 325.841492 -8.848400 0.000000
47.757721 325.841492 -8.848400 0.000000
61.240997 325.841492 -8.848400 0.000000
74.724304 325.841492 -8.848400 0.000000
88.207611 325.841492 -8.848400 0.000000
101.690918 325.841492 -8.848400 0.000000
115.174225 325.841492 -8.848400 0.000000
128.657501 325.841492 -8.848400 0.000000
142.140808 325.841492 -8.848400 0.000000
155.624115 325.841492 -8.848400 0.000000
169.107422 325.841492 -8.848400 0.000000
182.590698 325.841492 -8.848400 0.000000
196.074036 325.841492 -8.848400 0.000000
209.557312 325.841492 -8.848400 0.000000
223.040588 325.841492 -8.848400 0.000000
236.523926 325.841492 -8.848400 0.000000
250.007202 325.841492 -8.848400 0.000000
263.490540 325.841492 -8.848400 0.000000
276.973816 325.841492 -8.848400 0.000000
290.457092 325.841492 -8.848400 0.000000
303.940430 325.841492 -8.848400 0.000000
317.423706 325.841492 -8.848400 0.000000
330.907043 325.841492 -8.848400 0.000000
344.390320 325.841492 -8.848400 0.000000
-343.257996 312.358185 -8.848400 0.000000
-329.774689 312.358185 -8.848400 0.000000
-316.291382 312.358185 -8.848400 0.000000
-302.808105 312.358185 -8.848400 0.000000
-289.324799 312.358185 -8.848400 0.000000
-275.841492 312.358185 -8.848400 0.000000
-262.358185 312.358185 -8.848400 0.000000
-248.874893 312.358185 -8.848400 0.000000
-235.391602 312.358185 -8.848400 0.000000
-221.908295 312.358185 -8.848400 0.000000
-208.424988 312.358185 -8.848400 0.000000
-194.941696 312.358185 -8.848400 0.000000
-181.458389 312.358185 -8.848400 0.000000
-167.975098 312.358185 -8.848400 0.000000
-154.491791 312.358185 -8.848400 0.000000
-141.008499 312.358185 -8.848400 1.321652
-127.525192 312.358185 -8.848400 1.489218
-114.041885 312.358185 -8.848400 1.075970
-100.558594 312.358185 -8.848400 0.786623
-87.075287 312.358185 -8.848400 0.446009
-73.591980 312.358185 -8.848400 0.191693
-60.108704 312.358185 -8.848400 0.087976
-46.625397 312.358185 -8.848400 -0.346679
-33.142090 312.358185 -8.848400 0.041523
-19.658783 312.358185 -8.848400 0.000000
-6.175476 312.358185 -8.848400 0.000000
7.307800 312.358185 -8.848400 0.000000
20.791107 312.358185 -8.848400 0.000000
34.274414 312.358185 -8.848400 0.000000
47.757721 312.358185 -8.848400 0.000000
61.240997 312.358185 -8.848400 0.000000
74.724304 312.358185 -8.848400 0.000000
88.207611 312.358185 -8.848400 0.000000
101.690918 312.358185 -8.848400 0.000000
115.174225 312.358185 -8.848400 0.000000
128.657501 312.358185 -8.848400 0.000000
142.140808 312.358185 -8.848400 0.000000
155.624115 312.358185 -8.848400 0.000000
169.107422 312.358185 -8.848400 0.000000
182.590698 312.358185 -8.848400 0.000000
196.074036 312.358185 -8.848400 0.000000
209.557312 312.358185 -8.848400 0.000000
223.040588 312.358185 -8.848400 0.000000
236.523926 312.358185 -8.848400 0.000000
250.007202 312.358185 -8.848400 0.000000
263.490540 312.358185 -8.848400 0.000000
276.973816 312.358185 -8.848400 0.000000
290.457092 312.358185 -8.848400 0.000000
303.940430 312.358185 -8.848400 0.000000
317.423706 312.358185 -8.848400 0.000000
330.907043 312.358185 -8.848400 0.000000
344.390320 312.358185 -8.848400 0.000000
-343.257996 298.874878 -8.848400 0.000000
-329.774689 298.874878 -8.848400 0.000000
-316.291382 298.874878 -8.848400 0.000000
-302.808105 298.874878 -8.848400 0.000000
-289.324799 298.874878 -8.848400 0.000000
-275.841492 298.874878 -8.848400 0.000000
-262.358185 298.874878 -8.848400 0.000000
-248.874893 298.874878 -8.848400 0.000000
-235.391602 298.874878 -8.848400 0.000000
-221.908295 298.874878 -8.848400 0.000000
-208.424988 298.874878 -8.848400 0.000000
-194.941696 298.874878 -8.848400 0.000000
-181.458389 298.874878 -8.848400 0.000000
-167.975098 298.874878 -8.848400 0.000000
-154.491791 298.874878 -8.848400 0.000000
-141.008499 298.874878 -8.848400 1.304015
-127.525192 298.874878 -8.848400 1.440328
-114.041885 298.874878 -8.848400 1.401172
-100.558594 298.874878 -8.848400 1.182664
-87.075287 298.874878 -8.848400 0.925396
-73.591980 298.874878 -8.848400 0.444415
-60.108704 298.874878 -8.848400 0.172219
-46.625397 298.874878 -8.848400 0.136935
-33.142090 298.874878 -8.848400 -0.002268
-19.658783 298.874878 -8.848400 -0.489571
-6.175476 298.874878 -8.848400 0.000000
7.307800 298.874878 -8.848400 0.000000
20.791107 298.874878 -8.848400 0.000000
34.274414 298.874878 -8.848400 0.000000
47.757721 298.874878 -8.848400 0.000000
61.240997 298.874878 -8.848400 0.000000
74.724304 298.874878 -8.848400 0.000000
88.207611 298.874878 -8.848400 0.000000
101.690918 298.874878 -8.848400 0.000000
115.174225 298.874878 -8.848400 0.000000
128.657501 298.874878 -8.848400 0.000000
142.140808 298.874878 -8.848400 0.000000
155.624115 298.874878 -8.848400 0.000000
169.107422 298.874878 -8.848400 0.000000
182.590698 298.874878 -8.848400 0.000000
196.074036 298.874878 -8.848400 0.000000
209.557312 298.874878 -8.848400 0.000000
223.040588 298.874878 -8.848400 0.000000
236.523926 298.874878 -8.848400 0.000000
250.007202 298.874878 -8.848400 0.000000
263.490540 298.874878 -8.848400 0.000000
276.973816 298.874878 -8.848400 0.000000
290.457092 298.874878 -8.848400 0.000000
303.940430 298.874878 -8.848400 0.000000
317.423706 298.874878 -8.848400 0.000000
330.907043 298.874878 -8.848400 0.000000
344.390320 298.874878 -8.848400 0.000000
-343.257996 285.391602 -8.848400 0.000000
-329.774689 285.391602 -8.848400 0.000000
-316.291382 285.391602 -8.848400 0.000000
-302.808105 285.391602 -8.848400 0.000000
-289.324799 285.391602 -8.848400 0.000000
-275.841492 285.391602 -8.848400 0.000000
-262.358185 285.391602 -8.848400 0.000000
-248.874893 285.391602 -8.848400 0.000000
-235.391602 285.391602 -8.848400 0.000000
-221.908295 285.391602 -8.848400 0.000000
-208.424988 285.391602 -8.848400 0.000000
-194.941696 285.391602 -8.848400 0.000000
-181.458389 285.391602 -8.848400 0.000000
-167.975098 285.391602 -8.848400 0.000000
-154.491791 285.391602 -8.848400 0.000000
-141.008499 285.391602 -8.848400 1.039765
-127.525192 285.391602 -8.848400 1.215538
-114.041885 285.391602 -8.848400 1.529385
-100.558594 285.391602 -8.848400 1.243659
-87.075287 285.391602 -8.848400 1.021769
-73.591980 285.391602 -8.848400 0.716843
-60.108704 285.391602 -8.848400 0.460097
-46.625397 285.391602 -8.848400 0.234394
-33.142090 285.391602 -8.848400 -0.017927
-19.658783 285.391602 -8.848400 -0.185038
-6.175476 285.391602 -8.848400 -0.149718
7.307800 285.391602 -8.848400 -0.178989
20.791107 285.391602 -8.848400 0.137532
34.274414 285.391602 -8.848400 0.000000
47.757721 285.391602 -8.848400 0.000000
61.240997 285.391602 -8.848400 0.000000
74.724304 285.391602 -8.848400 0.000000
88.207611 285.391602 -8.848400 0.000000
101.690918 285.391602 -8.848400 0.000000
115.174225 285.391602 -8.848400 0.000000
128.657501 285.391602 -8.848400 0.000000
142.140808 285.391602 -8.848400 0.000000
155.624115 285.391602 -8.848400 0.000000
169.107422 285.391602 -8.848400 0.000000
182.590698 285.391602 -8.848400 0.000000
196.074036 285.391602 -8.848400 0.000000
209.557312 285.391602 -8.848400 0.000000
223.040588 285.391602 -8.848400 0.000000
236.523926 285.391602 -8.848400 0.000000
250.007202 285.391602 -8.848400 0.000000
263.490540 285.391602 -8.848400 0.000000
276.973816 285.391602 -8.848400 0.000000
290.457092 285.391602 -8.848400 0.000000
303.940430 285.391602 -8.848400 0.000000
317.423706 285.391602 -8.848400 0.000000
330.907043 285.391602 -8.848400 0.000000
344.390320 285.391602 -8.848400 0.000000
-343.257996 271.908295 -8.848400 0.000000
-329.774689 271.908295 -8.848400 0.000000
-316.291382 271.908295 -8.848400 0.000000
-302.808105 271.908295 -8.848400 0.000000
-289.324799 271.908295 -8.848400 0.000000
-275.841492 271.908295 -8.848400 0.000000
-262.358185 271.908295 -8.848400 0.000000
-248.874893 271.908295 -8.848400 0.000000
-235.391602 271.908295 -8.848400 0.000000
-221.908295 271.908295 -8.848400 0.000000
-208.424988 271.908295 -8.848400 0.000000
-194.941696 271.908295 -8.848400 0.000000
-181.458389 271.908295 -8.848400 0.000000
-167.975098 271.908295 -8.848400 0.000000
-154.491791 271.908295 -8.848400 0.000000
-141.008499 271.908295 -8.848400 1.064943
-127.525192 271.908295 -8.848400 1.100776
-114.041885 271.908295 -8.848400 1.232968
-100.558594 271.908295 -8.848400 1.336536
-87.075287 271.908295 -8.848400 1.133683
-73.591980 271.908295 -8.848400 0.996753
-60.108704 271.908295 -8.848400 0.811615
-46.625397 271.908295 -8.848400 0.336136
-33.142090 271.908295 -8.848400 -0.140398
-19.658783 271.908295 -8.848400 -0.025020
-6.175476 271.908295 -8.848400 -0.259341
7.307800 271.908295 -8.848400 -0.097667
20.791107 271.908295 -8.848400 -0.020059
34.274414 271.908295 -8.848400 0.104230
47.757721 271.908295 -8.848400 -0.095872
61.240997 271.908295 -8.848400 0.000000
74.724304 271.908295 -8.848400 0.000000
88.207611 271.908295 -8.848400 0.398141
101.690918 271.908295 -8.848400 0.134392
115.174225 271.908295 -8.848400 -0.104574
128.657501 271.908295 -8.848400 -0.358691
142.140808 271.908295 -8.848400 -0.658591
155.624115 271.908295 -8.848400 0.000000
169.107422 271.908295 -8.848400 0.000000
182.590698 271.908295 -8.848400 0.000000
196.074036 271.908295 -8.848400 0.000000
209.557312 271.908295 -8.848400 0.000000
223.040588 271.908295 -8.848400 0.000000
236.523926 271.908295 -8.848400 0.000000
250.007202 271.908295 -8.848400 0.000000
263.490540 271.908295 -8.848400 0.000000
276.973816 271.908295 -8.848400 0.000000
290.457092 271.908295 -8.848400 0.000000
303.940430 271.908295 -8.848400 0.000000
317.423706 271.908295 -8.848400 0.000000
330.907043 271.908295 -8.848400 0.000000
344.390320 271.908295 -8.848400 0.000000
-343.257996 258.424988 -8.848400 0.000000
-329.774689 258.424988 -8.848400 0.000000
-316.291382 258.424988 -8.848400 0.000000
-302.808105 258.424988 -8.848400 0.000000
-289.324799 258.424988 -8.848400 0.000000
-275.841492 258.424988 -8.848400 0.000000
-262.358185 258.424988 -8.848400 0.000000
-248.874893 258.424988 -8.848400 0.000000
-235.391602 258.424988 -8.848400 0.000000
-221.908295 258.424988 -8.848400 0.000000
-208.424988 258.424988 -8.848400 0.000000
-194.941696 258.424988 -8.848400 0.000000
-181.458389 258.424988 -8.848400 0.000000
-167.975098 258.424988 -8.848400 0.000000
-154.491791 258.424988 -8.848400 0.000000
-141.008499 258.424988 -8.848400 1.028763
-127.525192 258.424988 -8.848400 1.291649
-114.041885 258.424988 -8.848400 1.188961
-100.558594 258.424988 -8.848400 1.103004
-87.075287 258.424988 -8.848400 1.251652
-73.591980 258.424988 -8.848400 1.122658
-60.108704 258.424988 -8.848400 0.748627
-46.625397 258.424988 -8.848400 0.247201
-33.142090 258.424988 -8.848400 -0.229976
-19.658783 258.424988 -8.848400 -0.644703
-6.175476 258.424988 -8.848400 -0.450202
7.307800 258.424988 -8.848400 -0.287393
20.791107 258.424988 -8.848400 -0.078464
34.274414 258.424988 -8.848400 -0.096888
47.757721 258.424988 -8.848400 -0.030049
61.240997 258.424988 -8.848400 0.247740
74.724304 258.424988 -8.848400 0.270490
88.207611 258.424988 -8.848400 0.048480
101.690918 258.424988 -8.848400 -0.000177
115.174225 258.424988 -8.848400 -0.319297
128.657501 258.424988 -8.848400 -0.510519
142.140808 258.424988 -8.848400 -0.911673
155.624115 258.424988 -8.848400 -0.846725
169.107422 258.424988 -8.848400 0.000000
182.590698 258.424988 -8.848400 0.000000
196.074036 258.424988 -8.848400 0.000000
209.557312 258.424988 -8.848400 0.000000
223.040588 258.424988 -8.848400 0.000000
236.523926 258.424988 -8.848400 0.000000
250.007202 258.424988 -8.848400 0.000000
263.490540 258.424988 -8.848400 0.000000
276.973816 258.424988 -8.848400 0.000000
290.457092 258.424988 -8.848400 0.000000
303.940430 258.424988 -8.848400 0.000000
317.423706 258.424988 -8.848400 0.000000
330.907043 258.424988 -8.848400 0.000000
344.390320 258.424988 -8.848400 0.000000
-343.257996 244.941696 -8.848400 0.000000
-329.774689 244.941696 -8.848400 0.000000
-316.291382 244.941696 -8.848400 0.000000
-302.808105 244.941696 -8.848400 0.000000
-289.324799 244.941696 -8.848400 0.000000
-275.841492 244.941696 -8.848400 0.000000
-262.358185 244.941696 -8.848400 0.000000
-248.874893 244.941696 -8.848400 0.000000
-235.391602 244.941696 -8.848400 0.000000
-221.908295 244.941696 -8.848400 0.000000
-208.424988 244.941696 -8.848400 0.000000
-194.941696 244.941696 -8.848400 0.000000
-181.458389 244.941696 -8.848400 0.000000
-167.975098 244.941696 -8.848400 0.000000
-154.491791 244.941696 -8.848400 0.645440
-141.008499 244.941696 -8.848400 0.750462
-127.525192 244.941696 -8.848400 1.097682
-114.041885 244.941696 -8.848400 1.567811
-100.558594 244.941696 -8.848400 1.348886
-87.075287 244.941696 -8.848400 1.434413
-73.591980 244.941696 -8.848400 1.290988
-60.108704 244.941696 -8.848400 0.569010
-46.625397 244.941696 -8.848400 0.305983
-33.142090 244.941696 -8.848400 -0.165307
-19.658783 244.941696 -8.848400 -0.628442
-6.175476 244.941696 -8.848400 -0.590519
7.307800 244.941696 -8.848400 -0.337656
20.791107 244.941696 -8.848400 -0.139622
34.274414 244.941696 -8.848400 -0.013527
47.757721 244.941696 -8.848400 0.002547
61.240997 244.941696 -8.848400 0.339022
74.724304 244.941696 -8.848400 0.151216
88.207611 244.941696 -8.848400 -0.094260
101.690918 244.941696 -8.848400 -0.083970
115.174225 244.941696 -8.848400 -0.507599
128.657501 244.941696 -8.848400 -0.820406
142.140808 244.941696 -8.848400 -1.386935
155.624115 244.941696 -8.848400 -1.310138
169.107422 244.941696 -8.848400 -1.047244
182.590698 244.941696 -8.848400 0.000000
196.074036 244.941696 -8.848400 0.000000
209.557312 244.941696 -8.848400 0.000000
223.040588 244.941696 -8.848400 0.000000
236.523926 244.941696 -8.848400 0.000000
250.007202 244.941696 -8.848400 0.000000
263.490540 244.941696 -8.848400 0.000000
276.973816 244.941696 -8.848400 0.000000
290.457092 244.941696 -8.848400 0.000000
303.940430 244.941696 -8.848400 0.000000
317.423706 244.941696 -8.848400 0.000000
330.907043 244.941696 -8.848400 0.000000
344.390320 244.941696 -8.848400 0.000000
-343.257996 231.458389 -8.848400 0.000000
-329.774689 231.458389 -8.848400 0.000000
-316.291382 231.458389 -8.848400 0.000000
-302.808105 231.458389 -8.848400 0.000000
-289.324799 231.458389 -8.848400 0.000000
-275.841492 231.458389 -8.848400 0.000000
-262.358185 231.458389 -8.848400 0.000000
-248.874893 231.458389 -8.848400 0.000000
-235.391602 231.458389 -8.848400 0.000000
-221.908295 231.458389 -8.848400 0.000000
-208.424988 231.458389 -8.848400 0.000000
-194.941696 231.458389 -8.848400 0.000000
-181.458389 231.458389 -8.848400 0.000000
-167.975098 231.458389 -8.848400 0.000000
-154.491791 231.458389 -8.848400 0.000000
-141.008499 231.458389 -8.848400 0.689196
-127.525192 231.458389 -8.848400 1.095573
-114.041885 231.458389 -8.848400 1.602302
-100.558594 231.458389 -8.848400 1.806139
-87.075287 231.458389 -8.848400 1.850987
-73.591980 231.458389 -8.848400 1.354079
-60.108704 231.458389 -8.848400 1.247077
-46.625397 231.458389 -8.848400 0.582346
-33.142090 231.458389 -8.848400 -0.165777
-19.658783 231.458389 -8.848400 -0.635219
-6.175476 231.458389 -8.848400 -0.506228
7.307800 231.458389 -8.848400 -0.482948
20.791107 231.458389 -8.848400 -0.157726
34.274414 231.458389 -8.848400 -0.164376
47.757721 231.458389 -8.848400 -0.070712
61.240997 231.458389 -8.848400 -0.051951
74.724304 231.458389 -8.848400 -0.017252
88.207611 231.458389 -8.848400 -0.381316
101.690918 231.458389 -8.848400 -0.434246
115.174225 231.458389 -8.848400 -1.032683
128.657501 231.458389 -8.848400 -1.267213
142.140808 231.458389 -8.848400 -1.378555
155.624115 231.458389 -8.848400 -1.275170
169.107422 231.458389 -8.848400 -1.092195
182.590698 231.458389 -8.848400 0.000000
196.074036 231.458389 -8.848400 0.000000
209.557312 231.458389 -8.848400 0.000000
223.040588 231.458389 -8.848400 0.000000
236.523926 231.458389 -8.848400 0.000000
250.007202 231.458389 -8.848400 0.000000
263.490540 231.458389 -8.848400 0.000000
276.973816 231.458389 -8.848400 0.000000
290.457092 231.458389 -8.848400 0.000000
303.940430 231.458389 -8.848400 0.000000
317.423706 231.458389 -8.848400 0.000000
330.907043 231.458389 -8.848400 0.000000
344.390320 231.458389 -8.848400 0.000000
-343.257996 217.975098 -8.848400 0.000000
-329.774689 217.975098 -8.848400 0.000000
-316.291382 217.975098 -8.848400 0.000000
-302.808105 217.975098 -8.848400 0.000000
-289.324799 217.975098 -8.848400 0.000000
-275.841492 217.975098 -8.848400 0.000000
-262.358185 217.975098 -8.848400 0.000000
-248.874893 217.975098 -8.848400 0.000000
-235.391602 217.975098 -8.848400 0.000000
-221.908295 217.975098 -8.848400 0.000000
-208.424988 217.975098 -8.848400 0.000000
-194.941696 217.975098 -8.848400 0.000000
-181.458389 217.975098 -8.848400 0.000000
-167.975098 217.975098 -8.848400 0.000000
-154.491791 217.975098 -8.848400 0.385356
-141.008499 217.975098 -8.848400 0.772946
-127.525192 217.975098 -8.848400 1.104850
-114.041885 217.975098 -8.848400 1.400765
-100.558594 217.975098 -8.848400 1.589618
-87.075287 217.975098 -8.848400 1.902537
-73.591980 217.975098 -8.848400 1.617918
-60.108704 217.975098 -8.848400 0.911163
-46.625397 217.975098 -8.848400 0.655393
-33.142090 217.975098 -8.848400 0.017741
-19.658783 217.975098 -8.848400 -0.218382
-6.175476 217.975098 -8.848400 -0.315091
7.307800 217.975098 -8.848400 -0.402265
20.791107 217.975098 -8.848400 -0.268945
34.274414 217.975098 -8.848400 -0.192450
47.757721 217.975098 -8.848400 -0.148045
61.240997 217.975098 -8.848400 -0.072633
74.724304 217.975098 -8.848400 -0.502209
88.207611 217.975098 -8.848400 -0.673388
101.690918 217.975098 -8.848400 -0.787891
115.174225 217.975098 -8.848400 -1.455956
128.657501 217.975098 -8.848400 -1.594169
142.140808 217.975098 -8.848400 -1.183484
155.624115 217.975098 -8.848400 -1.106179
169.107422 217.975098 -8.848400 -0.915852
182.590698 217.975098 -8.848400 0.000000
196.074036 217.975098 -8.848400 0.000000
209.557312 217.975098 -8.848400 0.000000
223.040588 217.975098 -8.848400 0.000000
236.523926 217.975098 -8.848400 0.000000
250.007202 217.975098 -8.848400 0.000000
263.490540 217.975098 -8.848400 0.000000
276.973816 217.975098 -8.848400 0.000000
290.457092 217.975098 -8.848400 0.000000
303.940430 217.975098 -8.848400 0.000000
317.423706 217.975098 -8.848400 0.000000
330.907043 217.975098 -8.848400 0.000000
344.390320 217.975098 -8.848400 0.000000
-343.257996 204.491791 -8.848400 0.000000
-329.774689 204.491791 -8.848400 0.000000
-316.291382 204.491791 -8.848400 0.000000
-302.808105 204.491791 -8.848400 0.000000
-289.324799 204.491791 -8.848400 0.000000
-275.841492 204.491791 -8.848400 0.000000
-262.358185 204.491791 -8.848400 0.000000
-248.874893 204.491791 -8.848400 0.000000
-235.391602 204.491791 -8.848400 0.000000
-221.908295 204.491791 -8.848400 0.000000
-208.424988 204.491791 -8.848400 0.000000
-194.941696 204.491791 -8.848400 0.000000
-181.458389 204.491791 -8.848400 0.000000
-167.975098 204.491791 -8.848400 0.000000
-154.491791 204.491791 -8.848400 0.536776
-141.008499 204.491791 -8.848400 0.907648
-127.525192 204.491791 -8.848400 1.181310
-114.041885 204.491791 -8.848400 1.413529
-100.558594 204.491791 -8.848400 1.910541
-87.075287 204.491791 -8.848400 1.996253
-73.591980 204.491791 -8.848400 1.814689
-60.108704 204.491791 -8.848400 1.230442
-46.625397 204.491791 -8.848400 0.924598
-33.142090 204.491791 -8.848400 0.400717
-19.658783 204.491791 -8.848400 -0.086435
-6.175476 204.491791 -8.848400 -0.237384
7.307800 204.491791 -8.848400 -0.449908
20.791107 204.491791 -8.848400 -0.586942
34.274414 204.491791 -8.848400 -0.578735
47.757721 204.491791 -8.848400 -0.612518
61.240997 204.491791 -8.848400 -0.481428
74.724304 204.491791 -8.848400 -0.837871
88.207611 204.491791 -8.848400 -1.367400
101.690918 204.491791 -8.848400 -1.450410
115.174225 204.491791 -8.848400 -1.513460
128.657501 204.491791 -8.848400 -1.377236
142.140808 204.491791 -8.848400 -0.936786
155.624115 204.491791 -8.848400 -0.719384
169.107422 204.491791 -8.848400 -0.698603
182.590698 204.491791 -8.848400 0.000000
196.074036 204.491791 -8.848400 0.000000
209.557312 204.491791 -8.848400 0.000000
223.040588 204.491791 -8.848400 0.000000
236.523926 204.491791 -8.848400 0.000000
250.007202 204.491791 -8.848400 0.000000
263.490540 204.491791 -8.848400 0.000000
276.973816 204.491791 -8.848400 0.000000
290.457092 204.491791 -8.848400 0.000000
303.940430 204.491791 -8.848400 0.000000
317.423706 204.491791 -8.848400 0.000000
330.907043 204.491791 -8.848400 0.000000
344.390320 204.491791 -8.848400 0.000000
-343.257996 191.008499 -8.848400 0.000000
-329.774689 191.008499 -8.848400 0.000000
-316.291382 191.008499 -8.848400 0.000000
-302.808105 191.008499 -8.848400 0.000000
-289.324799 191.008499 -8.848400 0.000000
-275.841492 191.008499 -8.848400 0.000000
-262.358185 191.008499 -8.848400 0.000000
-248.874893 191.008499 -8.848400 0.000000
-235.391602 191.008499 -8.848400 0.000000
-221.908295 191.008499 -8.848400 0.000000
-208.424988 191.008499 -8.848400 0.000000
-194.941696 191.008499 -8.848400 0.000000
-181.458389 191.008499 -8.848400 0.000000
-167.975098 191.008499 -8.848400 0.000000
-154.491791 191.008499 -8.848400 0.511283
-141.008499 191.008499 -8.848400 1.102746
-127.525192 191.008499 -8.848400 1.459644
-114.041885 191.008499 -8.848400 1.803967
-100.558594 191.008499 -8.848400 2.221526
-87.075287 191.008499 -8.848400 2.396446
-73.591980 191.008499 -8.848400 2.189888
-60.108704 191.008499 -8.848400 1.557599
-46.625397 191.008499 -8.848400 1.154882
-33.142090 191.008499 -8.848400 0.740951
-19.658783 191.008499 -8.848400 -0.089166
-6.175476 191.008499 -8.848400 -0.609233
7.307800 191.008499 -8.848400 -0.850773
20.791107 191.008499 -8.848400 -0.512670
34.274414 191.008499 -8.848400 -0.750325
47.757721 191.008499 -8.848400 -0.977042
61.240997 191.008499 -8.848400 -1.307663
74.724304 191.008499 -8.848400 -1.563488
88.207611 191.008499 -8.848400 -1.744043
101.690918 191.008499 -8.848400 -1.557166
115.174225 191.008499 -8.848400 -1.375918
128.657501 191.008499 -8.848400 -0.903552
142.140808 191.008499 -8.848400 -0.521945
155.624115 191.008499 -8.848400 -0.389916
169.107422 191.008499 -8.848400 0.000000
182.590698 191.008499 -8.848400 0.000000
196.074036 191.008499 -8.848400 0.000000
209.557312 191.008499 -8.848400 0.000000
223.040588 191.008499 -8.848400 0.000000
236.523926 191.008499 -8.848400 0.000000
250.007202 191.008499 -8.848400 0.000000
263.490540 191.008499 -8.848400 0.000000
276.973816 191.008499 -8.848400 0.000000
290.457092 191.008499 -8.848400 0.000000
303.940430 191.008499 -8.848400 0.000000
317.423706 191.008499 -8.848400 0.000000
330.907043 191.008499 -8.848400 0.000000
344.390320 191.008499 -8.848400 0.000000
-343.257996 177.525192 -8.848400 0.000000
-329.774689 177.525192 -8.848400 0.000000
-316.291382 177.525192 -8.848400 0.000000
-302.808105 177.525192 -8.848400 0.000000
-289.324799 177.525192 -8.848400 0.000000
-275.841492 177.525192 -8.848400 0.000000
-262.358185 177.525192 -8.848400 0.000000
-248.874893 177.525192 -8.848400 0.000000
-235.391602 177.525192 -8.848400 0.000000
-221.908295 177.525192 -8.848400 0.000000
-208.424988 177.525192 -8.848400 0.000000
-194.941696 177.525192 -8.848400 0.000000
-181.458389 177.525192 -8.848400 0.000000
-167.975098 177.525192 -8.848400 0.000000
-154.491791 177.525192 -8.848400 0.682956
-141.008499 177.525192 -8.848400 1.119930
-127.525192 177.525192 -8.848400 1.485025
-114.041885 177.525192 -8.848400 1.856985
-100.558594 177.525192 -8.848400 2.474309
-87.075287 177.525192 -8.848400 2.697538
-73.591980 177.525192 -8.848400 2.279491
-60.108704 177.525192 -8.848400 2.058389
-46.625397 177.525192 -8.848400 1.656755
-33.142090 177.525192 -8.848400 0.759990
-19.658783 177.525192 -8.848400 -0.068798
-6.175476 177.525192 -8.848400 -0.758123
7.307800 177.525192 -8.848400 -1.001705
20.791107 177.525192 -8.848400 -1.070828
34.274414 177.525192 -8.848400 -1.158653
47.757721 177.525192 -8.848400 -1.160172
61.240997 177.525192 -8.848400 -1.287125
74.724304 177.525192 -8.848400 -1.628312
88.207611 177.525192 -8.848400 -1.715606
101.690918 177.525192 -8.848400 -1.453404
115.174225 177.525192 -8.848400 -1.340435
128.657501 177.525192 -8.848400 -0.734731
142.140808 177.525192 -8.848400 -0.432470
155.624115 177.525192 -8.848400 0.000000
169.107422 177.525192 -8.848400 0.000000
182.590698 177.525192 -8.848400 0.000000
196.074036 177.525192 -8.848400 0.000000
209.557312 177.525192 -8.848400 0.000000
223.040588 177.525192 -8.848400 0.000000
236.523926 177.525192 -8.848400 0.000000
250.007202 177.525192 -8.848400 0.000000
263.490540 177.525192 -8.848400 0.000000
276.973816 177.525192 -8.848400 0.000000
290.457092 177.525192 -8.848400 0.000000
303.940430 177.525192 -8.848400 0.000000
317.423706 177.525192 -8.848400 0.000000
330.907043 177.525192 -8.848400 0.000000
344.390320 177.525192 -8.848400 0.000000
-343.257996 164.041885 -8.848400 0.000000
-329.774689 164.041885 -8.848400 0.000000
-316.291382 164.041885 -8.848400 0.000000
-302.808105 164.041885 -8.848400 0.000000
-289.324799 164.041885 -8.848400 0.000000
-275.841492 164.041885 -8.848400 0.000000
-262.358185 164.041885 -8.848400 0.000000
-248.874893 164.041885 -8.848400 0.000000
-235.391602 164.041885 -8.848400 0.000000
-221.908295 164.041885 -8.848400 0.000000
-208.424988 164.041885 -8.848400 0.000000
-194.941696 164.041885 -8.848400 0.000000
-181.458389 164.041885 -8.848400 0.000000
-167.975098 164.041885 -8.848400 0.000000
-154.491791 164.041885 -8.848400 0.737011
-141.008499 164.041885 -8.848400 1.404052
-127.525192 164.041885 -8.848400 1.728903
-114.041885 164.041885 -8.848400 2.024532
-100.558594 164.041885 -8.848400 2.393119
-87.075287 164.041885 -8.848400 2.640395
-73.591980 164.041885 -8.848400 2.689648
-60.108704 164.041885 -8.848400 2.546245
-46.625397 164.041885 -8.848400 1.924511
-33.142090 164.041885 -8.848400 1.286404
-19.658783 164.041885 -8.848400 -0.067094
-6.175476 164.041885 -8.848400 -0.598856
7.307800 164.041885 -8.848400 -0.831853
20.791107 164.041885 -8.848400 -1.297533
34.274414 164.041885 -8.848400 -1.719651
47.757721 164.041885 -8.848400 -1.697756
61.240997 164.041885 -8.848400 -1.814422
74.724304 164.041885 -8.848400 -1.844612
88.207611 164.041885 -8.848400 -1.540443
101.690918 164.041885 -8.848400 -1.165996
115.174225 164.041885 -8.848400 -0.876970
128.657501 164.041885 -8.848400 0.000000
142.140808 164.041885 -8.848400 0.000000
155.624115 164.041885 -8.848400 0.000000
169.107422 164.041885 -8.848400 0.000000
182.590698 164.041885 -8.848400 0.000000
196.074036 164.041885 -8.848400 0.000000
209.557312 164.041885 -8.848400 0.000000
223.040588 164.041885 -8.848400 0.000000
236.523926 164.041885 -8.848400 0.000000
250.007202 164.041885 -8.848400 0.000000
263.490540 164.041885 -8.848400 0.000000
276.973816 164.041885 -8.848400 0.000000
290.457092 164.041885 -8.848400 0.000000
303.940430 164.041885 -8.848400 0.000000
317.423706 164.041885 -8.848400 0.000000
330.907043 164.041885 -8.848400 0.000000
344.390320 164.041885 -8.848400 0.000000
-343.257996 150.558594 -8.848400 0.000000
-329.774689 150.558594 -8.848400 0.000000
-316.291382 150.558594 -8.848400 0.000000
-302.808105 150.558594 -8.848400 0.000000
-289.324799 150.558594 -8.848400 0.000000
-275.841492 150.558594 -8.848400 0.000000
-262.358185 150.558594 -8.848400 0.000000
-248.874893 150.558594 -8.848400 0.000000
-235.391602 150.558594 -8.848400 0.000000
-221.908295 150.558594 -8.848400 0.000000
-208.424988 150.558594 -8.848400 0.000000
-194.941696 150.558594 -8.848400 0.000000
-181.458389 150.558594 -8.848400 0.000000
-167.975098 150.558594 -8.848400 0.000000
-154.491791 150.558594 -8.848400 0.934217
-141.008499 150.558594 -8.848400 1.413306
-127.525192 150.558594 -8.848400 2.053429
-114.041885 150.558594 -8.848400 2.095167
-100.558594 150.558594 -8.848400 2.281084
-87.075287 150.558594 -8.848400 2.598252
-73.591980 150.558594 -8.848400 2.912796
-60.108704 150.558594 -8.848400 2.551607
-46.625397 150.558594 -8.848400 1.672589
-33.142090 150.558594 -8.848400 0.995859
-19.658783 150.558594 -8.848400 0.078612
-6.175476 150.558594 -8.848400 -0.477553
7.307800 150.558594 -8.848400 -1.307158
20.791107 150.558594 -8.848400 -1.912468
34.274414 150.558594 -8.848400 -1.944793
47.757721 150.558594 -8.848400 -1.985236
61.240997 150.558594 -8.848400 -1.972772
74.724304 150.558594 -8.848400 -1.709402
88.207611 150.558594 -8.848400 -1.077449
101.690918 150.558594 -8.848400 -0.820172
115.174225 150.558594 -8.848400 0.000000
128.657501 150.558594 -8.848400 0.000000
142.140808 150.558594 -8.848400 0.000000
155.624115 150.558594 -8.848400 0.000000
169.107422 150.558594 -8.848400 0.000000
182.590698 150.558594 -8.848400 0.000000
196.074036 150.558594 -8.848400 0.000000
209.557312 150.558594 -8.848400 0.000000
223.040588 150.558594 -8.848400 0.000000
236.523926 150.558594 -8.848400 0.000000
250.007202 150.558594 -8.848400 0.000000
263.490540 150.558594 -8.848400 0.000000
276.973816 150.558594 -8.848400 0.000000
290.457092 150.558594 -8.848400 0.000000
303.940430 150.558594 -8.848400 0.000000
317.423706 150.558594 -8.848400 0.000000
330.907043 150.558594 -8.848400 0.000000
344.390320 150.558594 -8.848400 0.000000
-343.257996 137.075287 -8.848400 0.000000
-329.774689 137.075287 -8.848400 0.000000
-316.291382 137.075287 -8.848400 0.000000
-302.808105 137.075287 -8.848400 0.000000
-289.324799 137.075287 -8.848400 0.000000
-275.841492 137.075287 -8.848400 0.000000
-262.358185 137.075287 -8.848400 0.000000
-248.874893 137.075287 -8.848400 0.000000
-235.391602 137.075287 -8.848400 0.000000
-221.908295 137.075287 -8.848400 0.000000
-208.424988 137.075287 -8.848400 0.000000
-194.941696 137.075287 -8.848400 0.000000
-181.458389 137.075287 -8.848400 0.000000
-167.975098 137.075287 -8.848400 0.000000
-154.491791 137.075287 -8.848400 1.156685
-141.008499 137.075287 -8.848400 1.090362
-127.525192 137.075287 -8.848400 1.782288
-114.041885 137.075287 -8.848400 2.103728
-100.558594 137.075287 -8.848400 2.246623
-87.075287 137.075287 -8.848400 2.494612
-73.591980 137.075287 -8.848400 2.481130
-60.108704 137.075287 -8.848400 2.374678
-46.625397 137.075287 -8.848400 1.708703
-33.142090 137.075287 -8.848400 0.443767
-19.658783 137.075287 -8.848400 -0.138377
-6.175476 137.075287 -8.848400 -0.702149
7.307800 137.075287 -8.848400 -1.552724
20.791107 137.075287 -8.848400 -1.822086
34.274414 137.075287 -8.848400 -1.981935
47.757721 137.075287 -8.848400 -1.999642
61.240997 137.075287 -8.848400 -2.202660
74.724304 137.075287 -8.848400 -1.831468
88.207611 137.075287 -8.848400 -1.189592
101.690918 137.075287 -8.848400 0.000000
115.174225 137.075287 -8.848400 0.000000
128.657501 137.075287 -8.848400 0.000000
142.140808 137.075287 -8.848400 0.000000
155.624115 137.075287 -8.848400 0.000000
169.107422 137.075287 -8.848400 0.000000
182.590698 137.075287 -8.848400 0.000000
196.074036 137.075287 -8.848400 0.000000
209.557312 137.075287 -8.848400 0.000000
223.040588 137.075287 -8.848400 0.000000
236.523926 137.075287 -8.848400 0.000000
250.007202 137.075287 -8.848400 0.000000
263.490540 137.075287 -8.848400 0.000000
276.973816 137.075287 -8.848400 0.000000
290.457092 137.075287 -8.848400 0.000000
303.940430 137.075287 -8.848400 0.000000
317.423706 137.075287 -8.848400 0.000000
330.907043 137.075287 -8.848400 0.000000
344.390320 137.075287 -8.848400 0.000000
-343.257996 123.591980 -8.848400 0.000000
-329.774689 123.591980 -8.848400 0.000000
-316.291382 123.591980 -8.848400 0.000000
-302.808105 123.591980 -8.848400 0.000000
-289.324799 123.591980 -8.848400 0.000000
-275.841492 123.591980 -8.848400 0.000000
-262.358185 123.591980 -8.848400 0.000000
-248.874893 123.591980 -8.848400 0.000000
-235.391602 123.591980 -8.848400 0.000000
-221.908295 123.591980 -8.848400 0.000000
-208.424988 123.591980 -8.848400 0.000000
-194.941696 123.591980 -8.848400 0.000000
-181.458389 123.591980 -8.848400 0.000000
-167.975098 123.591980 -8.848400 0.000000
-154.491791 123.591980 -8.848400 1.338972
-141.008499 123.591980 -8.848400 1.392405
-127.525192 123.591980 -8.848400 2.159550
-114.041885 123.591980 -8.848400 2.381507
-100.558594 123.591980 -8.848400 2.969572
-87.075287 123.591980 -8.848400 3.274499
-73.591980 123.591980 -8.848400 2.925821
-60.108704 123.591980 -8.848400 2.423270
-46.625397 123.591980 -8.848400 1.398003
-33.142090 123.591980 -8.848400 0.327459
-19.658783 123.591980 -8.848400 -0.270168
-6.175476 123.591980 -8.848400 -0.769338
7.307800 123.591980 -8.848400 -1.613990
20.791107 123.591980 -8.848400 -1.833385
34.274414 123.591980 -8.848400 -2.113433
47.757721 123.591980 -8.848400 -2.051283
61.240997 123.591980 -8.848400 -1.726512
74.724304 123.591980 -8.848400 -1.670293
88.207611 123.591980 -8.848400 -1.249372
101.690918 123.591980 -8.848400 0.000000
115.174225 123.591980 -8.848400 0.000000
128.657501 123.591980 -8.848400 0.000000
142.140808 123.591980 -8.848400 0.000000
155.624115 123.591980 -8.848400 0.000000
169.107422 123.591980 -8.848400 0.000000
182.590698 123.591980 -8.848400 0.000000
196.074036 123.591980 -8.848400 0.000000
209.557312 123.591980 -8.848400 0.000000
223.040588 123.591980 -8.848400 0.000000
236.523926 123.591980 -8.848400 0.000000
250.007202 123.591980 -8.848400 0.000000
263.490540 123.591980 -8.848400 0.000000
276.973816 123.591980 -8.848400 0.000000
290.457092 123.591980 -8.848400 0.000000
303.940430 123.591980 -8.848400 0.000000
317.423706 123.591980 -8.848400 0.000000
330.907043 123.591980 -8.848400 0.000000
344.390320 123.591980 -8.848400 0.000000
-343.257996 110.108704 -8.848400 0.000000
-329.774689 110.108704 -8.848400 0.000000
-316.291382 110.108704 -8.848400 0.000000
-302.808105 110.108704 -8.848400 0.000000
-289.324799 110.108704 -8.848400 0.000000
-275.841492 110.108704 -8.848400 0.000000
-262.358185 110.108704 -8.848400 0.000000
-248.874893 110.108704 -8.848400 0.000000
-235.391602 110.108704 -8.848400 0.000000
-221.908295 110.108704 -8.848400 0.000000
-208.424988 110.108704 -8.848400 0.000000
-194.941696 110.108704 -8.848400 0.000000
-181.458389 110.108704 -8.848400 0.000000
-167.975098 110.108704 -8.848400 0.000000
-154.491791 110.108704 -8.848400 1.797709
-141.008499 110.108704 -8.848400 1.845754
-127.525192 110.108704 -8.848400 2.256575
-114.041885 110.108704 -8.848400 2.558928
-100.558594 110.108704 -8.848400 3.086833
-87.075287 110.108704 -8.848400 3.282078
-73.591980 110.108704 -8.848400 3.045352
-60.108704 110.108704 -8.848400 2.578973
-46.625397 110.108704 -8.848400 1.629468
-33.142090 110.108704 -8.848400 0.577474
-19.658783 110.108704 -8.848400 -0.043830
-6.175476 110.108704 -8.848400 -0.501744
7.307800 110.108704 -8.848400 -1.205021
20.791107 110.108704 -8.848400 -1.538909
34.274414 110.108704 -8.848400 -1.927253
47.757721 110.108704 -8.848400 -2.256077
61.240997 110.108704 -8.848400 -2.256984
74.724304 110.108704 -8.848400 -2.049019
88.207611 110.108704 -8.848400 -1.649743
101.690918 110.108704 -8.848400 0.000000
115.174225 110.108704 -8.848400 0.000000
128.657501 110.108704 -8.848400 0.000000
142.140808 110.108704 -8.848400 0.000000
155.624115 110.108704 -8.848400 0.000000
169.107422 110.108704 -8.848400 0.000000
182.590698 110.108704 -8.848400 0.000000
196.074036 110.108704 -8.848400 0.000000
209.557312 110.108704 -8.848400 0.000000
223.040588 110.108704 -8.848400 0.000000
236.523926 110.108704 -8.848400 0.000000
250.007202 110.108704 -8.848400 0.000000
263.490540 110.108704 -8.848400 0.000000
276.973816 110.108704 -8.848400 0.000000
290.457092 110.108704 -8.848400 0.000000
303.940430 110.108704 -8.848400 0.000000
317.423706 110.108704 -8.848400 0.000000
330.907043 110.108704 -8.848400 0.000000
344.390320 110.108704 -8.848400 0.000000
-343.257996 96.625397 -8.848400 0.000000
-329.774689 96.625397 -8.848400 0.000000
-316.291382 96.625397 -8.848400 0.000000
-302.808105 96.625397 -8.848400 0.000000
-289.324799 96.625397 -8.848400 0.000000
-275.841492 96.625397 -8.848400 0.000000
-262.358185 96.625397 -8.848400 0.000000
-248.874893 96.625397 -8.848400 0.000000
-235.391602 96.625397 -8.848400 0.000000
-221.908295 96.625397 -8.848400 0.000000
-208.424988 96.625397 -8.848400 0.000000
-194.941696 96.625397 -8.848400 0.000000
-181.458389 96.625397 -8.848400 0.000000
-167.975098 96.625397 -8.848400 0.000000
-154.491791 96.625397 -8.848400 2.013112
-141.008499 96.625397 -8.848400 2.135662
-127.525192 96.625397 -8.848400 2.459817
-114.041885 96.625397 -8.848400 2.684844
-100.558594 96.625397 -8.848400 3.504713
-87.075287 96.625397 -8.848400 3.506635
-73.591980 96.625397 -8.848400 3.044129
-60.108704 96.625397 -8.848400 2.562098
-46.625397 96.625397 -8.848400 1.895684
-33.142090 96.625397 -8.848400 1.229674
-19.658783 96.625397 -8.848400 0.356519
-6.175476 96.625397 -8.848400 -0.447186
7.307800 96.625397 -8.848400 -1.014998
20.791107 96.625397 -8.848400 -1.606294
34.274414 96.625397 -8.848400 -2.133778
47.757721 96.625397 -8.848400 -2.746680
61.240997 96.625397 -8.848400 -2.565287
74.724304 96.625397 -8.848400 -2.781288
88.207611 96.625397 -8.848400 -2.423621
101.690918 96.625397 -8.848400 0.000000
115.174225 96.625397 -8.848400 0.000000
128.657501 96.625397 -8.848400 0.000000
142.140808 96.625397 -8.848400 0.000000
155.624115 96.625397 -8.848400 0.000000
169.107422 96.625397 -8.848400 0.000000
182.590698 96.625397 -8.848400 0.000000
196.074036 96.625397 -8.848400 0.000000
209.557312 96.625397 -8.848400 0.000000
223.040588 96.625397 -8.848400 0.000000
236.523926 96.625397 -8.848400 0.000000
250.007202 96.625397 -8.848400 0.000000
263.490540 96.625397 -8.848400 0.000000
276.973816 96.625397 -8.848400 0.000000
290.457092 96.625397 -8.848400 0.000000
303.940430 96.625397 -8.848400 0.000000
317.423706 96.625397 -8.848400 0.000000
330.907043 96.625397 -8.848400 0.000000
344.390320 96.625397 -8.848400 0.000000
-343.257996 83.142090 -8.848400 0.000000
-329.774689 83.142090 -8.848400 0.000000
-316.291382 83.142090 -8.848400 0.000000
-302.808105 83.142090 -8.848400 0.000000
-289.324799 83.142090 -8.848400 0.000000
-275.841492 83.142090 -8.848400 0.000000
-262.358185 83.142090 -8.848400 0.000000
-248.874893 83.142090 -8.848400 0.000000
-235.391602 83.142090 -8.848400 0.000000
-221.908295 83.142090 -8.848400 0.000000
-208.424988 83.142090 -8.848400 0.000000
-194.941696 83.142090 -8.848400 0.000000
-181.458389 83.142090 -8.848400 0.000000
-167.975098 83.142090 -8.848400 0.000000
-154.491791 83.142090 -8.848400 0.000000
-141.008499 83.142090 -8.848400 2.888363
-127.525192 83.142090 -8.848400 3.085389
-114.041885 83.142090 -8.848400 3.039242
-100.558594 83.142090 -8.848400 3.383460
-87.075287 83.142090 -8.848400 3.746131
-73.591980 83.142090 -8.848400 3.092887
-60.108704 83.142090 -8.848400 2.578987
-46.625397 83.142090 -8.848400 2.077755
-33.142090 83.142090 -8.848400 1.220295
-19.658783 83.142090 -8.848400 0.388817
-6.175476 83.142090 -8.848400 -0.372404
7.307800 83.142090 -8.848400 -0.744601
20.791107 83.142090 -8.848400 -1.092049
34.274414 83.142090 -8.848400 -2.019456
47.757721 83.142090 -8.848400 -2.595745
61.240997 83.142090 -8.848400 -2.644844
74.724304 83.142090 -8.848400 -2.950455
88.207611 83.142090 -8.848400 -2.701267
101.690918 83.142090 -8.848400 0.000000
115.174225 83.142090 -8.848400 0.000000
128.657501 83.142090 -8.848400 0.000000
142.140808 83.142090 -8.848400 0.000000
155.624115 83.142090 -8.848400 0.000000
169.107422 83.142090 -8.848400 0.000000
182.590698 83.142090 -8.848400 0.000000
196.074036 83.142090 -8.848400 0.000000
209.557312 83.142090 -8.848400 0.000000
223.040588 83.142090 -8.848400 0.000000
236.523926 83.142090 -8.848400 0.000000
250.007202 83.142090 -8.848400 0.000000
263.490540 83.142090 -8.848400 0.000000
276.973816 83.142090 -8.848400 0.000000
290.457092 83.142090 -8.848400 0.000000
303.940430 83.142090 -8.848400 0.000000
317.423706 83.142090 -8.848400 0.000000
330.907043 83.142090 -8.848400 0.000000
344.390320 83.142090 -8.848400 0.000000
-343.257996 69.658783 -8.848400 0.000000
-329.774689 69.658783 -8.848400 0.000000
-316.291382 69.658783 -8.848400 0.000000
-302.808105 69.658783 -8.848400 0.000000
-289.324799 69.658783 -8.848400 0.000000
-275.841492 69.658783 -8.848400 0.000000
-262.358185 69.658783 -8.848400 0.000000
-248.874893 69.658783 -8.848400 0.000000
-235.391602 69.658783 -8.848400 0.000000
-221.908295 69.658783 -8.848400 0.000000
-208.424988 69.658783 -8.848400 0.000000
-194.941696 69.658783 -8.848400 0.000000
-181.458389 69.658783 -8.848400 0.000000
-167.975098 69.658783 -8.848400 0.000000
-154.491791 69.658783 -8.848400 0.000000
-141.008499 69.658783 -8.848400 2.922131
-127.525192 69.658783 -8.848400 3.227237
-114.041885 69.658783 -8.848400 3.346311
-100.558594 69.658783 -8.848400 3.838556
-87.075287 69.658783 -8.848400 3.726782
-73.591980 69.658783 -8.848400 3.094624
-60.108704 69.658783 -8.848400 2.548456
-46.625397 69.658783 -8.848400 1.762259
-33.142090 69.658783 -8.848400 1.388226
-19.658783 69.658783 -8.848400 0.753547
-6.175476 69.658783 -8.848400 0.104640
7.307800 69.658783 -8.848400 -0.463133
20.791107 69.658783 -8.848400 -0.837257
34.274414 69.658783 -8.848400 -2.037647
47.757721 69.658783 -8.848400 -2.328460
61.240997 69.658783 -8.848400 -2.836353
74.724304 69.658783 -8.848400 -3.200434
88.207611 69.658783 -8.848400 -2.788516
101.690918 69.658783 -8.848400 0.000000
115.174225 69.658783 -8.848400 0.000000
128.657501 69.658783 -8.848400 0.000000
142.140808 69.658783 -8.848400 0.000000
155.624115 69.658783 -8.848400 0.000000
169.107422 69.658783 -8.848400 0.000000
182.590698 69.658783 -8.848400 0.000000
196.074036 69.658783 -8.848400 0.000000
209.557312 69.658783 -8.848400 0.000000
223.040588 69.658783 -8.848400 0.000000
236.523926 69.658783 -8.848400 0.000000
250.007202 69.658783 -8.848400 0.000000
263.490540 69.658783 -8.848400 0.000000
276.973816 69.658783 -8.848400 0.000000
290.457092 69.658783 -8.848400 0.000000
303.940430 69.658783 -8.848400 0.000000
317.423706 69.658783 -8.848400 0.000000
330.907043 69.658783 -8.848400 0.000000
344.390320 69.658783 -8.848400 0.000000
-343.257996 56.175476 -8.848400 0.000000
-329.774689 56.175476 -8.848400 0.000000
-316.291382 56.175476 -8.848400 0.000000
-302.808105 56.175476 -8.848400 0.000000
-289.324799 56.175476 -8.848400 0.000000
-275.841492 56.175476 -8.848400 0.000000
-262.358185 56.175476 -8.848400 0.000000
-248.874893 56.175476 -8.848400 0.000000
-235.391602 56.175476 -8.848400 0.000000
-221.908295 56.175476 -8.848400 0.000000
-208.424988 56.175476 -8.848400 0.000000
-194.941696 56.175476 -8.848400 0.000000
-181.458389 56.175476 -8.848400 0.000000
-167.975098 56.175476 -8.848400 0.000000
-154.491791 56.175476 -8.848400 0.000000
-141.008499 56.175476 -8.848400 2.718251
-127.525192 56.175476 -8.848400 3.380407
-114.041885 56.175476 -8.848400 3.596697
-100.558594 56.175476 -8.848400 3.800032
-87.075287 56.175476 -8.848400 3.985421
-73.591980 56.175476 -8.848400 3.123212
-60.108704 56.175476 -8.848400 2.504215
-46.625397 56.175476 -8.848400 1.653743
-33.142090 56.175476 -8.848400 1.473786
-19.658783 56.175476 -8.848400 0.877358
-6.175476 56.175476 -8.848400 0.230504
7.307800 56.175476 -8.848400 -0.349626
20.791107 56.175476 -8.848400 -0.783771
34.274414 56.175476 -8.848400 -1.371818
47.757721 56.175476 -8.848400 -2.081075
61.240997 56.175476 -8.848400 -2.641557
74.724304 56.175476 -8.848400 -3.012243
88.207611 56.175476 -8.848400 -2.436904
101.690918 56.175476 -8.848400 -1.932117
115.174225 56.175476 -8.848400 0.000000
128.657501 56.175476 -8.848400 0.000000
142.140808 56.175476 -8.848400 0.000000
155.624115 56.175476 -8.848400 0.000000
169.107422 56.175476 -8.848400 0.000000
182.590698 56.175476 -8.848400 0.000000
196.074036 56.175476 -8.848400 0.000000
209.557312 56.175476 -8.848400 0.000000
223.040588 56.175476 -8.848400 0.000000
236.523926 56.175476 -8.848400 0.000000
250.007202 56.175476 -8.848400 0.000000
263.490540 56.175476 -8.848400 0.000000
276.973816 56.175476 -8.848400 0.000000
290.457092 56.175476 -8.848400 0.000000
303.940430 56.175476 -8.848400 0.000000
317.423706 56.175476 -8.848400 0.000000
330.907043 56.175476 -8.848400 0.000000
344.390320 56.175476 -8.848400 0.000000
-343.257996 42.692200 -8.848400 0.000000
-329.774689 42.692200 -8.848400 0.000000
-316.291382 42.692200 -8.848400 0.000000
-302.808105 42.692200 -8.848400 0.000000
-289.324799 42.692200 -8.848400 0.000000
-275.841492 42.692200 -8.848400 0.000000
-262.358185 42.692200 -8.848400 0.000000
-248.874893 42.692200 -8.848400 0.000000
-235.391602 42.692200 -8.848400 0.000000
-221.908295 42.692200 -8.848400 0.000000
-208.424988 42.692200 -8.848400 0.000000
-194.941696 42.692200 -8.848400 0.000000
-181.458389 42.692200 -8.848400 0.000000
-167.975098 42.692200 -8.848400 0.000000
-154.491791 42.692200 -8.848400 0.000000
-141.008499 42.692200 -8.848400 2.409197
-127.525192 42.692200 -8.848400 3.246845
-114.041885 42.692200 -8.848400 3.171553
-100.558594 42.692200 -8.848400 3.750519
-87.075287 42.692200 -8.848400 3.504077
-73.591980 42.692200 -8.848400 2.712164
-60.108704 42.692200 -8.848400 2.514346
-46.625397 42.692200 -8.848400 1.817968
-33.142090 42.692200 -8.848400 1.601387
-19.658783 42.692200 -8.848400 1.261298
-6.175476 42.692200 -8.848400 0.569800
7.307800 42.692200 -8.848400 -0.548161
20.791107 42.692200 -8.848400 -1.062277
34.274414 42.692200 -8.848400 -1.289196
47.757721 42.692200 -8.848400 -1.522701
61.240997 42.692200 -8.848400 -2.337718
74.724304 42.692200 -8.848400 -2.216750
88.207611 42.692200 -8.848400 -2.224746
101.690918 42.692200 -8.848400 -1.644305
115.174225 42.692200 -8.848400 0.000000
128.657501 42.692200 -8.848400 0.000000
142.140808 42.692200 -8.848400 0.000000
155.624115 42.692200 -8.848400 0.000000
169.107422 42.692200 -8.848400 0.000000
182.590698 42.692200 -8.848400 0.000000
196.074036 42.692200 -8.848400 0.000000
209.557312 42.692200 -8.848400 0.000000
223.040588 42.692200 -8.848400 0.000000
236.523926 42.692200 -8.848400 0.000000
250.007202 42.692200 -8.848400 0.000000
263.490540 42.692200 -8.848400 0.000000
276.973816 42.692200 -8.848400 0.000000
290.457092 42.692200 -8.848400 0.000000
303.940430 42.692200 -8.848400 0.000000
317.423706 42.692200 -8.848400 0.000000
330.907043 42.692200 -8.848400 0.000000
344.390320 42.692200 -8.848400 0.000000
-343.257996 29.208893 -8.848400 0.000000
-329.774689 29.208893 -8.848400 0.000000
-316.291382 29.208893 -8.848400 0.000000
-302.808105 29.208893 -8.848400 0.000000
-289.324799 29.208893 -8.848400 0.000000
-275.841492 29.208893 -8.848400 0.000000
-262.358185 29.208893 -8.848400 0.000000
-248.874893 29.208893 -8.848400 0.000000
-235.391602 29.208893 -8.848400 0.000000
-221.908295 29.208893 -8.848400 0.000000
-208.424988 29.208893 -8.848400 0.000000
-194.941696 29.208893 -8.848400 0.000000
-181.458389 29.208893 -8.848400 0.000000
-167.975098 29.208893 -8.848400 0.000000
-154.491791 29.208893 -8.848400 0.000000
-141.008499 29.208893 -8.848400 0.000000
-127.525192 29.208893 -8.848400 3.022249
-114.041885 29.208893 -8.848400 3.306176
-100.558594 29.208893 -8.848400 3.523213
-87.075287 29.208893 -8.848400 3.522315
-73.591980 29.208893 -8.848400 2.701236
-60.108704 29.208893 -8.848400 1.810358
-46.625397 29.208893 -8.848400 1.610095
-33.142090 29.208893 -8.848400 1.406051
-19.658783 29.208893 -8.848400 0.899696
-6.175476 29.208893 -8.848400 0.582917
7.307800 29.208893 -8.848400 0.066811
20.791107 29.208893 -8.848400 -0.762998
34.274414 29.208893 -8.848400 -1.057271
47.757721 29.208893 -8.848400 -1.325411
61.240997 29.208893 -8.848400 -1.814658
74.724304 29.208893 -8.848400 -2.059625
88.207611 29.208893 -8.848400 -2.241005
101.690918 29.208893 -8.848400 -1.708416
115.174225 29.208893 -8.848400 -1.032843
128.657501 29.208893 -8.848400 0.000000
142.140808 29.208893 -8.848400 0.000000
155.624115 29.208893 -8.848400 0.000000
169.107422 29.208893 -8.848400 0.000000
182.590698 29.208893 -8.848400 0.000000
196.074036 29.208893 -8.848400 0.000000
209.557312 29.208893 -8.848400 0.000000
223.040588 29.208893 -8.848400 0.000000
236.523926 29.208893 -8.848400 0.000000
250.007202 29.208893 -8.848400 0.000000
263.490540 29.208893 -8.848400 0.000000
276.973816 29.208893 -8.848400 0.000000
290.457092 29.208893 -8.848400 0.000000
303.940430 29.208893 -8.848400 0.000000
317.423706 29.208893 -8.848400 0.000000
330.907043 29.208893 -8.848400 0.000000
344.390320 29.208893 -8.848400 0.000000
-343.257996 15.725586 -8.848400 0.000000
-329.774689 15.725586 -8.848400 0.000000
-316.291382 15.725586 -8.848400 0.000000
-302.808105 15.725586 -8.848400 0.000000
-289.324799 15.725586 -8.848400 0.000000
-275.841492 15.725586 -8.848400 0.000000
-262.358185 15.725586 -8.848400 0.000000
-248.874893 15.725586 -8.848400 0.000000
-235.391602 15.725586 -8.848400 0.000000
-221.908295 15.725586 -8.848400 0.000000
-208.424988 15.725586 -8.848400 0.000000
-194.941696 15.725586 -8.848400 0.000000
-181.458389 15.725586 -8.848400 0.000000
-167.975098 15.725586 -8.848400 0.000000
-154.491791 15.725586 -8.848400 0.000000
-141.008499 15.725586 -8.848400 0.000000
-127.525192 15.725586 -8.848400 2.966315
-114.041885 15.725586 -8.848400 2.948049
-100.558594 15.725586 -8.848400 3.081674
-87.075287 15.725586 -8.848400 2.824786
-73.591980 15.725586 -8.848400 2.867993
-60.108704 15.725586 -8.848400 2.262307
-46.625397 15.725586 -8.848400 1.642665
-33.142090 15.725586 -8.848400 1.396203
-19.658783 15.725586 -8.848400 0.939044
-6.175476 15.725586 -8.848400 0.162695
7.307800 15.725586 -8.848400 -0.328433
20.791107 15.725586 -8.848400 -0.896263
34.274414 15.725586 -8.848400 -1.092372
47.757721 15.725586 -8.848400 -1.343190
61.240997 15.725586 -8.848400 -1.847711
74.724304 15.725586 -8.848400 -2.309849
88.207611 15.725586 -8.848400 -2.119541
101.690918 15.725586 -8.848400 -1.573588
115.174225 15.725586 -8.848400 -1.219522
128.657501 15.725586 -8.848400 0.000000
142.140808 15.725586 -8.848400 0.000000
155.624115 15.725586 -8.848400 0.000000
169.107422 15.725586 -8.848400 0.000000
182.590698 15.725586 -8.848400 0.000000
196.074036 15.725586 -8.848400 0.000000
209.557312 15.725586 -8.848400 0.000000
223.040588 15.725586 -8.848400 0.000000
236.523926 15.725586 -8.848400 0.000000
250.007202 15.725586 -8.848400 0.000000
263.490540 15.725586 -8.848400 0.000000
276.973816 15.725586 -8.848400 0.000000
290.457092 15.725586 -8.848400 0.000000
303.940430 15.725586 -8.848400 0.000000
317.423706 15.725586 -8.848400 0.000000
330.907043 15.725586 -8.848400 0.000000
344.390320 15.725586 -8.848400 0.000000
-343.257996 2.242279 -8.848400 0.000000
-329.774689 2.242279 -8.848400 0.000000
-316.291382 2.242279 -8.848400 0.000000
-302.808105 2.242279 -8.848400 0.000000
-289.324799 2.242279 -8.848400 0.000000
-275.841492 2.242279 -8.848400 0.000000
-262.358185 2.242279 -8.848400 0.000000
-248.874893 2.242279 -8.848400 0.000000
-235.391602 2.242279 -8.848400 0.000000
-221.908295 2.242279 -8.848400 0.000000
-208.424988 2.242279 -8.848400 0.000000
-194.941696 2.242279 -8.848400 0.000000
-181.458389 2.242279 -8.848400 0.000000
-167.975098 2.242279 -8.848400 0.000000
-154.491791 2.242279 -8.848400 0.000000
-141.008499 2.242279 -8.848400 0.000000
-127.525192 2.242279 -8.848400 0.000000
-114.041885 2.242279 -8.848400 2.891519
-100.558594 2.242279 -8.848400 2.640887
-87.075287 2.242279 -8.848400 2.460439
-73.591980 2.242279 -8.848400 2.085578
-60.108704 2.242279 -8.848400 1.898654
-46.625397 2.242279 -8.848400 1.420974
-33.142090 2.242279 -8.848400 0.890009
-19.658783 2.242279 -8.848400 0.359355
-6.175476 2.242279 -8.848400 -0.173817
7.307800 2.242279 -8.848400 -0.436032
20.791107 2.242279 -8.848400 -0.921655
34.274414 2.242279 -8.848400 -1.271127
47.757721 2.242279 -8.848400 -1.512699
61.240997 2.242279 -8.848400 -1.941355
74.724304 2.242279 -8.848400 -2.357884
88.207611 2.242279 -8.848400 -2.199607
101.690918 2.242279 -8.848400 -1.528338
115.174225 2.242279 -8.848400 -1.043517
128.657501 2.242279 -8.848400 0.000000
142.140808 2.242279 -8.848400 0.000000
155.624115 2.242279 -8.848400 0.000000
169.107422 2.242279 -8.848400 0.000000
182.590698 2.242279 -8.848400 0.000000
196.074036 2.242279 -8.848400 0.000000
209.557312 2.242279 -8.848400 0.000000
223.040588 2.242279 -8.848400 0.000000
236.523926 2.242279 -8.848400 0.000000
250.007202 2.242279 -8.848400 0.000000
263.490540 2.242279 -8.848400 0.000000
276.973816 2.242279 -8.848400 0.000000
290.457092 2.242279 -8.848400 0.000000
303.940430 2.242279 -8.848400 0.000000
317.423706 2.242279 -8.848400 0.000000
330.907043 2.242279 -8.848400 0.000000
344.390320 2.242279 -8.848400 0.000000
-343.257996 -11.240997 -8.848400 0.000000
-329.774689 -11.240997 -8.848400 0.000000
-316.291382 -11.240997 -8.848400 0.000000
-302.808105 -11.240997 -8.848400 0.000000
-289.324799 -11.240997 -8.848400 0.000000
-275.841492 -11.240997 -8.848400 0.000000
-262.358185 -11.240997 -8.848400 0.000000
-248.874893 -11.240997 -8.848400 0.000000
-235.391602 -11.240997 -8.848400 0.000000
-221.908295 -11.240997 -8.848400 0.000000
-208.424988 -11.240997 -8.848400 0.000000
-194.941696 -11.240997 -8.848400 0.000000
-181.458389 -11.240997 -8.848400 0.000000
-167.975098 -11.240997 -8.848400 0.000000
-154.491791 -11.240997 -8.848400 0.000000
-141.008499 -11.240997 -8.848400 0.000000
-127.525192 -11.240997 -8.848400 0.000000
-114.041885 -11.240997 -8.848400 0.000000
-100.558594 -11.240997 -8.848400 1.931516
-87.075287 -11.240997 -8.848400 1.687389
-73.591980 -11.240997 -8.848400 1.660671
-60.108704 -11.240997 -8.848400 1.498140
-46.625397 -11.240997 -8.848400 1.144162
-33.142090 -11.240997 -8.848400 1.065846
-19.658783 -11.240997 -8.848400 0.210893
-6.175476 -11.240997 -8.848400 -0.474839
7.307800 -11.240997 -8.848400 -0.924983
20.791107 -11.240997 -8.848400 -1.231954
34.274414 -11.240997 -8.848400 -1.325491
47.757721 -11.240997 -8.848400 -1.765401
61.240997 -11.240997 -8.848400 -2.288752
74.724304 -11.240997 -8.848400 -2.583525
88.207611 -11.240997 -8.848400 -2.302040
101.690918 -11.240997 -8.848400 -1.555088
115.174225 -11.240997 -8.848400 0.000000
128.657501 -11.240997 -8.848400 0.000000
142.140808 -11.240997 -8.848400 0.000000
155.624115 -11.240997 -8.848400 0.000000
169.107422 -11.240997 -8.848400 0.000000
182.590698 -11.240997 -8.848400 0.000000
196.074036 -11.240997 -8.848400 0.000000
209.557312 -11.240997 -8.848400 0.000000
223.040588 -11.240997 -8.848400 0.000000
236.523926 -11.240997 -8.848400 0.000000
250.007202 -11.240997 -8.848400 0.000000
263.490540 -11.240997 -8.848400 0.000000
276.973816 -11.240997 -8.848400 0.000000
290.457092 -11.240997 -8.848400 0.000000
303.940430 -11.240997 -8.848400 0.000000
317.423706 -11.240997 -8.848400 0.000000
330.907043 -11.240997 -8.848400 0.000000
344.390320 -11.240997 -8.848400 0.000000
-343.257996 -24.724304 -8.848400 0.000000
-329.774689 -24.724304 -8.848400 0.000000
-316.291382 -24.724304 -8.848400 0.000000
-302.808105 -24.724304 -8.848400 0.000000
-289.324799 -24.724304 -8.848400 0.000000
-275.841492 -24.724304 -8.848400 0.000000
-262.358185 -24.724304 -8.848400 0.000000
-248.874893 -24.724304 -8.848400 0.000000
-235.391602 -24.724304 -8.848400 0.000000
-221.908295 -24.724304 -8.848400 0.000000
-208.424988 -24.724304 -8.848400 0.000000
-194.941696 -24.724304 -8.848400 0.000000
-181.458389 -24.724304 -8.848400 0.000000
-167.975098 -24.724304 -8.848400 0.000000
-154.491791 -24.724304 -8.848400 0.000000
-141.008499 -24.724304 -8.848400 0.000000
-127.525192 -24.724304 -8.848400 0.000000
-114.041885 -24.724304 -8.848400 0.000000
-100.558594 -24.724304 -8.848400 1.125865
-87.075287 -24.724304 -8.848400 1.414275
-73.591980 -24.724304 -8.848400 1.407664
-60.108704 -24.724304 -8.848400 1.049880
-46.625397 -24.724304 -8.848400 1.006390
-33.142090 -24.724304 -8.848400 0.772407
-19.658783 -24.724304 -8.848400 -0.057465
-6.175476 -24.724304 -8.848400 -0.682575
7.307800 -24.724304 -8.848400 -0.944154
20.791107 -24.724304 -8.848400 -1.527905
34.274414 -24.724304 -8.848400 -1.685882
47.757721 -24.724304 -8.848400 -2.194197
61.240997 -24.724304 -8.848400 -2.166638
74.724304 -24.724304 -8.848400 -2.066832
88.207611 -24.724304 -8.848400 -1.626869
101.690918 -24.724304 -8.848400 -1.182116
115.174225 -24.724304 -8.848400 0.000000
128.657501 -24.724304 -8.848400 0.000000
142.140808 -24.724304 -8.848400 0.000000
155.624115 -24.724304 -8.848400 0.000000
169.107422 -24.724304 -8.848400 0.000000
182.590698 -24.724304 -8.848400 0.000000
196.074036 -24.724304 -8.848400 0.000000
209.557312 -24.724304 -8.848400 0.000000
223.040588 -24.724304 -8.848400 0.000000
236.523926 -24.724304 -8.848400 0.000000
250.007202 -24.724304 -8.848400 0.000000
263.490540 -24.724304 -8.848400 0.000000
276.973816 -24.724304 -8.848400 0.000000
290.457092 -24.724304 -8.848400 0.000000
303.940430 -24.724304 -8.848400 0.000000
317.423706 -24.724304 -8.848400 0.000000
330.907043 -24.724304 -8.848400 0.000000
344.390320 -24.724304 -8.848400 0.000000
-343.257996 -38.207611 -8.848400 0.000000
-329.774689 -38.207611 -8.848400 0.000000
-316.291382 -38.207611 -8.848400 0.000000
-302.808105 -38.207611 -8.848400 0.000000
-289.324799 -38.207611 -8.848400 0.000000
-275.841492 -38.207611 -8.848400 0.000000
-262.358185 -38.207611 -8.848400 0.000000
-248.874893 -38.207611 -8.848400 0.000000
-235.391602 -38.207611 -8.848400 0.000000
-221.908295 -38.207611 -8.848400 0.000000
-208.424988 -38.207611 -8.848400 0.000000
-194.941696 -38.207611 -8.848400 0.000000
-181.458389 -38.207611 -8.848400 0.000000
-167.975098 -38.207611 -8.848400 0.000000
-154.491791 -38.207611 -8.848400 0.000000
-141.008499 -38.207611 -8.848400 0.000000
-127.525192 -38.207611 -8.848400 0.000000
-114.041885 -38.207611 -8.848400 0.000000
-100.558594 -38.207611 -8.848400 0.938276
-87.075287 -38.207611 -8.848400 0.292306
-73.591980 -38.207611 -8.848400 0.377182
-60.108704 -38.207611 -8.848400 0.448546
-46.625397 -38.207611 -8.848400 0.413627
-33.142090 -38.207611 -8.848400 0.344631
-19.658783 -38.207611 -8.848400 -0.083423
-6.175476 -38.207611 -8.848400 -0.702049
7.307800 -38.207611 -8.848400 -1.261523
20.791107 -38.207611 -8.848400 -1.815212
34.274414 -38.207611 -8.848400 -1.997453
47.757721 -38.207611 -8.848400 -2.233000
61.240997 -38.207611 -8.848400 -1.693002
74.724304 -38.207611 -8.848400 -1.393994
88.207611 -38.207611 -8.848400 -1.310698
101.690918 -38.207611 -8.848400 0.000000
115.174225 -38.207611 -8.848400 0.000000
128.657501 -38.207611 -8.848400 0.000000
142.140808 -38.207611 -8.848400 0.000000
155.624115 -38.207611 -8.848400 0.000000
169.107422 -38.207611 -8.848400 0.000000
182.590698 -38.207611 -8.848400 0.000000
196.074036 -38.207611 -8.848400 0.000000
209.557312 -38.207611 -8.848400 0.000000
223.040588 -38.207611 -8.848400 0.000000
236.523926 -38.207611 -8.848400 0.000000
250.007202 -38.207611 -8.848400 0.000000
263.490540 -38.207611 -8.848400 0.000000
276.973816 -38.207611 -8.848400 0.000000
290.457092 -38.207611 -8.848400 0.000000
303.940430 -38.207611 -8.848400 0.000000
317.423706 -38.207611 -8.848400 0.000000
330.907043 -38.207611 -8.848400 0.000000
344.390320 -38.207611 -8.848400 0.000000
-343.257996 -51.690918 -8.848400 0.000000
-329.774689 -51.690918 -8.848400 0.000000
-316.291382 -51.690918 -8.848400 0.000000
-302.808105 -51.690918 -8.848400 0.000000
-289.324799 -51.690918 -8.848400 0.000000
-275.841492 -51.690918 -8.848400 0.000000
-262.358185 -51.690918 -8.848400 0.000000
-248.874893 -51.690918 -8.848400 0.000000
-235.391602 -51.690918 -8.848400 0.000000
-221.908295 -51.690918 -8.848400 0.000000
-208.424988 -51.690918 -8.848400 0.000000
-194.941696 -51.690918 -8.848400 0.000000
-181.458389 -51.690918 -8.848400 0.000000
-167.975098 -51.690918 -8.848400 0.000000
-154.491791 -51.690918 -8.848400 0.000000
-141.008499 -51.690918 -8.848400 0.000000
-127.525192 -51.690918 -8.848400 0.000000
-114.041885 -51.690918 -8.848400 0.000000
-100.558594 -51.690918 -8.848400 0.000000
-87.075287 -51.690918 -8.848400 -0.144065
-73.591980 -51.690918 -8.848400 0.208980
-60.108704 -51.690918 -8.848400 0.376550
-46.625397 -51.690918 -8.848400 -0.024031
-33.142090 -51.690918 -8.848400 -0.609567
-19.658783 -51.690918 -8.848400 -0.902421
-6.175476 -51.690918 -8.848400 -1.346538
7.307800 -51.690918 -8.848400 -1.676787
20.791107 -51.690918 -8.848400 -1.952822
34.274414 -51.690918 -8.848400 -2.062325
47.757721 -51.690918 -8.848400 -1.881976
61.240997 -51.690918 -8.848400 -1.172350
74.724304 -51.690918 -8.848400 -0.747699
88.207611 -51.690918 -8.848400 0.000000
101.690918 -51.690918 -8.848400 0.000000
115.174225 -51.690918 -8.848400 0.000000
128.657501 -51.690918 -8.848400 0.000000
142.140808 -51.690918 -8.848400 0.000000
155.624115 -51.690918 -8.848400 0.000000
169.107422 -51.690918 -8.848400 0.000000
182.590698 -51.690918 -8.848400 0.000000
196.074036 -51.690918 -8.848400 0.000000
209.557312 -51.690918 -8.848400 0.000000
223.040588 -51.690918 -8.848400 0.000000
236.523926 -51.690918 -8.848400 0.000000
250.007202 -51.690918 -8.848400 0.000000
263.490540 -51.690918 -8.848400 0.000000
276.973816 -51.690918 -8.848400 0.000000
290.457092 -51.690918 -8.848400 0.000000
303.940430 -51.690918 -8.848400 0.000000
317.423706 -51.690918 -8.848400 0.000000
330.907043 -51.690918 -8.848400 0.000000
344.390320 -51.690918 -8.848400 0.000000
-343.257996 -65.174225 -8.848400 0.000000
-329.774689 -65.174225 -8.848400 0.000000
-316.291382 -65.174225 -8.848400 0.000000
-302.808105 -65.174225 -8.848400 0.000000
-289.324799 -65.174225 -8.848400 0.000000
-275.841492 -65.174225 -8.848400 0.000000
-262.358185 -65.174225 -8.848400 0.000000
-248.874893 -65.174225 -8.848400 0.000000
-235.391602 -65.174225 -8.848400 0.000000
-221.908295 -65.174225 -8.848400 0.000000
-208.424988 -65.174225 -8.848400 0.000000
-194.941696 -65.174225 -8.848400 0.000000
-181.458389 -65.174225 -8.848400 0.000000
-167.975098 -65.174225 -8.848400 0.000000
-154.491791 -65.174225 -8.848400 0.000000
-141.008499 -65.174225 -8.848400 0.000000
-127.525192 -65.174225 -8.848400 0.000000
-114.041885 -65.174225 -8.848400 0.000000
-100.558594 -65.174225 -8.848400 0.000000
-87.075287 -65.174225 -8.848400 -0.348782
-73.591980 -65.174225 -8.848400 -0.028117
-60.108704 -65.174225 -8.848400 -0.254455
-46.625397 -65.174225 -8.848400 -0.404282
-33.142090 -65.174225 -8.848400 -0.869279
-19.658783 -65.174225 -8.848400 -1.466218
-6.175476 -65.174225 -8.848400 -1.548677
7.307800 -65.174225 -8.848400 -1.938411
20.791107 -65.174225 -8.848400 -1.975010
34.274414 -65.174225 -8.848400 -2.006793
47.757721 -65.174225 -8.848400 -1.459952
61.240997 -65.174225 -8.848400 0.000000
74.724304 -65.174225 -8.848400 0.000000
88.207611 -65.174225 -8.848400 0.000000
101.690918 -65.174225 -8.848400 0.000000
115.174225 -65.174225 -8.848400 0.000000
128.657501 -65.174225 -8.848400 0.000000
142.140808 -65.174225 -8.848400 0.000000
155.624115 -65.174225 -8.848400 0.000000
169.107422 -65.174225 -8.848400 0.000000
182.590698 -65.174225 -8.848400 0.000000
196.074036 -65.174225 -8.848400 0.000000
209.557312 -65.174225 -8.848400 0.000000
223.040588 -65.174225 -8.848400 0.000000
236.523926 -65.174225 -8.848400 0.000000
250.007202 -65.174225 -8.848400 0.000000
263.490540 -65.174225 -8.848400 0.000000
276.973816 -65.174225 -8.848400 0.000000
290.457092 -65.174225 -8.848400 0.000000
303.940430 -65.174225 -8.848400 0.000000
317.423706 -65.174225 -8.848400 0.000000
330.907043 -65.174225 -8.848400 0.000000
344.390320 -65.174225 -8.848400 0.000000
-343.257996 -78.657501 -8.848400 0.000000
-329.774689 -78.657501 -8.848400 0.000000
-316.291382 -78.657501 -8.848400 0.000000
-302.808105 -78.657501 -8.848400 0.000000
-289.324799 -78.657501 -8.848400 0.000000
-275.841492 -78.657501 -8.848400 0.000000
-262.358185 -78.657501 -8.848400 0.000000
-248.874893 -78.657501 -8.848400 0.000000
-235.391602 -78.657501 -8.848400 0.000000
-221.908295 -78.657501 -8.848400 0.000000
-208.424988 -78.657501 -8.848400 0.000000
-194.941696 -78.657501 -8.848400 0.000000
-181.458389 -78.657501 -8.848400 0.000000
-167.975098 -78.657501 -8.848400 0.000000
-154.491791 -78.657501 -8.848400 0.000000
-141.008499 -78.657501 -8.848400 0.000000
-127.525192 -78.657501 -8.848400 0.000000
-114.041885 -78.657501 -8.848400 0.000000
-100.558594 -78.657501 -8.848400 0.000000
-87.075287 -78.657501 -8.848400 0.000000
-73.591980 -78.657501 -8.848400 -0.805939
-60.108704 -78.657501 -8.848400 -0.807751
-46.625397 -78.657501 -8.848400 -0.487252
-33.142090 -78.657501 -8.848400 -0.931123
-19.658783 -78.657501 -8.848400 -1.264776
-6.175476 -78.657501 -8.848400 -1.522681
7.307800 -78.657501 -8.848400 -1.588030
20.791107 -78.657501 -8.848400 -1.672258
34.274414 -78.657501 -8.848400 -1.670764
47.757721 -78.657501 -8.848400 0.000000
61.240997 -78.657501 -8.848400 0.000000
74.724304 -78.657501 -8.848400 0.000000
88.207611 -78.657501 -8.848400 0.000000
101.690918 -78.657501 -8.848400 0.000000
115.174225 -78.657501 -8.848400 0.000000
128.657501 -78.657501 -8.848400 0.000000
142.140808 -78.657501 -8.848400 0.000000
155.624115 -78.657501 -8.848400 0.000000
169.107422 -78.657501 -8.848400 0.000000
182.590698 -78.657501 -8.848400 0.000000
196.074036 -78.657501 -8.848400 0.000000
209.557312 -78.657501 -8.848400 0.000000
223.040588 -78.657501 -8.848400 0.000000
236.523926 -78.657501 -8.848400 0.000000
250.007202 -78.657501 -8.848400 0.000000
263.490540 -78.657501 -8.848400 0.000000
276.973816 -78.657501 -8.848400 0.000000
290.457092 -78.657501 -8.848400 0.000000
303.940430 -78.657501 -8.848400 0.000000
317.423706 -78.657501 -8.848400 0.000000
330.907043 -78.657501 -8.848400 0.000000
344.390320 -78.657501 -8.848400 0.000000
-343.257996 -92.140808 -8.848400 0.000000
-329.774689 -92.140808 -8.848400 0.000000
-316.291382 -92.140808 -8.848400 0.000000
-302.808105 -92.140808 -8.848400 0.000000
-289.324799 -92.140808 -8.848400 0.000000
-275.841492 -92.140808 -8.848400 0.000000
-262.358185 -92.140808 -8.848400 0.000000
-248.874893 -92.140808 -8.848400 0.000000
-235.391602 -92.140808 -8.848400 0.000000
-221.908295 -92.140808 -8.848400 0.000000
-208.424988 -92.140808 -8.848400 0.000000
-194.941696 -92.140808 -8.848400 0.000000
-181.458389 -92.140808 -8.848400 0.000000
-167.975098 -92.140808 -8.848400 0.000000
-154.491791 -92.140808 -8.848400 0.000000
-141.008499 -92.140808 -8.848400 0.000000
-127.525192 -92.140808 -8.848400 0.000000
-114.041885 -92.140808 -8.848400 0.000000
-100.558594 -92.140808 -8.848400 0.000000
-87.075287 -92.140808 -8.848400 0.000000
-73.591980 -92.140808 -8.848400 -0.548553
-60.108704 -92.140808 -8.848400 -1.156433
-46.625397 -92.140808 -8.848400 -0.678782
-33.142090 -92.140808 -8.848400 -0.464199
-19.658783 -92.140808 -8.848400 -1.025319
-6.175476 -92.140808 -8.848400 -1.193801
7.307800 -92.140808 -8.848400 0.000000
20.791107 -92.140808 -8.848400 0.000000
34.274414 -92.140808 -8.848400 0.000000
47.757721 -92.140808 -8.848400 0.000000
61.240997 -92.140808 -8.848400 0.000000
74.724304 -92.140808 -8.848400 0.000000
88.207611 -92.140808 -8.848400 0.000000
101.690918 -92.140808 -8.848400 0.000000
115.174225 -92.140808 -8.848400 0.000000
128.657501 -92.140808 -8.848400 0.000000
142.140808 -92.140808 -8.848400 0.000000
155.624115 -92.140808 -8.848400 0.000000
169.107422 -92.140808 -8.848400 0.000000
182.590698 -92.140808 -8.848400 0.000000
196.074036 -92.140808 -8.848400 0.000000
209.557312 -92.140808 -8.848400 0.000000
223.040588 -92.140808 -8.848400 0.000000
236.523926 -92.140808 -8.848400 0.000000
250.007202 -92.140808 -8.848400 0.000000
263.490540 -92.140808 -8.848400 0.000000
276.973816 -92.140808 -8.848400 0.000000
290.457092 -92.140808 -8.848400 0.000000
303.940430 -92.140808 -8.848400 0.000000
317.423706 -92.140808 -8.848400 0.000000
330.907043 -92.140808 -8.848400 0.000000
344.390320 -92.140808 -8.848400 0.000000
-343.257996 -105.624115 -8.848400 0.000000
-329.774689 -105.624115 -8.848400 0.000000
-316.291382 -105.624115 -8.848400 0.000000
-302.808105 -105.624115 -8.848400 0.000000
-289.324799 -105.624115 -8.848400 0.000000
-275.841492 -105.624115 -8.848400 0.000000
-262.358185 -105.624115 -8.848400 0.000000
-248.874893 -105.624115 -8.848400 0.000000
-235.391602 -105.624115 -8.848400 0.000000
-221.908295 -105.624115 -8.848400 0.000000
-208.424988 -105.624115 -8.848400 0.000000
-194.941696 -105.624115 -8.848400 0.000000
-181.458389 -105.624115 -8.848400 0.000000
-167.975098 -105.624115 -8.848400 0.000000
-154.491791 -105.624115 -8.848400 0.000000
-141.008499 -105.624115 -8.848400 0.000000
-127.525192 -105.624115 -8.848400 0.000000
-114.041885 -105.624115 -8.848400 0.000000
-100.558594 -105.624115 -8.848400 0.000000
-87.075287 -105.624115 -8.848400 0.000000
-73.591980 -105.624115 -8.848400 0.000000
-60.108704 -105.624115 -8.848400 0.000000
-46.625397 -105.624115 -8.848400 0.000000
-33.142090 -105.624115 -8.848400 0.000000
-19.658783 -105.624115 -8.848400 0.000000
-6.175476 -105.624115 -8.848400 0.000000
7.307800 -105.624115 -8.848400 0.000000
20.791107 -105.624115 -8.848400 0.000000
34.274414 -105.624115 -8.848400 0.000000
47.757721 -105.624115 -8.848400 0.000000
61.240997 -105.624115 -8.848400 0.000000
74.724304 -105.624115 -8.848400 0.000000
88.207611 -105.624115 -8.848400 0.000000
101.690918 -105.624115 -8.848400 0.000000
115.174225 -105.624115 -8.848400 0.000000
128.657501 -105.624115 -8.848400 0.000000
142.140808 -105.624115 -8.848400 0.000000
155.624115 -105.624115 -8.848400 0.000000
169.107422 -105.624115 -8.848400 0.000000
182.590698 -105.624115 -8.848400 0.000000
196.074036 -105.624115 -8.848400 0.000000
209.557312 -105.624115 -8.848400 0.000000
223.040588 -105.624115 -8.848400 0.000000
236.523926 -105.624115 -8.848400 0.000000
250.007202 -105.624115 -8.848400 0.000000
263.490540 -105.624115 -8.848400 0.000000
276.973816 -105.624115 -8.848400 0.000000
290.457092 -105.624115 -8.848400 0.000000
303.940430 -105.624115 -8.848400 0.000000
317.423706 -105.624115 -8.848400 0.000000
330.907043 -105.624115 -8.848400 0.000000
344.390320 -105.624115 -8.848400 0.000000
-343.257996 -119.107422 -8.848400 0.000000
-329.774689 -119.107422 -8.848400 0.000000
-316.291382 -119.107422 -8.848400 0.000000
-302.808105 -119.107422 -8.848400 0.000000
-289.324799 -119.107422 -8.848400 0.000000
-275.841492 -119.107422 -8.848400 0.000000
-262.358185 -119.107422 -8.848400 0.000000
-248.874893 -119.107422 -8.848400 0.000000
-235.391602 -119.107422 -8.848400 0.000000
-221.908295 -119.107422 -8.848400 0.000000
-208.424988 -119.107422 -8.848400 0.000000
-194.941696 -119.107422 -8.848400 0.000000
-181.458389 -119.107422 -8.848400 0.000000
-167.975098 -119.107422 -8.848400 0.000000
-154.491791 -119.107422 -8.848400 0.000000
-141.008499 -119.107422 -8.848400 0.000000
-127.525192 -119.107422 -8.848400 0.000000
-114.041885 -119.107422 -8.848400 0.000000
-100.558594 -119.107422 -8.848400 0.000000
-87.075287 -119.107422 -8.848400 0.000000
-73.591980 -119.107422 -8.848400 0.000000
-60.108704 -119.107422 -8.848400 0.000000
-46.625397 -119.107422 -8.848400 0.000000
-33.142090 -119.107422 -8.848400 0.000000
-19.658783 -119.107422 -8.848400 0.000000
-6.175476 -119.107422 -8.848400 0.000000
7.307800 -119.107422 -8.848400 0.000000
20.791107 -119.107422 -8.848400 0.000000
34.274414 -119.107422 -8.848400 0.000000
47.757721 -119.107422 -8.848400 0.000000
61.240997 -119.107422 -8.848400 0.000000
74.724304 -119.107422 -8.848400 0.000000
88.207611 -119.107422 -8.848400 0.000000
101.690918 -119.107422 -8.848400 0.000000
115.174225 -119.107422 -8.848400 0.000000
128.657501 -119.107422 -8.848400 0.000000
142.140808 -119.107422 -8.848400 0.000000
155.624115 -119.107422 -8.848400 0.000000
169.107422 -119.107422 -8.848400 0.000000
182.590698 -119.107422 -8.848400 0.000000
196.074036 -119.107422 -8.848400 0.000000
209.557312 -119.107422 -8.848400 0.000000
223.040588 -119.107422 -8.848400 0.000000
236.523926 -119.107422 -8.848400 0.000000
250.007202 -119.107422 -8.848400 0.000000
263.490540 -119.107422 -8.848400 0.000000
276.973816 -119.107422 -8.848400 0.000000
290.457092 -119.107422 -8.848400 0.000000
303.940430 -119.107422 -8.848400 0.000000
317.423706 -119.107422 -8.848400 0.000000
330.907043 -119.107422 -8.848400 0.000000
344.390320 -119.107422 -8.848400 0.000000
-343.257996 -132.590698 -8.848400 0.000000
-329.774689 -132.590698 -8.848400 0.000000
-316.291382 -132.590698 -8.848400 0.000000
-302.808105 -132.590698 -8.848400 0.000000
-289.324799 -132.590698 -8.848400 0.000000
-275.841492 -132.590698 -8.848400 0.000000
-262.358185 -132.590698 -8.848400 0.000000
-248.874893 -132.590698 -8.848400 0.000000
-235.391602 -132.590698 -8.848400 0.000000
-221.908295 -132.590698 -8.848400 0.000000
-208.424988 -132.590698 -8.848400 0.000000
-194.941696 -132.590698 -8.848400 0.000000
-181.458389 -132.590698 -8.848400 0.000000
-167.975098 -132.590698 -8.848400 0.000000
-154.491791 -132.590698 -8.848400 0.000000
-141.008499 -132.590698 -8.848400 0.000000
-127.525192 -132.590698 -8.848400 0.000000
-114.041885 -132.590698 -8.848400 0.000000
-100.558594 -132.590698 -8.848400 0.000000
-87.075287 -132.590698 -8.848400 0.000000
-73.591980 -132.590698 -8.848400 0.000000
-60.108704 -132.590698 -8.848400 0.000000
-46.625397 -132.590698 -8.848400 0.000000
-33.142090 -132.590698 -8.848400 0.000000
-19.658783 -132.590698 -8.848400 0.000000
-6.175476 -132.590698 -8.848400 0.000000
7.307800 -132.590698 -8.848400 0.000000
20.791107 -132.590698 -8.848400 0.000000
34.274414 -132.590698 -8.848400 0.000000
47.757721 -132.590698 -8.848400 0.000000
61.240997 -132.590698 -8.848400 0.000000
74.724304 -132.590698 -8.848400 0.000000
88.207611 -132.590698 -8.848400 0.000000
101.690918 -132.590698 -8.848400 0.000000
115.174225 -132.590698 -8.848400 0.000000
128.657501 -132.590698 -8.848400 0.000000
142.140808 -132.590698 -8.848400 0.000000
155.624115 -132.590698 -8.848400 0.000000
169.107422 -132.590698 -8.848400 0.000000
182.590698 -132.590698 -8.848400 0.000000
196.074036 -132.590698 -8.848400 0.000000
209.557312 -132.590698 -8.848400 0.000000
223.040588 -132.590698 -8.848400 0.000000
236.523926 -132.590698 -8.848400 0.000000
250.007202 -132.590698 -8.848400 0.000000
263.490540 -132.590698 -8.848400 0.000000
276.973816 -132.590698 -8.848400 0.000000
290.457092 -132.590698 -8.848400 0.000000
303.940430 -132.590698 -8.848400 0.000000
317.423706 -132.590698 -8.848400 0.000000
330.907043 -132.590698 -8.848400 0.000000
344.390320 -132.590698 -8.848400 0.000000
-343.257996 -146.074036 -8.848400 0.000000
-329.774689 -146.074036 -8.848400 0.000000
-316.291382 -146.074036 -8.848400 0.000000
-302.808105 -146.074036 -8.848400 0.000000
-289.324799 -146.074036 -8.848400 0.000000
-275.841492 -146.074036 -8.848400 0.000000
-262.358185 -146.074036 -8.848400 0.000000
-248.874893 -146.074036 -8.848400 0.000000
-235.391602 -146.074036 -8.848400 0.000000
-221.908295 -146.074036 -8.848400 0.000000
-208.424988 -146.074036 -8.848400 0.000000
-194.941696 -146.074036 -8.848400 0.000000
-181.458389 -146.074036 -8.848400 0.000000
-167.975098 -146.074036 -8.848400 0.000000
-154.491791 -146.074036 -8.848400 0.000000
-141.008499 -146.074036 -8.848400 0.000000
-127.525192 -146.074036 -8.848400 0.000000
-114.041885 -146.074036 -8.848400 0.000000
-100.558594 -146.074036 -8.848400 0.000000
-87.075287 -146.074036 -8.848400 0.000000
-73.591980 -146.074036 -8.848400 0.000000
-60.108704 -146.074036 -8.848400 0.000000
-46.625397 -146.074036 -8.848400 0.000000
-33.142090 -146.074036 -8.848400 0.000000
-19.658783 -146.074036 -8.848400 0.000000
-6.175476 -146.074036 -8.848400 0.000000
7.307800 -146.074036 -8.848400 0.000000
20.791107 -146.074036 -8.848400 0.000000
34.274414 -146.074036 -8.848400 0.000000
47.757721 -146.074036 -8.848400 0.000000
61.240997 -146.074036 -8.848400 0.000000
74.724304 -146.074036 -8.848400 0.000000
88.207611 -146.074036 -8.848400 0.000000
101.690918 -146.074036 -8.848400 0.000000
115.174225 -146.074036 -8.848400 0.000000
128.657501 -146.074036 -8.848400 0.000000
142.140808 -146.074036 -8.848400 0.000000
155.624115 -146.074036 -8.848400 0.000000
169.107422 -146.074036 -8.848400 0.000000
182.590698 -146.074036 -8.848400 0.000000
196.074036 -146.074036 -8.848400 0.000000
209.557312 -146.074036 -8.848400 0.000000
223.040588 -146.074036 -8.848400 0.000000
236.523926 -146.074036 -8.848400 0.000000
250.007202 -146.074036 -8.848400 0.000000
263.490540 -146.074036 -8.848400 0.000000
276.973816 -146.074036 -8.848400 0.000000
290.457092 -146.074036 -8.848400 0.000000
303.940430 -146.074036 -8.848400 0.000000
317.423706 -146.074036 -8.848400 0.000000
330.907043 -146.074036 -8.848400 0.000000
344.390320 -146.074036 -8.848400 0.000000
-343.257996 -159.557312 -8.848400 0.000000
-329.774689 -159.557312 -8.848400 0.000000
-316.291382 -159.557312 -8.848400 0.000000
-302.808105 -159.557312 -8.848400 0.000000
-289.324799 -159.557312 -8.848400 0.000000
-275.841492 -159.557312 -8.848400 0.000000
-262.358185 -159.557312 -8.848400 0.000000
-248.874893 -159.557312 -8.848400 0.000000
-235.391602 -159.557312 -8.848400 0.000000
-221.908295 -159.557312 -8.848400 0.000000
-208.424988 -159.557312 -8.848400 0.000000
-194.941696 -159.557312 -8.848400 0.000000
-181.458389 -159.557312 -8.848400 0.000000
-167.975098 -159.557312 -8.848400 0.000000
-154.491791 -159.557312 -8.848400 0.000000
-141.008499 -159.557312 -8.848400 0.000000
-127.525192 -159.557312 -8.848400 0.000000
-114.041885 -159.557312 -8.848400 0.000000
-100.558594 -159.557312 -8.848400 0.000000
-87.075287 -159.557312 -8.848400 0.000000
-73.591980 -159.557312 -8.848400 0.000000
-60.108704 -159.557312 -8.848400 0.000000
-46.625397 -159.557312 -8.848400 0.000000
-33.142090 -159.557312 -8.848400 0.000000
-19.658783 -159.557312 -8.848400 0.000000
-6.175476 -159.557312 -8.848400 0.000000
7.307800 -159.557312 -8.848400 0.000000
20.791107 -159.557312 -8.848400 0.000000
34.274414 -159.557312 -8.848400 0.000000
47.757721 -159.557312 -8.848400 0.000000
61.240997 -159.557312 -8.848400 0.000000
74.724304 -159.557312 -8.848400 0.000000
88.207611 -159.557312 -8.848400 0.000000
101.690918 -159.557312 -8.848400 0.000000
115.174225 -159.557312 -8.848400 0.000000
128.657501 -159.557312 -8.848400 0.000000
142.140808 -159.557312 -8.848400 0.000000
155.624115 -159.557312 -8.848400 0.000000
169.107422 -159.557312 -8.848400 0.000000
182.590698 -159.557312 -8.848400 0.000000
196.074036 -159.557312 -8.848400 0.000000
209.557312 -159.557312 -8.848400 0.000000
223.040588 -159.557312 -8.848400 0.000000
236.523926 -159.557312 -8.848400 0.000000
250.007202 -159.557312 -8.848400 0.000000
263.490540 -159.557312 -8.848400 0.000000
276.973816 -159.557312 -8.848400 0.000000
290.457092 -159.557312 -8.848400 0.000000
303.940430 -159.557312 -8.848400 0.000000
317.423706 -159.557312 -8.848400 0.000000
330.907043 -159.557312 -8.848400 0.000000
344.390320 -159.557312 -8.848400 0.000000
-343.257996 -173.040588 -8.848400 0.000000
-329.774689 -173.040588 -8.848400 0.000000
-316.291382 -173.040588 -8.848400 0.000000
-302.808105 -173.040588 -8.848400 0.000000
-289.324799 -173.040588 -8.848400 0.000000
-275.841492 -173.040588 -8.848400 0.000000
-262.358185 -173.040588 -8.848400 0.000000
-248.874893 -173.040588 -8.848400 0.000000
-235.391602 -173.040588 -8.848400 0.000000
-221.908295 -173.040588 -8.848400 0.000000
-208.424988 -173.040588 -8.848400 0.000000
-194.941696 -173.040588 -8.848400 0.000000
-181.458389 -173.040588 -8.848400 0.000000
-167.975098 -173.040588 -8.848400 0.000000
-154.491791 -173.040588 -8.848400 0.000000
-141.008499 -173.040588 -8.848400 0.000000
-127.525192 -173.040588 -8.848400 0.000000
-114.041885 -173.040588 -8.848400 0.000000
-100.558594 -173.040588 -8.848400 0.000000
-87.075287 -173.040588 -8.848400 0.000000
-73.591980 -173.040588 -8.848400 0.000000
-60.108704 -173.040588 -8.848400 0.000000
-46.625397 -173.040588 -8.848400 0.000000
-33.142090 -173.040588 -8.848400 0.000000
-19.658783 -173.040588 -8.848400 0.000000
-6.175476 -173.040588 -8.848400 0.000000
7.307800 -173.040588 -8.848400 0.000000
20.791107 -173.040588 -8.848400 0.000000
34.274414 -173.040588 -8.848400 0.000000
47.757721 -173.040588 -8.848400 0.000000
61.240997 -173.040588 -8.848400 0.000000
74.724304 -173.040588 -8.848400 0.000000
88.207611 -173.040588 -8.848400 0.000000
101.690918 -173.040588 -8.848400 0.000000
115.174225 -173.040588 -8.848400 0.000000
128.657501 -173.040588 -8.848400 0.000000
142.140808 -173.040588 -8.848400 0.000000
155.624115 -173.040588 -8.848400 0.000000
169.107422 -173.040588 -8.848400 0.000000
182.590698 -173.040588 -8.848400 0.000000
196.074036 -173.040588 -8.848400 0.000000
209.557312 -173.040588 -8.848400 0.000000
223.040588 -173.040588 -8.848400 0.000000
236.523926 -173.040588 -8.848400 0.000000
250.007202 -173.040588 -8.848400 0.000000
263.490540 -173.040588 -8.848400 0.000000
276.973816 -173.040588 -8.848400 0.000000
290.457092 -173.040588 -8.848400 0.000000
303.940430 -173.040588 -8.848400 0.000000
317.423706 -173.040588 -8.848400 0.000000
330.907043 -173.040588 -8.848400 0.000000
344.390320 -173.040588 -8.848400 0.000000
-343.257996 -186.523926 -8.848400 0.000000
-329.774689 -186.523926 -8.848400 0.000000
-316.291382 -186.523926 -8.848400 0.000000
-302.808105 -186.523926 -8.848400 0.000000
-289.324799 -186.523926 -8.848400 0.000000
-275.841492 -186.523926 -8.848400 0.000000
-262.358185 -186.523926 -8.848400 0.000000
-248.874893 -186.523926 -8.848400 0.000000
-235.391602 -186.523926 -8.848400 0.000000
-221.908295 -186.523926 -8.848400 0.000000
-208.424988 -186.523926 -8.848400 0.000000
-194.941696 -186.523926 -8.848400 0.000000
-181.458389 -186.523926 -8.848400 0.000000
-167.975098 -186.523926 -8.848400 0.000000
-154.491791 -186.523926 -8.848400 0.000000
-141.008499 -186.523926 -8.848400 0.000000
-127.525192 -186.523926 -8.848400 0.000000
-114.041885 -186.523926 -8.848400 0.000000
-100.558594 -186.523926 -8.848400 0.000000
-87.075287 -186.523926 -8.848400 0.000000
-73.591980 -186.523926 -8.848400 0.000000
-60.108704 -186.523926 -8.848400 0.000000
-46.625397 -186.523926 -8.848400 0.000000
-33.142090 -186.523926 -8.848400 0.000000
-19.658783 -186.523926 -8.848400 0.000000
-6.175476 -186.523926 -8.848400 0.000000
7.307800 -186.523926 -8.848400 0.000000
20.791107 -186.523926 -8.848400 0.000000
34.274414 -186.523926 -8.848400 0.000000
47.757721 -186.523926 -8.848400 0.000000
61.240997 -186.523926 -8.848400 0.000000
74.724304 -186.523926 -8.848400 0.000000
88.207611 -186.523926 -8.848400 0.000000
101.690918 -186.523926 -8.848400 0.000000
115.174225 -186.523926 -8.848400 0.000000
128.657501 -186.523926 -8.848400 0.000000
142.140808 -186.523926 -8.848400 0.000000
155.624115 -186.523926 -8.848400 0.000000
169.107422 -186.523926 -8.848400 0.000000
182.590698 -186.523926 -8.848400 0.000000
196.074036 -186.523926 -8.848400 0.000000
209.557312 -186.523926 -8.848400 0.000000
223.040588 -186.523926 -8.848400 0.000000
236.523926 -186.523926 -8.848400 0.000000
250.007202 -186.523926 -8.848400 0.000000
263.490540 -186.523926 -8.848400 0.000000
276.973816 -186.523926 -8.848400 0.000000
290.457092 -186.523926 -8.848400 0.000000
303.940430 -186.523926 -8.848400 0.000000
317.423706 -186.523926 -8.848400 0.000000
330.907043 -186.523926 -8.848400 0.000000
344.390320 -186.523926 -8.848400 0.000000
-343.257996 -200.007202 -8.848400 0.000000
-329.774689 -200.007202 -8.848400 0.000000
-316.291382 -200.007202 -8.848400 0.000000
-302.808105 -200.007202 -8.848400 0.000000
-289.324799 -200.007202 -8.848400 0.000000
-275.841492 -200.007202 -8.848400 0.000000
-262.358185 -200.007202 -8.848400 0.000000
-248.874893 -200.007202 -8.848400 0.000000
-235.391602 -200.007202 -8.848400 0.000000
-221.908295 -200.007202 -8.848400 0.000000
-208.424988 -200.007202 -8.848400 0.000000
-194.941696 -200.007202 -8.848400 0.000000
-181.458389 -200.007202 -8.848400 0.000000
-167.975098 -200.007202 -8.848400 0.000000
-154.491791 -200.007202 -8.848400 0.000000
-141.008499 -200.007202 -8.848400 0.000000
-127.525192 -200.007202 -8.848400 0.000000
-114.041885 -200.007202 -8.848400 0.000000
-100.558594 -200.007202 -8.848400 0.000000
-87.075287 -200.007202 -8.848400 0.000000
-73.591980 -200.007202 -8.848400 0.000000
-60.108704 -200.007202 -8.848400 0.000000
-46.625397 -200.007202 -8.848400 0.000000
-33.142090 -200.007202 -8.848400 0.000000
-19.658783 -200.007202 -8.848400 0.000000
-6.175476 -200.007202 -8.848400 0.000000
7.307800 -200.007202 -8.848400 0.000000
20.791107 -200.007202 -8.848400 0.000000
34.274414 -200.007202 -8.848400 0.000000
47.757721 -200.007202 -8.848400 0.000000
61.240997 -200.007202 -8.848400 0.000000
74.724304 -200.007202 -8.848400 0.000000
88.207611 -200.007202 -8.848400 0.000000
101.690918 -200.007202 -8.848400 0.000000
115.174225 -200.007202 -8.848400 0.000000
128.657501 -200.007202 -8.848400 0.000000
142.140808 -200.007202 -8.848400 0.000000
155.624115 -200.007202 -8.848400 0.000000
169.107422 -200.007202 -8.848400 0.000000
182.590698 -200.007202 -8.848400 0.000000
196.074036 -200.007202 -8.848400 0.000000
209.557312 -200.007202 -8.848400 0.000000
223.040588 -200.007202 -8.848400 0.000000
236.523926 -200.007202 -8.848400 0.000000
250.007202 -200.007202 -8.848400 0.000000
263.490540 -200.007202 -8.848400 0.000000
276.973816 -200.007202 -8.848400 0.000000
290.457092 -200.007202 -8.848400 0.000000
303.940430 -200.007202 -8.848400 0.000000
317.423706 -200.007202 -8.848400 0.000000
330.907043 -200.007202 -8.848400 0.000000
344.390320 -200.007202 -8.848400 0.000000
