TITLE = "B00004"
VARIABLES = "X", "Y", "Z", "Reynold stress XX"
ZONE T="Frame 1" I=52, J=45, K=4, F=POINT
-343.257996 393.257996 -49.298302 0.000000
-329.774689 393.257996 -49.298302 0.000000
-316.291382 393.257996 -49.298302 0.000000
-302.808105 393.257996 -49.298302 0.000000
-289.324799 393.257996 -49.298302 0.000000
-275.841492 393.257996 -49.298302 0.000000
-262.358185 393.257996 -49.298302 0.000000
-248.874893 393.257996 -49.298302 0.000000
-235.391602 393.257996 -49.298302 0.000000
-221.908295 393.257996 -49.298302 0.000000
-208.424988 393.257996 -49.298302 0.000000
-194.941696 393.257996 -49.298302 0.000000
-181.458389 393.257996 -49.298302 0.000000
-167.975098 393.257996 -49.298302 0.000000
-154.491791 393.257996 -49.298302 0.000000
-141.008499 393.257996 -49.298302 0.000000
-127.525192 393.257996 -49.298302 0.000000
-114.041885 393.257996 -49.298302 0.000000
-100.558594 393.257996 -49.298302 0.000000
-87.075287 393.257996 -49.298302 0.000000
-73.591980 393.257996 -49.298302 0.000000
-60.108704 393.257996 -49.298302 0.000000
-46.625397 393.257996 -49.298302 0.000000
-33.142090 393.257996 -49.298302 0.000000
-19.658783 393.257996 -49.298302 0.000000
-6.175476 393.257996 -49.298302 0.000000
7.307800 393.257996 -49.298302 0.000000
20.791107 393.257996 -49.298302 0.000000
34.274414 393.257996 -49.298302 0.000000
47.757721 393.257996 -49.298302 0.000000
61.240997 393.257996 -49.298302 0.000000
74.724304 393.257996 -49.298302 0.000000
88.207611 393.257996 -49.298302 0.000000
101.690918 393.257996 -49.298302 0.000000
115.174225 393.257996 -49.298302 0.000000
128.657501 393.257996 -49.298302 0.000000
142.140808 393.257996 -49.298302 0.000000
155.624115 393.257996 -49.298302 0.000000
169.107422 393.257996 -49.298302 0.000000
182.590698 393.257996 -49.298302 0.000000
196.074036 393.257996 -49.298302 0.000000
209.557312 393.257996 -49.298302 0.000000
223.040588 393.257996 -49.298302 0.000000
236.523926 393.257996 -49.298302 0.000000
250.007202 393.257996 -49.298302 0.000000
263.490540 393.257996 -49.298302 0.000000
276.973816 393.257996 -49.298302 0.000000
290.457092 393.257996 -49.298302 0.000000
303.940430 393.257996 -49.298302 0.000000
317.423706 393.257996 -49.298302 0.000000
330.907043 393.257996 -49.298302 0.000000
344.390320 393.257996 -49.298302 0.000000
-343.257996 379.774689 -49.298302 0.000000
-329.774689 379.774689 -49.298302 0.000000
-316.291382 379.774689 -49.298302 0.000000
-302.808105 379.774689 -49.298302 0.000000
-289.324799 379.774689 -49.298302 0.000000
-275.841492 379.774689 -49.298302 0.000000
-262.358185 379.774689 -49.298302 0.000000
-248.874893 379.774689 -49.298302 0.000000
-235.391602 379.774689 -49.298302 0.000000
-221.908295 379.774689 -49.298302 0.000000
-208.424988 379.774689 -49.298302 0.000000
-194.941696 379.774689 -49.298302 0.000000
-181.458389 379.774689 -49.298302 0.000000
-167.975098 379.774689 -49.298302 0.000000
-154.491791 379.774689 -49.298302 0.000000
-141.008499 379.774689 -49.298302 0.000000
-127.525192 379.774689 -49.298302 0.000000
-114.041885 379.774689 -49.298302 0.000000
-100.558594 379.774689 -49.298302 0.000000
-87.075287 379.774689 -49.298302 0.000000
-73.591980 379.774689 -49.298302 0.000000
-60.108704 379.774689 -49.298302 0.000000
-46.625397 379.774689 -49.298302 0.000000
-33.142090 379.774689 -49.298302 0.000000
-19.658783 379.774689 -49.298302 0.000000
-6.175476 379.774689 -49.298302 0.000000
7.307800 379.774689 -49.298302 0.000000
20.791107 379.774689 -49.298302 0.000000
34.274414 379.774689 -49.298302 0.000000
47.757721 379.774689 -49.298302 0.000000
61.240997 379.774689 -49.298302 0.000000
74.724304 379.774689 -49.298302 0.000000
88.207611 379.774689 -49.298302 0.000000
101.690918 379.774689 -49.298302 0.000000
115.174225 379.774689 -49.298302 0.000000
128.657501 379.774689 -49.298302 0.000000
142.140808 379.774689 -49.298302 0.000000
155.624115 379.774689 -49.298302 0.000000
169.107422 379.774689 -49.298302 0.000000
182.590698 379.774689 -49.298302 0.000000
196.074036 379.774689 -49.298302 0.000000
209.557312 379.774689 -49.298302 0.000000
223.040588 379.774689 -49.298302 0.000000
236.523926 379.774689 -49.298302 0.000000
250.007202 379.774689 -49.298302 0.000000
263.490540 379.774689 -49.298302 0.000000
276.973816 379.774689 -49.298302 0.000000
290.457092 379.774689 -49.298302 0.000000
303.940430 379.774689 -49.298302 0.000000
317.423706 379.774689 -49.298302 0.000000
330.907043 379.774689 -49.298302 0.000000
344.390320 379.774689 -49.298302 0.000000
-343.257996 366.291382 -49.298302 0.000000
-329.774689 366.291382 -49.298302 0.000000
-316.291382 366.291382 -49.298302 0.000000
-302.808105 366.291382 -49.298302 0.000000
-289.324799 366.291382 -49.298302 0.000000
-275.841492 366.291382 -49.298302 0.000000
-262.358185 366.291382 -49.298302 0.000000
-248.874893 366.291382 -49.298302 0.000000
-235.391602 366.291382 -49.298302 0.000000
-221.908295 366.291382 -49.298302 0.000000
-208.424988 366.291382 -49.298302 0.000000
-194.941696 366.291382 -49.298302 0.000000
-181.458389 366.291382 -49.298302 0.000000
-167.975098 366.291382 -49.298302 0.000000
-154.491791 366.291382 -49.298302 0.000000
-141.008499 366.291382 -49.298302 0.000000
-127.525192 366.291382 -49.298302 0.000000
-114.041885 366.291382 -49.298302 0.000000
-100.558594 366.291382 -49.298302 0.000000
-87.075287 366.291382 -49.298302 0.000000
-73.591980 366.291382 -49.298302 0.000000
-60.108704 366.291382 -49.298302 0.000000
-46.625397 366.291382 -49.298302 0.000000
-33.142090 366.291382 -49.298302 0.000000
-19.658783 366.291382 -49.298302 0.000000
-6.175476 366.291382 -49.298302 0.000000
7.307800 366.291382 -49.298302 0.000000
20.791107 366.291382 -49.298302 0.000000
34.274414 366.291382 -49.298302 0.000000
47.757721 366.291382 -49.298302 0.000000
61.240997 366.291382 -49.298302 0.000000
74.724304 366.291382 -49.298302 0.000000
88.207611 366.291382 -49.298302 0.000000
101.690918 366.291382 -49.298302 0.000000
115.174225 366.291382 -49.298302 0.000000
128.657501 366.291382 -49.298302 0.000000
142.140808 366.291382 -49.298302 0.000000
155.624115 366.291382 -49.298302 0.000000
169.107422 366.291382 -49.298302 0.000000
182.590698 366.291382 -49.298302 0.000000
196.074036 366.291382 -49.298302 0.000000
209.557312 366.291382 -49.298302 0.000000
223.040588 366.291382 -49.298302 0.000000
236.523926 366.291382 -49.298302 0.000000
250.007202 366.291382 -49.298302 0.000000
263.490540 366.291382 -49.298302 0.000000
276.973816 366.291382 -49.298302 0.000000
290.457092 366.291382 -49.298302 0.000000
303.940430 366.291382 -49.298302 0.000000
317.423706 366.291382 -49.298302 0.000000
330.907043 366.291382 -49.298302 0.000000
344.390320 366.291382 -49.298302 0.000000
-343.257996 352.808105 -49.298302 0.000000
-329.774689 352.808105 -49.298302 0.000000
-316.291382 352.808105 -49.298302 0.000000
-302.808105 352.808105 -49.298302 0.000000
-289.324799 352.808105 -49.298302 0.032762
-275.841492 352.808105 -49.298302 0.034958
-262.358185 352.808105 -49.298302 0.042511
-248.874893 352.808105 -49.298302 0.050318
-235.391602 352.808105 -49.298302 0.060338
-221.908295 352.808105 -49.298302 0.067764
-208.424988 352.808105 -49.298302 0.071566
-194.941696 352.808105 -49.298302 0.089136
-181.458389 352.808105 -49.298302 0.113683
-167.975098 352.808105 -49.298302 0.000000
-154.491791 352.808105 -49.298302 0.000000
-141.008499 352.808105 -49.298302 0.000000
-127.525192 352.808105 -49.298302 0.000000
-114.041885 352.808105 -49.298302 0.000000
-100.558594 352.808105 -49.298302 0.000000
-87.075287 352.808105 -49.298302 0.000000
-73.591980 352.808105 -49.298302 0.000000
-60.108704 352.808105 -49.298302 0.000000
-46.625397 352.808105 -49.298302 0.000000
-33.142090 352.808105 -49.298302 0.000000
-19.658783 352.808105 -49.298302 0.000000
-6.175476 352.808105 -49.298302 0.000000
7.307800 352.808105 -49.298302 0.000000
20.791107 352.808105 -49.298302 0.222906
34.274414 352.808105 -49.298302 0.198748
47.757721 352.808105 -49.298302 0.188154
61.240997 352.808105 -49.298302 0.171687
74.724304 352.808105 -49.298302 0.000000
88.207611 352.808105 -49.298302 0.000000
101.690918 352.808105 -49.298302 0.000000
115.174225 352.808105 -49.298302 0.000000
128.657501 352.808105 -49.298302 0.000000
142.140808 352.808105 -49.298302 0.000000
155.624115 352.808105 -49.298302 0.000000
169.107422 352.808105 -49.298302 0.000000
182.590698 352.808105 -49.298302 0.000000
196.074036 352.808105 -49.298302 0.000000
209.557312 352.808105 -49.298302 0.000000
223.040588 352.808105 -49.298302 0.000000
236.523926 352.808105 -49.298302 0.000000
250.007202 352.808105 -49.298302 0.000000
263.490540 352.808105 -49.298302 0.000000
276.973816 352.808105 -49.298302 0.000000
290.457092 352.808105 -49.298302 0.000000
303.940430 352.808105 -49.298302 0.000000
317.423706 352.808105 -49.298302 0.000000
330.907043 352.808105 -49.298302 0.000000
344.390320 352.808105 -49.298302 0.000000
-343.257996 339.324799 -49.298302 0.000000
-329.774689 339.324799 -49.298302 0.000000
-316.291382 339.324799 -49.298302 0.000000
-302.808105 339.324799 -49.298302 0.029228
-289.324799 339.324799 -49.298302 0.031598
-275.841492 339.324799 -49.298302 0.034086
-262.358185 339.324799 -49.298302 0.040528
-248.874893 339.324799 -49.298302 0.049634
-235.391602 339.324799 -49.298302 0.058096
-221.908295 339.324799 -49.298302 0.067989
-208.424988 339.324799 -49.298302 0.079798
-194.941696 339.324799 -49.298302 0.087709
-181.458389 339.324799 -49.298302 0.104506
-167.975098 339.324799 -49.298302 0.123465
-154.491791 339.324799 -49.298302 0.148843
-141.008499 339.324799 -49.298302 0.165062
-127.525192 339.324799 -49.298302 0.179220
-114.041885 339.324799 -49.298302 0.200624
-100.558594 339.324799 -49.298302 0.219297
-87.075287 339.324799 -49.298302 0.247134
-73.591980 339.324799 -49.298302 0.244110
-60.108704 339.324799 -49.298302 0.265793
-46.625397 339.324799 -49.298302 0.292034
-33.142090 339.324799 -49.298302 0.290057
-19.658783 339.324799 -49.298302 0.291813
-6.175476 339.324799 -49.298302 0.295506
7.307800 339.324799 -49.298302 0.261800
20.791107 339.324799 -49.298302 0.237011
34.274414 339.324799 -49.298302 0.225214
47.757721 339.324799 -49.298302 0.207396
61.240997 339.324799 -49.298302 0.197094
74.724304 339.324799 -49.298302 0.184541
88.207611 339.324799 -49.298302 0.174925
101.690918 339.324799 -49.298302 0.174503
115.174225 339.324799 -49.298302 0.173104
128.657501 339.324799 -49.298302 0.173776
142.140808 339.324799 -49.298302 0.161651
155.624115 339.324799 -49.298302 0.136240
169.107422 339.324799 -49.298302 0.117784
182.590698 339.324799 -49.298302 0.117802
196.074036 339.324799 -49.298302 0.116350
209.557312 339.324799 -49.298302 0.114722
223.040588 339.324799 -49.298302 0.112532
236.523926 339.324799 -49.298302 0.115400
250.007202 339.324799 -49.298302 0.118706
263.490540 339.324799 -49.298302 0.123810
276.973816 339.324799 -49.298302 0.000000
290.457092 339.324799 -49.298302 0.000000
303.940430 339.324799 -49.298302 0.000000
317.423706 339.324799 -49.298302 0.000000
330.907043 339.324799 -49.298302 0.000000
344.390320 339.324799 -49.298302 0.000000
-343.257996 325.841492 -49.298302 0.000000
-329.774689 325.841492 -49.298302 0.000000
-316.291382 325.841492 -49.298302 0.000000
-302.808105 325.841492 -49.298302 0.026228
-289.324799 325.841492 -49.298302 0.031782
-275.841492 325.841492 -49.298302 0.035611
-262.358185 325.841492 -49.298302 0.040294
-248.874893 325.841492 -49.298302 0.046624
-235.391602 325.841492 -49.298302 0.054225
-221.908295 325.841492 -49.298302 0.063878
-208.424988 325.841492 -49.298302 0.072044
-194.941696 325.841492 -49.298302 0.083940
-181.458389 325.841492 -49.298302 0.096429
-167.975098 325.841492 -49.298302 0.117365
-154.491791 325.841492 -49.298302 0.135951
-141.008499 325.841492 -49.298302 0.157938
-127.525192 325.841492 -49.298302 0.176088
-114.041885 325.841492 -49.298302 0.202317
-100.558594 325.841492 -49.298302 0.229960
-87.075287 325.841492 -49.298302 0.255343
-73.591980 325.841492 -49.298302 0.288074
-60.108704 325.841492 -49.298302 0.305867
-46.625397 325.841492 -49.298302 0.310854
-33.142090 325.841492 -49.298302 0.298597
-19.658783 325.841492 -49.298302 0.294084
-6.175476 325.841492 -49.298302 0.295081
7.307800 325.841492 -49.298302 0.266480
20.791107 325.841492 -49.298302 0.251116
34.274414 325.841492 -49.298302 0.237686
47.757721 325.841492 -49.298302 0.222390
61.240997 325.841492 -49.298302 0.216515
74.724304 325.841492 -49.298302 0.210572
88.207611 325.841492 -49.298302 0.200726
101.690918 325.841492 -49.298302 0.208844
115.174225 325.841492 -49.298302 0.209574
128.657501 325.841492 -49.298302 0.199292
142.140808 325.841492 -49.298302 0.179932
155.624115 325.841492 -49.298302 0.170554
169.107422 325.841492 -49.298302 0.144223
182.590698 325.841492 -49.298302 0.141893
196.074036 325.841492 -49.298302 0.134147
209.557312 325.841492 -49.298302 0.130308
223.040588 325.841492 -49.298302 0.130568
236.523926 325.841492 -49.298302 0.127488
250.007202 325.841492 -49.298302 0.123373
263.490540 325.841492 -49.298302 0.127156
276.973816 325.841492 -49.298302 0.117735
290.457092 325.841492 -49.298302 0.000000
303.940430 325.841492 -49.298302 0.000000
317.423706 325.841492 -49.298302 0.000000
330.907043 325.841492 -49.298302 0.000000
344.390320 325.841492 -49.298302 0.000000
-343.257996 312.358185 -49.298302 0.000000
-329.774689 312.358185 -49.298302 0.000000
-316.291382 312.358185 -49.298302 0.000000
-302.808105 312.358185 -49.298302 0.025888
-289.324799 312.358185 -49.298302 0.032241
-275.841492 312.358185 -49.298302 0.037306
-262.358185 312.358185 -49.298302 0.042373
-248.874893 312.358185 -49.298302 0.046388
-235.391602 312.358185 -49.298302 0.055101
-221.908295 312.358185 -49.298302 0.064295
-208.424988 312.358185 -49.298302 0.073095
-194.941696 312.358185 -49.298302 0.086470
-181.458389 312.358185 -49.298302 0.097683
-167.975098 312.358185 -49.298302 0.113871
-154.491791 312.358185 -49.298302 0.126946
-141.008499 312.358185 -49.298302 0.153990
-127.525192 312.358185 -49.298302 0.176032
-114.041885 312.358185 -49.298302 0.210644
-100.558594 312.358185 -49.298302 0.232399
-87.075287 312.358185 -49.298302 0.259193
-73.591980 312.358185 -49.298302 0.292814
-60.108704 312.358185 -49.298302 0.334105
-46.625397 312.358185 -49.298302 0.335552
-33.142090 312.358185 -49.298302 0.323263
-19.658783 312.358185 -49.298302 0.316031
-6.175476 312.358185 -49.298302 0.303802
7.307800 312.358185 -49.298302 0.289458
20.791107 312.358185 -49.298302 0.288089
34.274414 312.358185 -49.298302 0.279778
47.757721 312.358185 -49.298302 0.262072
61.240997 312.358185 -49.298302 0.259926
74.724304 312.358185 -49.298302 0.256631
88.207611 312.358185 -49.298302 0.254030
101.690918 312.358185 -49.298302 0.247875
115.174225 312.358185 -49.298302 0.236840
128.657501 312.358185 -49.298302 0.207372
142.140808 312.358185 -49.298302 0.207228
155.624115 312.358185 -49.298302 0.202232
169.107422 312.358185 -49.298302 0.180749
182.590698 312.358185 -49.298302 0.168399
196.074036 312.358185 -49.298302 0.160896
209.557312 312.358185 -49.298302 0.146084
223.040588 312.358185 -49.298302 0.140580
236.523926 312.358185 -49.298302 0.130437
250.007202 312.358185 -49.298302 0.127538
263.490540 312.358185 -49.298302 0.133631
276.973816 312.358185 -49.298302 0.122623
290.457092 312.358185 -49.298302 0.121185
303.940430 312.358185 -49.298302 0.000000
317.423706 312.358185 -49.298302 0.000000
330.907043 312.358185 -49.298302 0.000000
344.390320 312.358185 -49.298302 0.000000
-343.257996 298.874878 -49.298302 0.000000
-329.774689 298.874878 -49.298302 0.000000
-316.291382 298.874878 -49.298302 0.000000
-302.808105 298.874878 -49.298302 0.028052
-289.324799 298.874878 -49.298302 0.034709
-275.841492 298.874878 -49.298302 0.041099
-262.358185 298.874878 -49.298302 0.044920
-248.874893 298.874878 -49.298302 0.051793
-235.391602 298.874878 -49.298302 0.057895
-221.908295 298.874878 -49.298302 0.065186
-208.424988 298.874878 -49.298302 0.072402
-194.941696 298.874878 -49.298302 0.080635
-181.458389 298.874878 -49.298302 0.095226
-167.975098 298.874878 -49.298302 0.113200
-154.491791 298.874878 -49.298302 0.132014
-141.008499 298.874878 -49.298302 0.149194
-127.525192 298.874878 -49.298302 0.178279
-114.041885 298.874878 -49.298302 0.198444
-100.558594 298.874878 -49.298302 0.216075
-87.075287 298.874878 -49.298302 0.252839
-73.591980 298.874878 -49.298302 0.286838
-60.108704 298.874878 -49.298302 0.320654
-46.625397 298.874878 -49.298302 0.334406
-33.142090 298.874878 -49.298302 0.343657
-19.658783 298.874878 -49.298302 0.341684
-6.175476 298.874878 -49.298302 0.321352
7.307800 298.874878 -49.298302 0.309937
20.791107 298.874878 -49.298302 0.297372
34.274414 298.874878 -49.298302 0.293835
47.757721 298.874878 -49.298302 0.287305
61.240997 298.874878 -49.298302 0.303678
74.724304 298.874878 -49.298302 0.299068
88.207611 298.874878 -49.298302 0.298967
101.690918 298.874878 -49.298302 0.272821
115.174225 298.874878 -49.298302 0.261214
128.657501 298.874878 -49.298302 0.239492
142.140808 298.874878 -49.298302 0.231446
155.624115 298.874878 -49.298302 0.219619
169.107422 298.874878 -49.298302 0.210423
182.590698 298.874878 -49.298302 0.184161
196.074036 298.874878 -49.298302 0.166475
209.557312 298.874878 -49.298302 0.155988
223.040588 298.874878 -49.298302 0.143673
236.523926 298.874878 -49.298302 0.139918
250.007202 298.874878 -49.298302 0.145261
263.490540 298.874878 -49.298302 0.140963
276.973816 298.874878 -49.298302 0.132411
290.457092 298.874878 -49.298302 0.119167
303.940430 298.874878 -49.298302 0.000000
317.423706 298.874878 -49.298302 0.000000
330.907043 298.874878 -49.298302 0.000000
344.390320 298.874878 -49.298302 0.000000
-343.257996 285.391602 -49.298302 0.000000
-329.774689 285.391602 -49.298302 0.000000
-316.291382 285.391602 -49.298302 0.000000
-302.808105 285.391602 -49.298302 0.029934
-289.324799 285.391602 -49.298302 0.035321
-275.841492 285.391602 -49.298302 0.042829
-262.358185 285.391602 -49.298302 0.049151
-248.874893 285.391602 -49.298302 0.055695
-235.391602 285.391602 -49.298302 0.062200
-221.908295 285.391602 -49.298302 0.068004
-208.424988 285.391602 -49.298302 0.072812
-194.941696 285.391602 -49.298302 0.083808
-181.458389 285.391602 -49.298302 0.095741
-167.975098 285.391602 -49.298302 0.110163
-154.491791 285.391602 -49.298302 0.127556
-141.008499 285.391602 -49.298302 0.148334
-127.525192 285.391602 -49.298302 0.175337
-114.041885 285.391602 -49.298302 0.202356
-100.558594 285.391602 -49.298302 0.227332
-87.075287 285.391602 -49.298302 0.251430
-73.591980 285.391602 -49.298302 0.290102
-60.108704 285.391602 -49.298302 0.314135
-46.625397 285.391602 -49.298302 0.343660
-33.142090 285.391602 -49.298302 0.361247
-19.658783 285.391602 -49.298302 0.362129
-6.175476 285.391602 -49.298302 0.342478
7.307800 285.391602 -49.298302 0.336598
20.791107 285.391602 -49.298302 0.322354
34.274414 285.391602 -49.298302 0.317170
47.757721 285.391602 -49.298302 0.314228
61.240997 285.391602 -49.298302 0.327354
74.724304 285.391602 -49.298302 0.311263
88.207611 285.391602 -49.298302 0.296652
101.690918 285.391602 -49.298302 0.285333
115.174225 285.391602 -49.298302 0.280706
128.657501 285.391602 -49.298302 0.265417
142.140808 285.391602 -49.298302 0.241426
155.624115 285.391602 -49.298302 0.228527
169.107422 285.391602 -49.298302 0.212437
182.590698 285.391602 -49.298302 0.197137
196.074036 285.391602 -49.298302 0.177286
209.557312 285.391602 -49.298302 0.161100
223.040588 285.391602 -49.298302 0.154816
236.523926 285.391602 -49.298302 0.155493
250.007202 285.391602 -49.298302 0.148487
263.490540 285.391602 -49.298302 0.141987
276.973816 285.391602 -49.298302 0.129794
290.457092 285.391602 -49.298302 0.111047
303.940430 285.391602 -49.298302 0.000000
317.423706 285.391602 -49.298302 0.000000
330.907043 285.391602 -49.298302 0.000000
344.390320 285.391602 -49.298302 0.000000
-343.257996 271.908295 -49.298302 0.000000
-329.774689 271.908295 -49.298302 0.000000
-316.291382 271.908295 -49.298302 0.000000
-302.808105 271.908295 -49.298302 0.031242
-289.324799 271.908295 -49.298302 0.038058
-275.841492 271.908295 -49.298302 0.045822
-262.358185 271.908295 -49.298302 0.052836
-248.874893 271.908295 -49.298302 0.062026
-235.391602 271.908295 -49.298302 0.069215
-221.908295 271.908295 -49.298302 0.070830
-208.424988 271.908295 -49.298302 0.077800
-194.941696 271.908295 -49.298302 0.083521
-181.458389 271.908295 -49.298302 0.090642
-167.975098 271.908295 -49.298302 0.106833
-154.491791 271.908295 -49.298302 0.128875
-141.008499 271.908295 -49.298302 0.147521
-127.525192 271.908295 -49.298302 0.176476
-114.041885 271.908295 -49.298302 0.205498
-100.558594 271.908295 -49.298302 0.230347
-87.075287 271.908295 -49.298302 0.276779
-73.591980 271.908295 -49.298302 0.311955
-60.108704 271.908295 -49.298302 0.350502
-46.625397 271.908295 -49.298302 0.363766
-33.142090 271.908295 -49.298302 0.379122
-19.658783 271.908295 -49.298302 0.383058
-6.175476 271.908295 -49.298302 0.374503
7.307800 271.908295 -49.298302 0.355196
20.791107 271.908295 -49.298302 0.340368
34.274414 271.908295 -49.298302 0.328019
47.757721 271.908295 -49.298302 0.339554
61.240997 271.908295 -49.298302 0.000000
74.724304 271.908295 -49.298302 0.318653
88.207611 271.908295 -49.298302 0.292823
101.690918 271.908295 -49.298302 0.277560
115.174225 271.908295 -49.298302 0.277743
128.657501 271.908295 -49.298302 0.252965
142.140808 271.908295 -49.298302 0.229002
155.624115 271.908295 -49.298302 0.220530
169.107422 271.908295 -49.298302 0.219108
182.590698 271.908295 -49.298302 0.198174
196.074036 271.908295 -49.298302 0.178078
209.557312 271.908295 -49.298302 0.174004
223.040588 271.908295 -49.298302 0.172287
236.523926 271.908295 -49.298302 0.162387
250.007202 271.908295 -49.298302 0.153355
263.490540 271.908295 -49.298302 0.144710
276.973816 271.908295 -49.298302 0.125915
290.457092 271.908295 -49.298302 0.104308
303.940430 271.908295 -49.298302 0.000000
317.423706 271.908295 -49.298302 0.000000
330.907043 271.908295 -49.298302 0.000000
344.390320 271.908295 -49.298302 0.000000
-343.257996 258.424988 -49.298302 0.000000
-329.774689 258.424988 -49.298302 0.000000
-316.291382 258.424988 -49.298302 0.000000
-302.808105 258.424988 -49.298302 0.032489
-289.324799 258.424988 -49.298302 0.040295
-275.841492 258.424988 -49.298302 0.048425
-262.358185 258.424988 -49.298302 0.056139
-248.874893 258.424988 -49.298302 0.067450
-235.391602 258.424988 -49.298302 0.076773
-221.908295 258.424988 -49.298302 0.077004
-208.424988 258.424988 -49.298302 0.082681
-194.941696 258.424988 -49.298302 0.089122
-181.458389 258.424988 -49.298302 0.100635
-167.975098 258.424988 -49.298302 0.111490
-154.491791 258.424988 -49.298302 0.133689
-141.008499 258.424988 -49.298302 0.157621
-127.525192 258.424988 -49.298302 0.186932
-114.041885 258.424988 -49.298302 0.207898
-100.558594 258.424988 -49.298302 0.250182
-87.075287 258.424988 -49.298302 0.292109
-73.591980 258.424988 -49.298302 0.329118
-60.108704 258.424988 -49.298302 0.362990
-46.625397 258.424988 -49.298302 0.369894
-33.142090 258.424988 -49.298302 0.394503
-19.658783 258.424988 -49.298302 0.385607
-6.175476 258.424988 -49.298302 0.383152
7.307800 258.424988 -49.298302 0.376735
20.791107 258.424988 -49.298302 0.347038
34.274414 258.424988 -49.298302 0.333259
47.757721 258.424988 -49.298302 0.328995
61.240997 258.424988 -49.298302 0.000000
74.724304 258.424988 -49.298302 0.301911
88.207611 258.424988 -49.298302 0.296311
101.690918 258.424988 -49.298302 0.302062
115.174225 258.424988 -49.298302 0.280036
128.657501 258.424988 -49.298302 0.270589
142.140808 258.424988 -49.298302 0.241922
155.624115 258.424988 -49.298302 0.225826
169.107422 258.424988 -49.298302 0.217120
182.590698 258.424988 -49.298302 0.202488
196.074036 258.424988 -49.298302 0.184266
209.557312 258.424988 -49.298302 0.185813
223.040588 258.424988 -49.298302 0.175469
236.523926 258.424988 -49.298302 0.168018
250.007202 258.424988 -49.298302 0.151260
263.490540 258.424988 -49.298302 0.139192
276.973816 258.424988 -49.298302 0.117957
290.457092 258.424988 -49.298302 0.093659
303.940430 258.424988 -49.298302 0.069801
317.423706 258.424988 -49.298302 0.000000
330.907043 258.424988 -49.298302 0.000000
344.390320 258.424988 -49.298302 0.000000
-343.257996 244.941696 -49.298302 0.000000
-329.774689 244.941696 -49.298302 0.000000
-316.291382 244.941696 -49.298302 0.000000
-302.808105 244.941696 -49.298302 0.034236
-289.324799 244.941696 -49.298302 0.042153
-275.841492 244.941696 -49.298302 0.050426
-262.358185 244.941696 -49.298302 0.058240
-248.874893 244.941696 -49.298302 0.070509
-235.391602 244.941696 -49.298302 0.077202
-221.908295 244.941696 -49.298302 0.082712
-208.424988 244.941696 -49.298302 0.089398
-194.941696 244.941696 -49.298302 0.098131
-181.458389 244.941696 -49.298302 0.107447
-167.975098 244.941696 -49.298302 0.118714
-154.491791 244.941696 -49.298302 0.149366
-141.008499 244.941696 -49.298302 0.167976
-127.525192 244.941696 -49.298302 0.198652
-114.041885 244.941696 -49.298302 0.229159
-100.558594 244.941696 -49.298302 0.268282
-87.075287 244.941696 -49.298302 0.316824
-73.591980 244.941696 -49.298302 0.348253
-60.108704 244.941696 -49.298302 0.370440
-46.625397 244.941696 -49.298302 0.402964
-33.142090 244.941696 -49.298302 0.385918
-19.658783 244.941696 -49.298302 0.418205
-6.175476 244.941696 -49.298302 0.386104
7.307800 244.941696 -49.298302 0.359020
20.791107 244.941696 -49.298302 0.341904
34.274414 244.941696 -49.298302 0.345539
47.757721 244.941696 -49.298302 0.325573
61.240997 244.941696 -49.298302 0.304144
74.724304 244.941696 -49.298302 0.290888
88.207611 244.941696 -49.298302 0.288719
101.690918 244.941696 -49.298302 0.276704
115.174225 244.941696 -49.298302 0.000000
128.657501 244.941696 -49.298302 0.000000
142.140808 244.941696 -49.298302 0.000000
155.624115 244.941696 -49.298302 0.227340
169.107422 244.941696 -49.298302 0.219470
182.590698 244.941696 -49.298302 0.196473
196.074036 244.941696 -49.298302 0.196339
209.557312 244.941696 -49.298302 0.190057
223.040588 244.941696 -49.298302 0.173742
236.523926 244.941696 -49.298302 0.161214
250.007202 244.941696 -49.298302 0.147598
263.490540 244.941696 -49.298302 0.132118
276.973816 244.941696 -49.298302 0.107805
290.457092 244.941696 -49.298302 0.085316
303.940430 244.941696 -49.298302 0.065319
317.423706 244.941696 -49.298302 0.000000
330.907043 244.941696 -49.298302 0.000000
344.390320 244.941696 -49.298302 0.000000
-343.257996 231.458389 -49.298302 0.000000
-329.774689 231.458389 -49.298302 0.000000
-316.291382 231.458389 -49.298302 0.000000
-302.808105 231.458389 -49.298302 0.033732
-289.324799 231.458389 -49.298302 0.041462
-275.841492 231.458389 -49.298302 0.050203
-262.358185 231.458389 -49.298302 0.061672
-248.874893 231.458389 -49.298302 0.075066
-235.391602 231.458389 -49.298302 0.079239
-221.908295 231.458389 -49.298302 0.088919
-208.424988 231.458389 -49.298302 0.100485
-194.941696 231.458389 -49.298302 0.102896
-181.458389 231.458389 -49.298302 0.114002
-167.975098 231.458389 -49.298302 0.133076
-154.491791 231.458389 -49.298302 0.159256
-141.008499 231.458389 -49.298302 0.183545
-127.525192 231.458389 -49.298302 0.214312
-114.041885 231.458389 -49.298302 0.253859
-100.558594 231.458389 -49.298302 0.299413
-87.075287 231.458389 -49.298302 0.336004
-73.591980 231.458389 -49.298302 0.373087
-60.108704 231.458389 -49.298302 0.404367
-46.625397 231.458389 -49.298302 0.421574
-33.142090 231.458389 -49.298302 0.434942
-19.658783 231.458389 -49.298302 0.429539
-6.175476 231.458389 -49.298302 0.397870
7.307800 231.458389 -49.298302 0.379018
20.791107 231.458389 -49.298302 0.344121
34.274414 231.458389 -49.298302 0.347936
47.757721 231.458389 -49.298302 0.320931
61.240997 231.458389 -49.298302 0.305677
74.724304 231.458389 -49.298302 0.302740
88.207611 231.458389 -49.298302 0.292048
101.690918 231.458389 -49.298302 0.281507
115.174225 231.458389 -49.298302 0.000000
128.657501 231.458389 -49.298302 0.269583
142.140808 231.458389 -49.298302 0.248313
155.624115 231.458389 -49.298302 0.232371
169.107422 231.458389 -49.298302 0.225175
182.590698 231.458389 -49.298302 0.204154
196.074036 231.458389 -49.298302 0.191145
209.557312 231.458389 -49.298302 0.177097
223.040588 231.458389 -49.298302 0.157318
236.523926 231.458389 -49.298302 0.148858
250.007202 231.458389 -49.298302 0.142399
263.490540 231.458389 -49.298302 0.120185
276.973816 231.458389 -49.298302 0.096623
290.457092 231.458389 -49.298302 0.070790
303.940430 231.458389 -49.298302 0.053049
317.423706 231.458389 -49.298302 0.000000
330.907043 231.458389 -49.298302 0.000000
344.390320 231.458389 -49.298302 0.000000
-343.257996 217.975098 -49.298302 0.000000
-329.774689 217.975098 -49.298302 0.000000
-316.291382 217.975098 -49.298302 0.000000
-302.808105 217.975098 -49.298302 0.032139
-289.324799 217.975098 -49.298302 0.041166
-275.841492 217.975098 -49.298302 0.052611
-262.358185 217.975098 -49.298302 0.061680
-248.874893 217.975098 -49.298302 0.075255
-235.391602 217.975098 -49.298302 0.087037
-221.908295 217.975098 -49.298302 0.096860
-208.424988 217.975098 -49.298302 0.106140
-194.941696 217.975098 -49.298302 0.116041
-181.458389 217.975098 -49.298302 0.132860
-167.975098 217.975098 -49.298302 0.150042
-154.491791 217.975098 -49.298302 0.175289
-141.008499 217.975098 -49.298302 0.201102
-127.525192 217.975098 -49.298302 0.238915
-114.041885 217.975098 -49.298302 0.278625
-100.558594 217.975098 -49.298302 0.339207
-87.075287 217.975098 -49.298302 0.386172
-73.591980 217.975098 -49.298302 0.423041
-60.108704 217.975098 -49.298302 0.436729
-46.625397 217.975098 -49.298302 0.448278
-33.142090 217.975098 -49.298302 0.452679
-19.658783 217.975098 -49.298302 0.434436
-6.175476 217.975098 -49.298302 0.409816
7.307800 217.975098 -49.298302 0.360466
20.791107 217.975098 -49.298302 0.349042
34.274414 217.975098 -49.298302 0.000000
47.757721 217.975098 -49.298302 0.320063
61.240997 217.975098 -49.298302 0.324332
74.724304 217.975098 -49.298302 0.312217
88.207611 217.975098 -49.298302 0.303011
101.690918 217.975098 -49.298302 0.298752
115.174225 217.975098 -49.298302 0.285707
128.657501 217.975098 -49.298302 0.261887
142.140808 217.975098 -49.298302 0.251135
155.624115 217.975098 -49.298302 0.244401
169.107422 217.975098 -49.298302 0.225151
182.590698 217.975098 -49.298302 0.201735
196.074036 217.975098 -49.298302 0.171242
209.557312 217.975098 -49.298302 0.154688
223.040588 217.975098 -49.298302 0.143356
236.523926 217.975098 -49.298302 0.136743
250.007202 217.975098 -49.298302 0.126464
263.490540 217.975098 -49.298302 0.109952
276.973816 217.975098 -49.298302 0.087469
290.457092 217.975098 -49.298302 0.061070
303.940430 217.975098 -49.298302 0.041827
317.423706 217.975098 -49.298302 0.000000
330.907043 217.975098 -49.298302 0.000000
344.390320 217.975098 -49.298302 0.000000
-343.257996 204.491791 -49.298302 0.000000
-329.774689 204.491791 -49.298302 0.000000
-316.291382 204.491791 -49.298302 0.000000
-302.808105 204.491791 -49.298302 0.032178
-289.324799 204.491791 -49.298302 0.042022
-275.841492 204.491791 -49.298302 0.051445
-262.358185 204.491791 -49.298302 0.061256
-248.874893 204.491791 -49.298302 0.074237
-235.391602 204.491791 -49.298302 0.087158
-221.908295 204.491791 -49.298302 0.101857
-208.424988 204.491791 -49.298302 0.118224
-194.941696 204.491791 -49.298302 0.132074
-181.458389 204.491791 -49.298302 0.149938
-167.975098 204.491791 -49.298302 0.171169
-154.491791 204.491791 -49.298302 0.196937
-141.008499 204.491791 -49.298302 0.246334
-127.525192 204.491791 -49.298302 0.280824
-114.041885 204.491791 -49.298302 0.317443
-100.558594 204.491791 -49.298302 0.377407
-87.075287 204.491791 -49.298302 0.424746
-73.591980 204.491791 -49.298302 0.443622
-60.108704 204.491791 -49.298302 0.485653
-46.625397 204.491791 -49.298302 0.464846
-33.142090 204.491791 -49.298302 0.466892
-19.658783 204.491791 -49.298302 0.436884
-6.175476 204.491791 -49.298302 0.406815
7.307800 204.491791 -49.298302 0.377163
20.791107 204.491791 -49.298302 0.345749
34.274414 204.491791 -49.298302 0.327152
47.757721 204.491791 -49.298302 0.331363
61.240997 204.491791 -49.298302 0.307547
74.724304 204.491791 -49.298302 0.299863
88.207611 204.491791 -49.298302 0.307901
101.690918 204.491791 -49.298302 0.299329
115.174225 204.491791 -49.298302 0.285560
128.657501 204.491791 -49.298302 0.252356
142.140808 204.491791 -49.298302 0.244541
155.624115 204.491791 -49.298302 0.228769
169.107422 204.491791 -49.298302 0.205563
182.590698 204.491791 -49.298302 0.179005
196.074036 204.491791 -49.298302 0.150185
209.557312 204.491791 -49.298302 0.129410
223.040588 204.491791 -49.298302 0.120103
236.523926 204.491791 -49.298302 0.112424
250.007202 204.491791 -49.298302 0.108958
263.490540 204.491791 -49.298302 0.091100
276.973816 204.491791 -49.298302 0.072404
290.457092 204.491791 -49.298302 0.051959
303.940430 204.491791 -49.298302 0.034734
317.423706 204.491791 -49.298302 0.000000
330.907043 204.491791 -49.298302 0.000000
344.390320 204.491791 -49.298302 0.000000
-343.257996 191.008499 -49.298302 0.000000
-329.774689 191.008499 -49.298302 0.000000
-316.291382 191.008499 -49.298302 0.000000
-302.808105 191.008499 -49.298302 0.031196
-289.324799 191.008499 -49.298302 0.039848
-275.841492 191.008499 -49.298302 0.050156
-262.358185 191.008499 -49.298302 0.058624
-248.874893 191.008499 -49.298302 0.072722
-235.391602 191.008499 -49.298302 0.087307
-221.908295 191.008499 -49.298302 0.102742
-208.424988 191.008499 -49.298302 0.119356
-194.941696 191.008499 -49.298302 0.144596
-181.458389 191.008499 -49.298302 0.175141
-167.975098 191.008499 -49.298302 0.207846
-154.491791 191.008499 -49.298302 0.241591
-141.008499 191.008499 -49.298302 0.293215
-127.525192 191.008499 -49.298302 0.326021
-114.041885 191.008499 -49.298302 0.370712
-100.558594 191.008499 -49.298302 0.446918
-87.075287 191.008499 -49.298302 0.487700
-73.591980 191.008499 -49.298302 0.517369
-60.108704 191.008499 -49.298302 0.514162
-46.625397 191.008499 -49.298302 0.493027
-33.142090 191.008499 -49.298302 0.455538
-19.658783 191.008499 -49.298302 0.435951
-6.175476 191.008499 -49.298302 0.394668
7.307800 191.008499 -49.298302 0.375011
20.791107 191.008499 -49.298302 0.334297
34.274414 191.008499 -49.298302 0.334462
47.757721 191.008499 -49.298302 0.338937
61.240997 191.008499 -49.298302 0.312160
74.724304 191.008499 -49.298302 0.303167
88.207611 191.008499 -49.298302 0.294468
101.690918 191.008499 -49.298302 0.278038
115.174225 191.008499 -49.298302 0.257347
128.657501 191.008499 -49.298302 0.243402
142.140808 191.008499 -49.298302 0.223981
155.624115 191.008499 -49.298302 0.198377
169.107422 191.008499 -49.298302 0.170116
182.590698 191.008499 -49.298302 0.147057
196.074036 191.008499 -49.298302 0.126660
209.557312 191.008499 -49.298302 0.111260
223.040588 191.008499 -49.298302 0.097521
236.523926 191.008499 -49.298302 0.094537
250.007202 191.008499 -49.298302 0.085213
263.490540 191.008499 -49.298302 0.071568
276.973816 191.008499 -49.298302 0.056192
290.457092 191.008499 -49.298302 0.039901
303.940430 191.008499 -49.298302 0.025173
317.423706 191.008499 -49.298302 0.000000
330.907043 191.008499 -49.298302 0.000000
344.390320 191.008499 -49.298302 0.000000
-343.257996 177.525192 -49.298302 0.000000
-329.774689 177.525192 -49.298302 0.000000
-316.291382 177.525192 -49.298302 0.000000
-302.808105 177.525192 -49.298302 0.030808
-289.324799 177.525192 -49.298302 0.039075
-275.841492 177.525192 -49.298302 0.050894
-262.358185 177.525192 -49.298302 0.062123
-248.874893 177.525192 -49.298302 0.075419
-235.391602 177.525192 -49.298302 0.095126
-221.908295 177.525192 -49.298302 0.114229
-208.424988 177.525192 -49.298302 0.133879
-194.941696 177.525192 -49.298302 0.162492
-181.458389 177.525192 -49.298302 0.196459
-167.975098 177.525192 -49.298302 0.245242
-154.491791 177.525192 -49.298302 0.322513
-141.008499 177.525192 -49.298302 0.363939
-127.525192 177.525192 -49.298302 0.399088
-114.041885 177.525192 -49.298302 0.436791
-100.558594 177.525192 -49.298302 0.496861
-87.075287 177.525192 -49.298302 0.533055
-73.591980 177.525192 -49.298302 0.537736
-60.108704 177.525192 -49.298302 0.553726
-46.625397 177.525192 -49.298302 0.525221
-33.142090 177.525192 -49.298302 0.470058
-19.658783 177.525192 -49.298302 0.434795
-6.175476 177.525192 -49.298302 0.412679
7.307800 177.525192 -49.298302 0.375958
20.791107 177.525192 -49.298302 0.364691
34.274414 177.525192 -49.298302 0.360934
47.757721 177.525192 -49.298302 0.352468
61.240997 177.525192 -49.298302 0.340404
74.724304 177.525192 -49.298302 0.326585
88.207611 177.525192 -49.298302 0.302399
101.690918 177.525192 -49.298302 0.272421
115.174225 177.525192 -49.298302 0.248768
128.657501 177.525192 -49.298302 0.213589
142.140808 177.525192 -49.298302 0.187307
155.624115 177.525192 -49.298302 0.162861
169.107422 177.525192 -49.298302 0.135871
182.590698 177.525192 -49.298302 0.116818
196.074036 177.525192 -49.298302 0.108133
209.557312 177.525192 -49.298302 0.098584
223.040588 177.525192 -49.298302 0.085304
236.523926 177.525192 -49.298302 0.072830
250.007202 177.525192 -49.298302 0.067889
263.490540 177.525192 -49.298302 0.058109
276.973816 177.525192 -49.298302 0.045406
290.457092 177.525192 -49.298302 0.032383
303.940430 177.525192 -49.298302 0.021582
317.423706 177.525192 -49.298302 0.000000
330.907043 177.525192 -49.298302 0.000000
344.390320 177.525192 -49.298302 0.000000
-343.257996 164.041885 -49.298302 0.000000
-329.774689 164.041885 -49.298302 0.000000
-316.291382 164.041885 -49.298302 0.000000
-302.808105 164.041885 -49.298302 0.030579
-289.324799 164.041885 -49.298302 0.040757
-275.841492 164.041885 -49.298302 0.052196
-262.358185 164.041885 -49.298302 0.063689
-248.874893 164.041885 -49.298302 0.080155
-235.391602 164.041885 -49.298302 0.096626
-221.908295 164.041885 -49.298302 0.123681
-208.424988 164.041885 -49.298302 0.152453
-194.941696 164.041885 -49.298302 0.194655
-181.458389 164.041885 -49.298302 0.225652
-167.975098 164.041885 -49.298302 0.285901
-154.491791 164.041885 -49.298302 0.377212
-141.008499 164.041885 -49.298302 0.450123
-127.525192 164.041885 -49.298302 0.484325
-114.041885 164.041885 -49.298302 0.507464
-100.558594 164.041885 -49.298302 0.580816
-87.075287 164.041885 -49.298302 0.568569
-73.591980 164.041885 -49.298302 0.556959
-60.108704 164.041885 -49.298302 0.564916
-46.625397 164.041885 -49.298302 0.543184
-33.142090 164.041885 -49.298302 0.487923
-19.658783 164.041885 -49.298302 0.458144
-6.175476 164.041885 -49.298302 0.417641
7.307800 164.041885 -49.298302 0.397934
20.791107 164.041885 -49.298302 0.365901
34.274414 164.041885 -49.298302 0.343424
47.757721 164.041885 -49.298302 0.344988
61.240997 164.041885 -49.298302 0.338097
74.724304 164.041885 -49.298302 0.327873
88.207611 164.041885 -49.298302 0.283841
101.690918 164.041885 -49.298302 0.250728
115.174225 164.041885 -49.298302 0.218112
128.657501 164.041885 -49.298302 0.181170
142.140808 164.041885 -49.298302 0.158286
155.624115 164.041885 -49.298302 0.131173
169.107422 164.041885 -49.298302 0.109827
182.590698 164.041885 -49.298302 0.095429
196.074036 164.041885 -49.298302 0.087645
209.557312 164.041885 -49.298302 0.079360
223.040588 164.041885 -49.298302 0.071345
236.523926 164.041885 -49.298302 0.059905
250.007202 164.041885 -49.298302 0.052533
263.490540 164.041885 -49.298302 0.044522
276.973816 164.041885 -49.298302 0.034260
290.457092 164.041885 -49.298302 0.025345
303.940430 164.041885 -49.298302 0.017259
317.423706 164.041885 -49.298302 0.000000
330.907043 164.041885 -49.298302 0.000000
344.390320 164.041885 -49.298302 0.000000
-343.257996 150.558594 -49.298302 0.000000
-329.774689 150.558594 -49.298302 0.000000
-316.291382 150.558594 -49.298302 0.000000
-302.808105 150.558594 -49.298302 0.030880
-289.324799 150.558594 -49.298302 0.040949
-275.841492 150.558594 -49.298302 0.052910
-262.358185 150.558594 -49.298302 0.064684
-248.874893 150.558594 -49.298302 0.081689
-235.391602 150.558594 -49.298302 0.104235
-221.908295 150.558594 -49.298302 0.131642
-208.424988 150.558594 -49.298302 0.174375
-194.941696 150.558594 -49.298302 0.218536
-181.458389 150.558594 -49.298302 0.275841
-167.975098 150.558594 -49.298302 0.331291
-154.491791 150.558594 -49.298302 0.432849
-141.008499 150.558594 -49.298302 0.501774
-127.525192 150.558594 -49.298302 0.556386
-114.041885 150.558594 -49.298302 0.581542
-100.558594 150.558594 -49.298302 0.604082
-87.075287 150.558594 -49.298302 0.589384
-73.591980 150.558594 -49.298302 0.574596
-60.108704 150.558594 -49.298302 0.572797
-46.625397 150.558594 -49.298302 0.561156
-33.142090 150.558594 -49.298302 0.510032
-19.658783 150.558594 -49.298302 0.470673
-6.175476 150.558594 -49.298302 0.425558
7.307800 150.558594 -49.298302 0.396555
20.791107 150.558594 -49.298302 0.372147
34.274414 150.558594 -49.298302 0.339027
47.757721 150.558594 -49.298302 0.349670
61.240997 150.558594 -49.298302 0.319941
74.724304 150.558594 -49.298302 0.292572
88.207611 150.558594 -49.298302 0.262778
101.690918 150.558594 -49.298302 0.229719
115.174225 150.558594 -49.298302 0.201328
128.657501 150.558594 -49.298302 0.164791
142.140808 150.558594 -49.298302 0.133688
155.624115 150.558594 -49.298302 0.106418
169.107422 150.558594 -49.298302 0.090978
182.590698 150.558594 -49.298302 0.077724
196.074036 150.558594 -49.298302 0.068465
209.557312 150.558594 -49.298302 0.064798
223.040588 150.558594 -49.298302 0.056626
236.523926 150.558594 -49.298302 0.045603
250.007202 150.558594 -49.298302 0.040846
263.490540 150.558594 -49.298302 0.033582
276.973816 150.558594 -49.298302 0.026042
290.457092 150.558594 -49.298302 0.019162
303.940430 150.558594 -49.298302 0.013768
317.423706 150.558594 -49.298302 0.000000
330.907043 150.558594 -49.298302 0.000000
344.390320 150.558594 -49.298302 0.000000
-343.257996 137.075287 -49.298302 0.000000
-329.774689 137.075287 -49.298302 0.000000
-316.291382 137.075287 -49.298302 0.000000
-302.808105 137.075287 -49.298302 0.035842
-289.324799 137.075287 -49.298302 0.045008
-275.841492 137.075287 -49.298302 0.059228
-262.358185 137.075287 -49.298302 0.073271
-248.874893 137.075287 -49.298302 0.091915
-235.391602 137.075287 -49.298302 0.123757
-221.908295 137.075287 -49.298302 0.161454
-208.424988 137.075287 -49.298302 0.201477
-194.941696 137.075287 -49.298302 0.252299
-181.458389 137.075287 -49.298302 0.333206
-167.975098 137.075287 -49.298302 0.415029
-154.491791 137.075287 -49.298302 0.484263
-141.008499 137.075287 -49.298302 0.561599
-127.525192 137.075287 -49.298302 0.599018
-114.041885 137.075287 -49.298302 0.649547
-100.558594 137.075287 -49.298302 0.685525
-87.075287 137.075287 -49.298302 0.621360
-73.591980 137.075287 -49.298302 0.599705
-60.108704 137.075287 -49.298302 0.594770
-46.625397 137.075287 -49.298302 0.535651
-33.142090 137.075287 -49.298302 0.509748
-19.658783 137.075287 -49.298302 0.475264
-6.175476 137.075287 -49.298302 0.423610
7.307800 137.075287 -49.298302 0.365254
20.791107 137.075287 -49.298302 0.353079
34.274414 137.075287 -49.298302 0.336484
47.757721 137.075287 -49.298302 0.341423
61.240997 137.075287 -49.298302 0.298252
74.724304 137.075287 -49.298302 0.263175
88.207611 137.075287 -49.298302 0.224815
101.690918 137.075287 -49.298302 0.196174
115.174225 137.075287 -49.298302 0.168823
128.657501 137.075287 -49.298302 0.143123
142.140808 137.075287 -49.298302 0.112274
155.624115 137.075287 -49.298302 0.096314
169.107422 137.075287 -49.298302 0.080025
182.590698 137.075287 -49.298302 0.066310
196.074036 137.075287 -49.298302 0.056957
209.557312 137.075287 -49.298302 0.049628
223.040588 137.075287 -49.298302 0.043626
236.523926 137.075287 -49.298302 0.035224
250.007202 137.075287 -49.298302 0.030360
263.490540 137.075287 -49.298302 0.024770
276.973816 137.075287 -49.298302 0.020047
290.457092 137.075287 -49.298302 0.014918
303.940430 137.075287 -49.298302 0.010666
317.423706 137.075287 -49.298302 0.000000
330.907043 137.075287 -49.298302 0.000000
344.390320 137.075287 -49.298302 0.000000
-343.257996 123.591980 -49.298302 0.000000
-329.774689 123.591980 -49.298302 0.000000
-316.291382 123.591980 -49.298302 0.000000
-302.808105 123.591980 -49.298302 0.039339
-289.324799 123.591980 -49.298302 0.050787
-275.841492 123.591980 -49.298302 0.065505
-262.358185 123.591980 -49.298302 0.085244
-248.874893 123.591980 -49.298302 0.104053
-235.391602 123.591980 -49.298302 0.143903
-221.908295 123.591980 -49.298302 0.191994
-208.424988 123.591980 -49.298302 0.240495
-194.941696 123.591980 -49.298302 0.298039
-181.458389 123.591980 -49.298302 0.380253
-167.975098 123.591980 -49.298302 0.478154
-154.491791 123.591980 -49.298302 0.542903
-141.008499 123.591980 -49.298302 0.593281
-127.525192 123.591980 -49.298302 0.665175
-114.041885 123.591980 -49.298302 0.699321
-100.558594 123.591980 -49.298302 0.713435
-87.075287 123.591980 -49.298302 0.660079
-73.591980 123.591980 -49.298302 0.614137
-60.108704 123.591980 -49.298302 0.600162
-46.625397 123.591980 -49.298302 0.535406
-33.142090 123.591980 -49.298302 0.481978
-19.658783 123.591980 -49.298302 0.430622
-6.175476 123.591980 -49.298302 0.394847
7.307800 123.591980 -49.298302 0.364597
20.791107 123.591980 -49.298302 0.351379
34.274414 123.591980 -49.298302 0.320054
47.757721 123.591980 -49.298302 0.324279
61.240997 123.591980 -49.298302 0.285990
74.724304 123.591980 -49.298302 0.233011
88.207611 123.591980 -49.298302 0.193163
101.690918 123.591980 -49.298302 0.162837
115.174225 123.591980 -49.298302 0.140067
128.657501 123.591980 -49.298302 0.116705
142.140808 123.591980 -49.298302 0.096226
155.624115 123.591980 -49.298302 0.081380
169.107422 123.591980 -49.298302 0.068079
182.590698 123.591980 -49.298302 0.057751
196.074036 123.591980 -49.298302 0.047118
209.557312 123.591980 -49.298302 0.037744
223.040588 123.591980 -49.298302 0.032637
236.523926 123.591980 -49.298302 0.026706
250.007202 123.591980 -49.298302 0.022360
263.490540 123.591980 -49.298302 0.019071
276.973816 123.591980 -49.298302 0.014286
290.457092 123.591980 -49.298302 0.011195
303.940430 123.591980 -49.298302 0.008469
317.423706 123.591980 -49.298302 0.000000
330.907043 123.591980 -49.298302 0.000000
344.390320 123.591980 -49.298302 0.000000
-343.257996 110.108704 -49.298302 0.000000
-329.774689 110.108704 -49.298302 0.000000
-316.291382 110.108704 -49.298302 0.000000
-302.808105 110.108704 -49.298302 0.044489
-289.324799 110.108704 -49.298302 0.054496
-275.841492 110.108704 -49.298302 0.072276
-262.358185 110.108704 -49.298302 0.093497
-248.874893 110.108704 -49.298302 0.120198
-235.391602 110.108704 -49.298302 0.156319
-221.908295 110.108704 -49.298302 0.208593
-208.424988 110.108704 -49.298302 0.275746
-194.941696 110.108704 -49.298302 0.355145
-181.458389 110.108704 -49.298302 0.447073
-167.975098 110.108704 -49.298302 0.517396
-154.491791 110.108704 -49.298302 0.608277
-141.008499 110.108704 -49.298302 0.651995
-127.525192 110.108704 -49.298302 0.713481
-114.041885 110.108704 -49.298302 0.734956
-100.558594 110.108704 -49.298302 0.717714
-87.075287 110.108704 -49.298302 0.707626
-73.591980 110.108704 -49.298302 0.660108
-60.108704 110.108704 -49.298302 0.616532
-46.625397 110.108704 -49.298302 0.558656
-33.142090 110.108704 -49.298302 0.469766
-19.658783 110.108704 -49.298302 0.431792
-6.175476 110.108704 -49.298302 0.390188
7.307800 110.108704 -49.298302 0.359982
20.791107 110.108704 -49.298302 0.336507
34.274414 110.108704 -49.298302 0.306132
47.757721 110.108704 -49.298302 0.290414
61.240997 110.108704 -49.298302 0.255741
74.724304 110.108704 -49.298302 0.214372
88.207611 110.108704 -49.298302 0.168540
101.690918 110.108704 -49.298302 0.145471
115.174225 110.108704 -49.298302 0.125381
128.657501 110.108704 -49.298302 0.100920
142.140808 110.108704 -49.298302 0.084490
155.624115 110.108704 -49.298302 0.068075
169.107422 110.108704 -49.298302 0.058532
182.590698 110.108704 -49.298302 0.047998
196.074036 110.108704 -49.298302 0.038013
209.557312 110.108704 -49.298302 0.030275
223.040588 110.108704 -49.298302 0.023491
236.523926 110.108704 -49.298302 0.019392
250.007202 110.108704 -49.298302 0.016433
263.490540 110.108704 -49.298302 0.013265
276.973816 110.108704 -49.298302 0.010631
290.457092 110.108704 -49.298302 0.008529
303.940430 110.108704 -49.298302 0.006907
317.423706 110.108704 -49.298302 0.000000
330.907043 110.108704 -49.298302 0.000000
344.390320 110.108704 -49.298302 0.000000
-343.257996 96.625397 -49.298302 0.000000
-329.774689 96.625397 -49.298302 0.000000
-316.291382 96.625397 -49.298302 0.000000
-302.808105 96.625397 -49.298302 0.046915
-289.324799 96.625397 -49.298302 0.057212
-275.841492 96.625397 -49.298302 0.078532
-262.358185 96.625397 -49.298302 0.102473
-248.874893 96.625397 -49.298302 0.134929
-235.391602 96.625397 -49.298302 0.172873
-221.908295 96.625397 -49.298302 0.229483
-208.424988 96.625397 -49.298302 0.292526
-194.941696 96.625397 -49.298302 0.396829
-181.458389 96.625397 -49.298302 0.455501
-167.975098 96.625397 -49.298302 0.569759
-154.491791 96.625397 -49.298302 0.670098
-141.008499 96.625397 -49.298302 0.732006
-127.525192 96.625397 -49.298302 0.759129
-114.041885 96.625397 -49.298302 0.752757
-100.558594 96.625397 -49.298302 0.721481
-87.075287 96.625397 -49.298302 0.691793
-73.591980 96.625397 -49.298302 0.673388
-60.108704 96.625397 -49.298302 0.618222
-46.625397 96.625397 -49.298302 0.533597
-33.142090 96.625397 -49.298302 0.502021
-19.658783 96.625397 -49.298302 0.455808
-6.175476 96.625397 -49.298302 0.407682
7.307800 96.625397 -49.298302 0.378634
20.791107 96.625397 -49.298302 0.350618
34.274414 96.625397 -49.298302 0.307381
47.757721 96.625397 -49.298302 0.283597
61.240997 96.625397 -49.298302 0.216104
74.724304 96.625397 -49.298302 0.180145
88.207611 96.625397 -49.298302 0.152833
101.690918 96.625397 -49.298302 0.126314
115.174225 96.625397 -49.298302 0.107304
128.657501 96.625397 -49.298302 0.092571
142.140808 96.625397 -49.298302 0.073342
155.624115 96.625397 -49.298302 0.058904
169.107422 96.625397 -49.298302 0.049522
182.590698 96.625397 -49.298302 0.038289
196.074036 96.625397 -49.298302 0.030420
209.557312 96.625397 -49.298302 0.024005
223.040588 96.625397 -49.298302 0.018504
236.523926 96.625397 -49.298302 0.014394
250.007202 96.625397 -49.298302 0.012161
263.490540 96.625397 -49.298302 0.009848
276.973816 96.625397 -49.298302 0.008147
290.457092 96.625397 -49.298302 0.006615
303.940430 96.625397 -49.298302 0.005667
317.423706 96.625397 -49.298302 0.000000
330.907043 96.625397 -49.298302 0.000000
344.390320 96.625397 -49.298302 0.000000
-343.257996 83.142090 -49.298302 0.000000
-329.774689 83.142090 -49.298302 0.000000
-316.291382 83.142090 -49.298302 0.000000
-302.808105 83.142090 -49.298302 0.049866
-289.324799 83.142090 -49.298302 0.063351
-275.841492 83.142090 -49.298302 0.085328
-262.358185 83.142090 -49.298302 0.111281
-248.874893 83.142090 -49.298302 0.143234
-235.391602 83.142090 -49.298302 0.189316
-221.908295 83.142090 -49.298302 0.251707
-208.424988 83.142090 -49.298302 0.326308
-194.941696 83.142090 -49.298302 0.416024
-181.458389 83.142090 -49.298302 0.512362
-167.975098 83.142090 -49.298302 0.630666
-154.491791 83.142090 -49.298302 0.679956
-141.008499 83.142090 -49.298302 0.759975
-127.525192 83.142090 -49.298302 0.792654
-114.041885 83.142090 -49.298302 0.770472
-100.558594 83.142090 -49.298302 0.738872
-87.075287 83.142090 -49.298302 0.714181
-73.591980 83.142090 -49.298302 0.651150
-60.108704 83.142090 -49.298302 0.596548
-46.625397 83.142090 -49.298302 0.538741
-33.142090 83.142090 -49.298302 0.495769
-19.658783 83.142090 -49.298302 0.459662
-6.175476 83.142090 -49.298302 0.408520
7.307800 83.142090 -49.298302 0.396298
20.791107 83.142090 -49.298302 0.371502
34.274414 83.142090 -49.298302 0.331105
47.757721 83.142090 -49.298302 0.274363
61.240997 83.142090 -49.298302 0.231245
74.724304 83.142090 -49.298302 0.173488
88.207611 83.142090 -49.298302 0.137585
101.690918 83.142090 -49.298302 0.121049
115.174225 83.142090 -49.298302 0.102921
128.657501 83.142090 -49.298302 0.083409
142.140808 83.142090 -49.298302 0.065306
155.624115 83.142090 -49.298302 0.051199
169.107422 83.142090 -49.298302 0.043180
182.590698 83.142090 -49.298302 0.032857
196.074036 83.142090 -49.298302 0.025649
209.557312 83.142090 -49.298302 0.019278
223.040588 83.142090 -49.298302 0.014348
236.523926 83.142090 -49.298302 0.011160
250.007202 83.142090 -49.298302 0.009456
263.490540 83.142090 -49.298302 0.008188
276.973816 83.142090 -49.298302 0.007001
290.457092 83.142090 -49.298302 0.005800
303.940430 83.142090 -49.298302 0.005066
317.423706 83.142090 -49.298302 0.000000
330.907043 83.142090 -49.298302 0.000000
344.390320 83.142090 -49.298302 0.000000
-343.257996 69.658783 -49.298302 0.000000
-329.774689 69.658783 -49.298302 0.000000
-316.291382 69.658783 -49.298302 0.000000
-302.808105 69.658783 -49.298302 0.054617
-289.324799 69.658783 -49.298302 0.073804
-275.841492 69.658783 -49.298302 0.096827
-262.358185 69.658783 -49.298302 0.119195
-248.874893 69.658783 -49.298302 0.155043
-235.391602 69.658783 -49.298302 0.213344
-221.908295 69.658783 -49.298302 0.280207
-208.424988 69.658783 -49.298302 0.375598
-194.941696 69.658783 -49.298302 0.439148
-181.458389 69.658783 -49.298302 0.575344
-167.975098 69.658783 -49.298302 0.664118
-154.491791 69.658783 -49.298302 0.754962
-141.008499 69.658783 -49.298302 0.765147
-127.525192 69.658783 -49.298302 0.802636
-114.041885 69.658783 -49.298302 0.797433
-100.558594 69.658783 -49.298302 0.761326
-87.075287 69.658783 -49.298302 0.682339
-73.591980 69.658783 -49.298302 0.606086
-60.108704 69.658783 -49.298302 0.571858
-46.625397 69.658783 -49.298302 0.516571
-33.142090 69.658783 -49.298302 0.493763
-19.658783 69.658783 -49.298302 0.472714
-6.175476 69.658783 -49.298302 0.421525
7.307800 69.658783 -49.298302 0.411639
20.791107 69.658783 -49.298302 0.390356
34.274414 69.658783 -49.298302 0.356324
47.757721 69.658783 -49.298302 0.295731
61.240997 69.658783 -49.298302 0.252279
74.724304 69.658783 -49.298302 0.188888
88.207611 69.658783 -49.298302 0.146692
101.690918 69.658783 -49.298302 0.115718
115.174225 69.658783 -49.298302 0.100158
128.657501 69.658783 -49.298302 0.077712
142.140808 69.658783 -49.298302 0.060244
155.624115 69.658783 -49.298302 0.051468
169.107422 69.658783 -49.298302 0.041601
182.590698 69.658783 -49.298302 0.033205
196.074036 69.658783 -49.298302 0.024016
209.557312 69.658783 -49.298302 0.018217
223.040588 69.658783 -49.298302 0.013589
236.523926 69.658783 -49.298302 0.010629
250.007202 69.658783 -49.298302 0.008843
263.490540 69.658783 -49.298302 0.007754
276.973816 69.658783 -49.298302 0.006615
290.457092 69.658783 -49.298302 0.005487
303.940430 69.658783 -49.298302 0.004942
317.423706 69.658783 -49.298302 0.000000
330.907043 69.658783 -49.298302 0.000000
344.390320 69.658783 -49.298302 0.000000
-343.257996 56.175476 -49.298302 0.000000
-329.774689 56.175476 -49.298302 0.000000
-316.291382 56.175476 -49.298302 0.000000
-302.808105 56.175476 -49.298302 0.060640
-289.324799 56.175476 -49.298302 0.082444
-275.841492 56.175476 -49.298302 0.109078
-262.358185 56.175476 -49.298302 0.141609
-248.874893 56.175476 -49.298302 0.176364
-235.391602 56.175476 -49.298302 0.249060
-221.908295 56.175476 -49.298302 0.327146
-208.424988 56.175476 -49.298302 0.408662
-194.941696 56.175476 -49.298302 0.500573
-181.458389 56.175476 -49.298302 0.622058
-167.975098 56.175476 -49.298302 0.711361
-154.491791 56.175476 -49.298302 0.816617
-141.008499 56.175476 -49.298302 0.814729
-127.525192 56.175476 -49.298302 0.804306
-114.041885 56.175476 -49.298302 0.753909
-100.558594 56.175476 -49.298302 0.715545
-87.075287 56.175476 -49.298302 0.618003
-73.591980 56.175476 -49.298302 0.580576
-60.108704 56.175476 -49.298302 0.525446
-46.625397 56.175476 -49.298302 0.500057
-33.142090 56.175476 -49.298302 0.469931
-19.658783 56.175476 -49.298302 0.459907
-6.175476 56.175476 -49.298302 0.440581
7.307800 56.175476 -49.298302 0.426201
20.791107 56.175476 -49.298302 0.424477
34.274414 56.175476 -49.298302 0.399156
47.757721 56.175476 -49.298302 0.322576
61.240997 56.175476 -49.298302 0.272115
74.724304 56.175476 -49.298302 0.211088
88.207611 56.175476 -49.298302 0.162488
101.690918 56.175476 -49.298302 0.131099
115.174225 56.175476 -49.298302 0.110058
128.657501 56.175476 -49.298302 0.088932
142.140808 56.175476 -49.298302 0.075431
155.624115 56.175476 -49.298302 0.064119
169.107422 56.175476 -49.298302 0.050258
182.590698 56.175476 -49.298302 0.039143
196.074036 56.175476 -49.298302 0.028957
209.557312 56.175476 -49.298302 0.021090
223.040588 56.175476 -49.298302 0.015655
236.523926 56.175476 -49.298302 0.011755
250.007202 56.175476 -49.298302 0.008940
263.490540 56.175476 -49.298302 0.007618
276.973816 56.175476 -49.298302 0.006917
290.457092 56.175476 -49.298302 0.005937
303.940430 56.175476 -49.298302 0.005405
317.423706 56.175476 -49.298302 0.000000
330.907043 56.175476 -49.298302 0.000000
344.390320 56.175476 -49.298302 0.000000
-343.257996 42.692200 -49.298302 0.000000
-329.774689 42.692200 -49.298302 0.000000
-316.291382 42.692200 -49.298302 0.000000
-302.808105 42.692200 -49.298302 0.069757
-289.324799 42.692200 -49.298302 0.086958
-275.841492 42.692200 -49.298302 0.115225
-262.358185 42.692200 -49.298302 0.148182
-248.874893 42.692200 -49.298302 0.199940
-235.391602 42.692200 -49.298302 0.266034
-221.908295 42.692200 -49.298302 0.337863
-208.424988 42.692200 -49.298302 0.452093
-194.941696 42.692200 -49.298302 0.575699
-181.458389 42.692200 -49.298302 0.687290
-167.975098 42.692200 -49.298302 0.760095
-154.491791 42.692200 -49.298302 0.855101
-141.008499 42.692200 -49.298302 0.821863
-127.525192 42.692200 -49.298302 0.734462
-114.041885 42.692200 -49.298302 0.680579
-100.558594 42.692200 -49.298302 0.631968
-87.075287 42.692200 -49.298302 0.572113
-73.591980 42.692200 -49.298302 0.541552
-60.108704 42.692200 -49.298302 0.525933
-46.625397 42.692200 -49.298302 0.493865
-33.142090 42.692200 -49.298302 0.455870
-19.658783 42.692200 -49.298302 0.437071
-6.175476 42.692200 -49.298302 0.422394
7.307800 42.692200 -49.298302 0.441153
20.791107 42.692200 -49.298302 0.430550
34.274414 42.692200 -49.298302 0.412033
47.757721 42.692200 -49.298302 0.364689
61.240997 42.692200 -49.298302 0.293981
74.724304 42.692200 -49.298302 0.239001
88.207611 42.692200 -49.298302 0.201217
101.690918 42.692200 -49.298302 0.161696
115.174225 42.692200 -49.298302 0.137576
128.657501 42.692200 -49.298302 0.109179
142.140808 42.692200 -49.298302 0.098010
155.624115 42.692200 -49.298302 0.084315
169.107422 42.692200 -49.298302 0.065727
182.590698 42.692200 -49.298302 0.050853
196.074036 42.692200 -49.298302 0.035686
209.557312 42.692200 -49.298302 0.026705
223.040588 42.692200 -49.298302 0.018833
236.523926 42.692200 -49.298302 0.013620
250.007202 42.692200 -49.298302 0.009877
263.490540 42.692200 -49.298302 0.008395
276.973816 42.692200 -49.298302 0.007084
290.457092 42.692200 -49.298302 0.006278
303.940430 42.692200 -49.298302 0.000000
317.423706 42.692200 -49.298302 0.000000
330.907043 42.692200 -49.298302 0.000000
344.390320 42.692200 -49.298302 0.000000
-343.257996 29.208893 -49.298302 0.000000
-329.774689 29.208893 -49.298302 0.000000
-316.291382 29.208893 -49.298302 0.000000
-302.808105 29.208893 -49.298302 0.079909
-289.324799 29.208893 -49.298302 0.096703
-275.841492 29.208893 -49.298302 0.124990
-262.358185 29.208893 -49.298302 0.158680
-248.874893 29.208893 -49.298302 0.229142
-235.391602 29.208893 -49.298302 0.304712
-221.908295 29.208893 -49.298302 0.400512
-208.424988 29.208893 -49.298302 0.514744
-194.941696 29.208893 -49.298302 0.645447
-181.458389 29.208893 -49.298302 0.738043
-167.975098 29.208893 -49.298302 0.817928
-154.491791 29.208893 -49.298302 0.817336
-141.008499 29.208893 -49.298302 0.772654
-127.525192 29.208893 -49.298302 0.689282
-114.041885 29.208893 -49.298302 0.595447
-100.558594 29.208893 -49.298302 0.555246
-87.075287 29.208893 -49.298302 0.512910
-73.591980 29.208893 -49.298302 0.507811
-60.108704 29.208893 -49.298302 0.510145
-46.625397 29.208893 -49.298302 0.479582
-33.142090 29.208893 -49.298302 0.462852
-19.658783 29.208893 -49.298302 0.432622
-6.175476 29.208893 -49.298302 0.428840
7.307800 29.208893 -49.298302 0.437186
20.791107 29.208893 -49.298302 0.423892
34.274414 29.208893 -49.298302 0.404509
47.757721 29.208893 -49.298302 0.364539
61.240997 29.208893 -49.298302 0.323033
74.724304 29.208893 -49.298302 0.275247
88.207611 29.208893 -49.298302 0.232517
101.690918 29.208893 -49.298302 0.200552
115.174225 29.208893 -49.298302 0.172648
128.657501 29.208893 -49.298302 0.150477
142.140808 29.208893 -49.298302 0.134442
155.624115 29.208893 -49.298302 0.116060
169.107422 29.208893 -49.298302 0.091360
182.590698 29.208893 -49.298302 0.068670
196.074036 29.208893 -49.298302 0.049609
209.557312 29.208893 -49.298302 0.033922
223.040588 29.208893 -49.298302 0.023538
236.523926 29.208893 -49.298302 0.016885
250.007202 29.208893 -49.298302 0.012283
263.490540 29.208893 -49.298302 0.009752
276.973816 29.208893 -49.298302 0.007362
290.457092 29.208893 -49.298302 0.006448
303.940430 29.208893 -49.298302 0.000000
317.423706 29.208893 -49.298302 0.000000
330.907043 29.208893 -49.298302 0.000000
344.390320 29.208893 -49.298302 0.000000
-343.257996 15.725586 -49.298302 0.000000
-329.774689 15.725586 -49.298302 0.000000
-316.291382 15.725586 -49.298302 0.000000
-302.808105 15.725586 -49.298302 0.083266
-289.324799 15.725586 -49.298302 0.100368
-275.841492 15.725586 -49.298302 0.135611
-262.358185 15.725586 -49.298302 0.177571
-248.874893 15.725586 -49.298302 0.243001
-235.391602 15.725586 -49.298302 0.332723
-221.908295 15.725586 -49.298302 0.451667
-208.424988 15.725586 -49.298302 0.561325
-194.941696 15.725586 -49.298302 0.656229
-181.458389 15.725586 -49.298302 0.744741
-167.975098 15.725586 -49.298302 0.785436
-154.491791 15.725586 -49.298302 0.772120
-141.008499 15.725586 -49.298302 0.711563
-127.525192 15.725586 -49.298302 0.664315
-114.041885 15.725586 -49.298302 0.596653
-100.558594 15.725586 -49.298302 0.516336
-87.075287 15.725586 -49.298302 0.481140
-73.591980 15.725586 -49.298302 0.457133
-60.108704 15.725586 -49.298302 0.454690
-46.625397 15.725586 -49.298302 0.460503
-33.142090 15.725586 -49.298302 0.434909
-19.658783 15.725586 -49.298302 0.410963
-6.175476 15.725586 -49.298302 0.406243
7.307800 15.725586 -49.298302 0.413357
20.791107 15.725586 -49.298302 0.396059
34.274414 15.725586 -49.298302 0.390302
47.757721 15.725586 -49.298302 0.363723
61.240997 15.725586 -49.298302 0.324248
74.724304 15.725586 -49.298302 0.283340
88.207611 15.725586 -49.298302 0.237895
101.690918 15.725586 -49.298302 0.216951
115.174225 15.725586 -49.298302 0.201033
128.657501 15.725586 -49.298302 0.177606
142.140808 15.725586 -49.298302 0.169043
155.624115 15.725586 -49.298302 0.149936
169.107422 15.725586 -49.298302 0.117689
182.590698 15.725586 -49.298302 0.093108
196.074036 15.725586 -49.298302 0.067115
209.557312 15.725586 -49.298302 0.045232
223.040588 15.725586 -49.298302 0.031974
236.523926 15.725586 -49.298302 0.022059
250.007202 15.725586 -49.298302 0.015544
263.490540 15.725586 -49.298302 0.011708
276.973816 15.725586 -49.298302 0.008598
290.457092 15.725586 -49.298302 0.006879
303.940430 15.725586 -49.298302 0.000000
317.423706 15.725586 -49.298302 0.000000
330.907043 15.725586 -49.298302 0.000000
344.390320 15.725586 -49.298302 0.000000
-343.257996 2.242279 -49.298302 0.000000
-329.774689 2.242279 -49.298302 0.000000
-316.291382 2.242279 -49.298302 0.000000
-302.808105 2.242279 -49.298302 0.084142
-289.324799 2.242279 -49.298302 0.108544
-275.841492 2.242279 -49.298302 0.147427
-262.358185 2.242279 -49.298302 0.197546
-248.874893 2.242279 -49.298302 0.275666
-235.391602 2.242279 -49.298302 0.362412
-221.908295 2.242279 -49.298302 0.446248
-208.424988 2.242279 -49.298302 0.586648
-194.941696 2.242279 -49.298302 0.670614
-181.458389 2.242279 -49.298302 0.754753
-167.975098 2.242279 -49.298302 0.763514
-154.491791 2.242279 -49.298302 0.722128
-141.008499 2.242279 -49.298302 0.674877
-127.525192 2.242279 -49.298302 0.611476
-114.041885 2.242279 -49.298302 0.574618
-100.558594 2.242279 -49.298302 0.464048
-87.075287 2.242279 -49.298302 0.451942
-73.591980 2.242279 -49.298302 0.426828
-60.108704 2.242279 -49.298302 0.395385
-46.625397 2.242279 -49.298302 0.422148
-33.142090 2.242279 -49.298302 0.410800
-19.658783 2.242279 -49.298302 0.387911
-6.175476 2.242279 -49.298302 0.388238
7.307800 2.242279 -49.298302 0.394075
20.791107 2.242279 -49.298302 0.386096
34.274414 2.242279 -49.298302 0.378514
47.757721 2.242279 -49.298302 0.360466
61.240997 2.242279 -49.298302 0.308503
74.724304 2.242279 -49.298302 0.279109
88.207611 2.242279 -49.298302 0.239488
101.690918 2.242279 -49.298302 0.210548
115.174225 2.242279 -49.298302 0.204664
128.657501 2.242279 -49.298302 0.190924
142.140808 2.242279 -49.298302 0.184291
155.624115 2.242279 -49.298302 0.171141
169.107422 2.242279 -49.298302 0.144322
182.590698 2.242279 -49.298302 0.115147
196.074036 2.242279 -49.298302 0.084260
209.557312 2.242279 -49.298302 0.057290
223.040588 2.242279 -49.298302 0.039419
236.523926 2.242279 -49.298302 0.026936
250.007202 2.242279 -49.298302 0.018877
263.490540 2.242279 -49.298302 0.013168
276.973816 2.242279 -49.298302 0.009944
290.457092 2.242279 -49.298302 0.007708
303.940430 2.242279 -49.298302 0.000000
317.423706 2.242279 -49.298302 0.000000
330.907043 2.242279 -49.298302 0.000000
344.390320 2.242279 -49.298302 0.000000
-343.257996 -11.240997 -49.298302 0.000000
-329.774689 -11.240997 -49.298302 0.000000
-316.291382 -11.240997 -49.298302 0.000000
-302.808105 -11.240997 -49.298302 0.084299
-289.324799 -11.240997 -49.298302 0.108269
-275.841492 -11.240997 -49.298302 0.147887
-262.358185 -11.240997 -49.298302 0.200114
-248.874893 -11.240997 -49.298302 0.286033
-235.391602 -11.240997 -49.298302 0.378684
-221.908295 -11.240997 -49.298302 0.477849
-208.424988 -11.240997 -49.298302 0.610729
-194.941696 -11.240997 -49.298302 0.761528
-181.458389 -11.240997 -49.298302 0.754891
-167.975098 -11.240997 -49.298302 0.757363
-154.491791 -11.240997 -49.298302 0.702744
-141.008499 -11.240997 -49.298302 0.641132
-127.525192 -11.240997 -49.298302 0.572394
-114.041885 -11.240997 -49.298302 0.534252
-100.558594 -11.240997 -49.298302 0.471883
-87.075287 -11.240997 -49.298302 0.399541
-73.591980 -11.240997 -49.298302 0.375045
-60.108704 -11.240997 -49.298302 0.363456
-46.625397 -11.240997 -49.298302 0.374570
-33.142090 -11.240997 -49.298302 0.372173
-19.658783 -11.240997 -49.298302 0.365937
-6.175476 -11.240997 -49.298302 0.355982
7.307800 -11.240997 -49.298302 0.348066
20.791107 -11.240997 -49.298302 0.359279
34.274414 -11.240997 -49.298302 0.352338
47.757721 -11.240997 -49.298302 0.315840
61.240997 -11.240997 -49.298302 0.274112
74.724304 -11.240997 -49.298302 0.240633
88.207611 -11.240997 -49.298302 0.219929
101.690918 -11.240997 -49.298302 0.192285
115.174225 -11.240997 -49.298302 0.184726
128.657501 -11.240997 -49.298302 0.194838
142.140808 -11.240997 -49.298302 0.188396
155.624115 -11.240997 -49.298302 0.183506
169.107422 -11.240997 -49.298302 0.169304
182.590698 -11.240997 -49.298302 0.141564
196.074036 -11.240997 -49.298302 0.110115
209.557312 -11.240997 -49.298302 0.075656
223.040588 -11.240997 -49.298302 0.050372
236.523926 -11.240997 -49.298302 0.031317
250.007202 -11.240997 -49.298302 0.021155
263.490540 -11.240997 -49.298302 0.015178
276.973816 -11.240997 -49.298302 0.010855
290.457092 -11.240997 -49.298302 0.008554
303.940430 -11.240997 -49.298302 0.000000
317.423706 -11.240997 -49.298302 0.000000
330.907043 -11.240997 -49.298302 0.000000
344.390320 -11.240997 -49.298302 0.000000
-343.257996 -24.724304 -49.298302 0.000000
-329.774689 -24.724304 -49.298302 0.000000
-316.291382 -24.724304 -49.298302 0.000000
-302.808105 -24.724304 -49.298302 0.085257
-289.324799 -24.724304 -49.298302 0.111780
-275.841492 -24.724304 -49.298302 0.152344
-262.358185 -24.724304 -49.298302 0.211682
-248.874893 -24.724304 -49.298302 0.287691
-235.391602 -24.724304 -49.298302 0.413160
-221.908295 -24.724304 -49.298302 0.532687
-208.424988 -24.724304 -49.298302 0.597243
-194.941696 -24.724304 -49.298302 0.739013
-181.458389 -24.724304 -49.298302 0.782273
-167.975098 -24.724304 -49.298302 0.711807
-154.491791 -24.724304 -49.298302 0.716559
-141.008499 -24.724304 -49.298302 0.633966
-127.525192 -24.724304 -49.298302 0.564619
-114.041885 -24.724304 -49.298302 0.494523
-100.558594 -24.724304 -49.298302 0.470235
-87.075287 -24.724304 -49.298302 0.411174
-73.591980 -24.724304 -49.298302 0.378572
-60.108704 -24.724304 -49.298302 0.356302
-46.625397 -24.724304 -49.298302 0.351321
-33.142090 -24.724304 -49.298302 0.348109
-19.658783 -24.724304 -49.298302 0.341433
-6.175476 -24.724304 -49.298302 0.325952
7.307800 -24.724304 -49.298302 0.330139
20.791107 -24.724304 -49.298302 0.320416
34.274414 -24.724304 -49.298302 0.302579
47.757721 -24.724304 -49.298302 0.269134
61.240997 -24.724304 -49.298302 0.218196
74.724304 -24.724304 -49.298302 0.189736
88.207611 -24.724304 -49.298302 0.175602
101.690918 -24.724304 -49.298302 0.155778
115.174225 -24.724304 -49.298302 0.151789
128.657501 -24.724304 -49.298302 0.169944
142.140808 -24.724304 -49.298302 0.185449
155.624115 -24.724304 -49.298302 0.186532
169.107422 -24.724304 -49.298302 0.180478
182.590698 -24.724304 -49.298302 0.173514
196.074036 -24.724304 -49.298302 0.132229
209.557312 -24.724304 -49.298302 0.091185
223.040588 -24.724304 -49.298302 0.059962
236.523926 -24.724304 -49.298302 0.037351
250.007202 -24.724304 -49.298302 0.024375
263.490540 -24.724304 -49.298302 0.016530
276.973816 -24.724304 -49.298302 0.011953
290.457092 -24.724304 -49.298302 0.009525
303.940430 -24.724304 -49.298302 0.000000
317.423706 -24.724304 -49.298302 0.000000
330.907043 -24.724304 -49.298302 0.000000
344.390320 -24.724304 -49.298302 0.000000
-343.257996 -38.207611 -49.298302 0.000000
-329.774689 -38.207611 -49.298302 0.000000
-316.291382 -38.207611 -49.298302 0.000000
-302.808105 -38.207611 -49.298302 0.095327
-289.324799 -38.207611 -49.298302 0.128631
-275.841492 -38.207611 -49.298302 0.169262
-262.358185 -38.207611 -49.298302 0.245953
-248.874893 -38.207611 -49.298302 0.343557
-235.391602 -38.207611 -49.298302 0.457942
-221.908295 -38.207611 -49.298302 0.560363
-208.424988 -38.207611 -49.298302 0.630402
-194.941696 -38.207611 -49.298302 0.722512
-181.458389 -38.207611 -49.298302 0.762779
-167.975098 -38.207611 -49.298302 0.723721
-154.491791 -38.207611 -49.298302 0.660244
-141.008499 -38.207611 -49.298302 0.615063
-127.525192 -38.207611 -49.298302 0.588871
-114.041885 -38.207611 -49.298302 0.546502
-100.558594 -38.207611 -49.298302 0.511864
-87.075287 -38.207611 -49.298302 0.458336
-73.591980 -38.207611 -49.298302 0.421467
-60.108704 -38.207611 -49.298302 0.368007
-46.625397 -38.207611 -49.298302 0.346162
-33.142090 -38.207611 -49.298302 0.321698
-19.658783 -38.207611 -49.298302 0.333201
-6.175476 -38.207611 -49.298302 0.308459
7.307800 -38.207611 -49.298302 0.306562
20.791107 -38.207611 -49.298302 0.286215
34.274414 -38.207611 -49.298302 0.254617
47.757721 -38.207611 -49.298302 0.214513
61.240997 -38.207611 -49.298302 0.177898
74.724304 -38.207611 -49.298302 0.146590
88.207611 -38.207611 -49.298302 0.136648
101.690918 -38.207611 -49.298302 0.122629
115.174225 -38.207611 -49.298302 0.128808
128.657501 -38.207611 -49.298302 0.150262
142.140808 -38.207611 -49.298302 0.165083
155.624115 -38.207611 -49.298302 0.183925
169.107422 -38.207611 -49.298302 0.199128
182.590698 -38.207611 -49.298302 0.189522
196.074036 -38.207611 -49.298302 0.147298
209.557312 -38.207611 -49.298302 0.107541
223.040588 -38.207611 -49.298302 0.065161
236.523926 -38.207611 -49.298302 0.042931
250.007202 -38.207611 -49.298302 0.026233
263.490540 -38.207611 -49.298302 0.018090
276.973816 -38.207611 -49.298302 0.013128
290.457092 -38.207611 -49.298302 0.010231
303.940430 -38.207611 -49.298302 0.000000
317.423706 -38.207611 -49.298302 0.000000
330.907043 -38.207611 -49.298302 0.000000
344.390320 -38.207611 -49.298302 0.000000
-343.257996 -51.690918 -49.298302 0.000000
-329.774689 -51.690918 -49.298302 0.000000
-316.291382 -51.690918 -49.298302 0.000000
-302.808105 -51.690918 -49.298302 0.000000
-289.324799 -51.690918 -49.298302 0.141472
-275.841492 -51.690918 -49.298302 0.000000
-262.358185 -51.690918 -49.298302 0.000000
-248.874893 -51.690918 -49.298302 0.000000
-235.391602 -51.690918 -49.298302 0.000000
-221.908295 -51.690918 -49.298302 0.000000
-208.424988 -51.690918 -49.298302 0.659721
-194.941696 -51.690918 -49.298302 0.000000
-181.458389 -51.690918 -49.298302 0.777251
-167.975098 -51.690918 -49.298302 0.721004
-154.491791 -51.690918 -49.298302 0.655122
-141.008499 -51.690918 -49.298302 0.597337
-127.525192 -51.690918 -49.298302 0.601310
-114.041885 -51.690918 -49.298302 0.563111
-100.558594 -51.690918 -49.298302 0.498948
-87.075287 -51.690918 -49.298302 0.450682
-73.591980 -51.690918 -49.298302 0.000000
-60.108704 -51.690918 -49.298302 0.373960
-46.625397 -51.690918 -49.298302 0.347773
-33.142090 -51.690918 -49.298302 0.338316
-19.658783 -51.690918 -49.298302 0.326576
-6.175476 -51.690918 -49.298302 0.307963
7.307800 -51.690918 -49.298302 0.275256
20.791107 -51.690918 -49.298302 0.252299
34.274414 -51.690918 -49.298302 0.227108
47.757721 -51.690918 -49.298302 0.177672
61.240997 -51.690918 -49.298302 0.137599
74.724304 -51.690918 -49.298302 0.120579
88.207611 -51.690918 -49.298302 0.114607
101.690918 -51.690918 -49.298302 0.105684
115.174225 -51.690918 -49.298302 0.112492
128.657501 -51.690918 -49.298302 0.129354
142.140808 -51.690918 -49.298302 0.156758
155.624115 -51.690918 -49.298302 0.178815
169.107422 -51.690918 -49.298302 0.200383
182.590698 -51.690918 -49.298302 0.202204
196.074036 -51.690918 -49.298302 0.166977
209.557312 -51.690918 -49.298302 0.122073
223.040588 -51.690918 -49.298302 0.075422
236.523926 -51.690918 -49.298302 0.048883
250.007202 -51.690918 -49.298302 0.030223
263.490540 -51.690918 -49.298302 0.019166
276.973816 -51.690918 -49.298302 0.014519
290.457092 -51.690918 -49.298302 0.011784
303.940430 -51.690918 -49.298302 0.000000
317.423706 -51.690918 -49.298302 0.000000
330.907043 -51.690918 -49.298302 0.000000
344.390320 -51.690918 -49.298302 0.000000
-343.257996 -65.174225 -49.298302 0.000000
-329.774689 -65.174225 -49.298302 0.000000
-316.291382 -65.174225 -49.298302 0.000000
-302.808105 -65.174225 -49.298302 0.000000
-289.324799 -65.174225 -49.298302 0.000000
-275.841492 -65.174225 -49.298302 0.000000
-262.358185 -65.174225 -49.298302 0.000000
-248.874893 -65.174225 -49.298302 0.000000
-235.391602 -65.174225 -49.298302 0.000000
-221.908295 -65.174225 -49.298302 0.610949
-208.424988 -65.174225 -49.298302 0.000000
-194.941696 -65.174225 -49.298302 0.000000
-181.458389 -65.174225 -49.298302 0.736715
-167.975098 -65.174225 -49.298302 0.734631
-154.491791 -65.174225 -49.298302 0.658941
-141.008499 -65.174225 -49.298302 0.631016
-127.525192 -65.174225 -49.298302 0.607586
-114.041885 -65.174225 -49.298302 0.583942
-100.558594 -65.174225 -49.298302 0.511387
-87.075287 -65.174225 -49.298302 0.477978
-73.591980 -65.174225 -49.298302 0.431058
-60.108704 -65.174225 -49.298302 0.370309
-46.625397 -65.174225 -49.298302 0.364282
-33.142090 -65.174225 -49.298302 0.356954
-19.658783 -65.174225 -49.298302 0.342753
-6.175476 -65.174225 -49.298302 0.300867
7.307800 -65.174225 -49.298302 0.278328
20.791107 -65.174225 -49.298302 0.240550
34.274414 -65.174225 -49.298302 0.199477
47.757721 -65.174225 -49.298302 0.161585
61.240997 -65.174225 -49.298302 0.123975
74.724304 -65.174225 -49.298302 0.108014
88.207611 -65.174225 -49.298302 0.098391
101.690918 -65.174225 -49.298302 0.093191
115.174225 -65.174225 -49.298302 0.095525
128.657501 -65.174225 -49.298302 0.110924
142.140808 -65.174225 -49.298302 0.138963
155.624115 -65.174225 -49.298302 0.171318
169.107422 -65.174225 -49.298302 0.194788
182.590698 -65.174225 -49.298302 0.200295
196.074036 -65.174225 -49.298302 0.177069
209.557312 -65.174225 -49.298302 0.140512
223.040588 -65.174225 -49.298302 0.088628
236.523926 -65.174225 -49.298302 0.056243
250.007202 -65.174225 -49.298302 0.032774
263.490540 -65.174225 -49.298302 0.022048
276.973816 -65.174225 -49.298302 0.016922
290.457092 -65.174225 -49.298302 0.012498
303.940430 -65.174225 -49.298302 0.000000
317.423706 -65.174225 -49.298302 0.000000
330.907043 -65.174225 -49.298302 0.000000
344.390320 -65.174225 -49.298302 0.000000
-343.257996 -78.657501 -49.298302 0.000000
-329.774689 -78.657501 -49.298302 0.000000
-316.291382 -78.657501 -49.298302 0.000000
-302.808105 -78.657501 -49.298302 0.000000
-289.324799 -78.657501 -49.298302 0.000000
-275.841492 -78.657501 -49.298302 0.000000
-262.358185 -78.657501 -49.298302 0.000000
-248.874893 -78.657501 -49.298302 0.000000
-235.391602 -78.657501 -49.298302 0.000000
-221.908295 -78.657501 -49.298302 0.000000
-208.424988 -78.657501 -49.298302 0.000000
-194.941696 -78.657501 -49.298302 0.000000
-181.458389 -78.657501 -49.298302 0.000000
-167.975098 -78.657501 -49.298302 0.732140
-154.491791 -78.657501 -49.298302 0.703909
-141.008499 -78.657501 -49.298302 0.681258
-127.525192 -78.657501 -49.298302 0.651628
-114.041885 -78.657501 -49.298302 0.000000
-100.558594 -78.657501 -49.298302 0.000000
-87.075287 -78.657501 -49.298302 0.502558
-73.591980 -78.657501 -49.298302 0.404388
-60.108704 -78.657501 -49.298302 0.370796
-46.625397 -78.657501 -49.298302 0.365844
-33.142090 -78.657501 -49.298302 0.370585
-19.658783 -78.657501 -49.298302 0.323424
-6.175476 -78.657501 -49.298302 0.284471
7.307800 -78.657501 -49.298302 0.255303
20.791107 -78.657501 -49.298302 0.204098
34.274414 -78.657501 -49.298302 0.170104
47.757721 -78.657501 -49.298302 0.141137
61.240997 -78.657501 -49.298302 0.102568
74.724304 -78.657501 -49.298302 0.092428
88.207611 -78.657501 -49.298302 0.087254
101.690918 -78.657501 -49.298302 0.083579
115.174225 -78.657501 -49.298302 0.085192
128.657501 -78.657501 -49.298302 0.104204
142.140808 -78.657501 -49.298302 0.126100
155.624115 -78.657501 -49.298302 0.161962
169.107422 -78.657501 -49.298302 0.192299
182.590698 -78.657501 -49.298302 0.205746
196.074036 -78.657501 -49.298302 0.192926
209.557312 -78.657501 -49.298302 0.156505
223.040588 -78.657501 -49.298302 0.105278
236.523926 -78.657501 -49.298302 0.065812
250.007202 -78.657501 -49.298302 0.038834
263.490540 -78.657501 -49.298302 0.025286
276.973816 -78.657501 -49.298302 0.018953
290.457092 -78.657501 -49.298302 0.016663
303.940430 -78.657501 -49.298302 0.000000
317.423706 -78.657501 -49.298302 0.000000
330.907043 -78.657501 -49.298302 0.000000
344.390320 -78.657501 -49.298302 0.000000
-343.257996 -92.140808 -49.298302 0.000000
-329.774689 -92.140808 -49.298302 0.000000
-316.291382 -92.140808 -49.298302 0.000000
-302.808105 -92.140808 -49.298302 0.000000
-289.324799 -92.140808 -49.298302 0.000000
-275.841492 -92.140808 -49.298302 0.000000
-262.358185 -92.140808 -49.298302 0.000000
-248.874893 -92.140808 -49.298302 0.000000
-235.391602 -92.140808 -49.298302 0.000000
-221.908295 -92.140808 -49.298302 0.000000
-208.424988 -92.140808 -49.298302 0.000000
-194.941696 -92.140808 -49.298302 0.000000
-181.458389 -92.140808 -49.298302 0.000000
-167.975098 -92.140808 -49.298302 0.000000
-154.491791 -92.140808 -49.298302 0.000000
-141.008499 -92.140808 -49.298302 0.000000
-127.525192 -92.140808 -49.298302 0.000000
-114.041885 -92.140808 -49.298302 0.000000
-100.558594 -92.140808 -49.298302 0.000000
-87.075287 -92.140808 -49.298302 0.000000
-73.591980 -92.140808 -49.298302 0.428113
-60.108704 -92.140808 -49.298302 0.358485
-46.625397 -92.140808 -49.298302 0.324127
-33.142090 -92.140808 -49.298302 0.305970
-19.658783 -92.140808 -49.298302 0.293031
-6.175476 -92.140808 -49.298302 0.279104
7.307800 -92.140808 -49.298302 0.249212
20.791107 -92.140808 -49.298302 0.183340
34.274414 -92.140808 -49.298302 0.139314
47.757721 -92.140808 -49.298302 0.108686
61.240997 -92.140808 -49.298302 0.087039
74.724304 -92.140808 -49.298302 0.083649
88.207611 -92.140808 -49.298302 0.079231
101.690918 -92.140808 -49.298302 0.079888
115.174225 -92.140808 -49.298302 0.083919
128.657501 -92.140808 -49.298302 0.098123
142.140808 -92.140808 -49.298302 0.119837
155.624115 -92.140808 -49.298302 0.149629
169.107422 -92.140808 -49.298302 0.178371
182.590698 -92.140808 -49.298302 0.205536
196.074036 -92.140808 -49.298302 0.204023
209.557312 -92.140808 -49.298302 0.172852
223.040588 -92.140808 -49.298302 0.118375
236.523926 -92.140808 -49.298302 0.074256
250.007202 -92.140808 -49.298302 0.046150
263.490540 -92.140808 -49.298302 0.030532
276.973816 -92.140808 -49.298302 0.022684
290.457092 -92.140808 -49.298302 0.018530
303.940430 -92.140808 -49.298302 0.000000
317.423706 -92.140808 -49.298302 0.000000
330.907043 -92.140808 -49.298302 0.000000
344.390320 -92.140808 -49.298302 0.000000
-343.257996 -105.624115 -49.298302 0.000000
-329.774689 -105.624115 -49.298302 0.000000
-316.291382 -105.624115 -49.298302 0.000000
-302.808105 -105.624115 -49.298302 0.000000
-289.324799 -105.624115 -49.298302 0.000000
-275.841492 -105.624115 -49.298302 0.000000
-262.358185 -105.624115 -49.298302 0.000000
-248.874893 -105.624115 -49.298302 0.000000
-235.391602 -105.624115 -49.298302 0.000000
-221.908295 -105.624115 -49.298302 0.000000
-208.424988 -105.624115 -49.298302 0.000000
-194.941696 -105.624115 -49.298302 0.000000
-181.458389 -105.624115 -49.298302 0.000000
-167.975098 -105.624115 -49.298302 0.000000
-154.491791 -105.624115 -49.298302 0.000000
-141.008499 -105.624115 -49.298302 0.770479
-127.525192 -105.624115 -49.298302 0.000000
-114.041885 -105.624115 -49.298302 0.678492
-100.558594 -105.624115 -49.298302 0.000000
-87.075287 -105.624115 -49.298302 0.000000
-73.591980 -105.624115 -49.298302 0.000000
-60.108704 -105.624115 -49.298302 0.000000
-46.625397 -105.624115 -49.298302 0.000000
-33.142090 -105.624115 -49.298302 0.284146
-19.658783 -105.624115 -49.298302 0.273256
-6.175476 -105.624115 -49.298302 0.252747
7.307800 -105.624115 -49.298302 0.209862
20.791107 -105.624115 -49.298302 0.173360
34.274414 -105.624115 -49.298302 0.134198
47.757721 -105.624115 -49.298302 0.098795
61.240997 -105.624115 -49.298302 0.088403
74.724304 -105.624115 -49.298302 0.081955
88.207611 -105.624115 -49.298302 0.079278
101.690918 -105.624115 -49.298302 0.084936
115.174225 -105.624115 -49.298302 0.090209
128.657501 -105.624115 -49.298302 0.094867
142.140808 -105.624115 -49.298302 0.110996
155.624115 -105.624115 -49.298302 0.134709
169.107422 -105.624115 -49.298302 0.168162
182.590698 -105.624115 -49.298302 0.198250
196.074036 -105.624115 -49.298302 0.204184
209.557312 -105.624115 -49.298302 0.183131
223.040588 -105.624115 -49.298302 0.131881
236.523926 -105.624115 -49.298302 0.084725
250.007202 -105.624115 -49.298302 0.054830
263.490540 -105.624115 -49.298302 0.040832
276.973816 -105.624115 -49.298302 0.030112
290.457092 -105.624115 -49.298302 0.023742
303.940430 -105.624115 -49.298302 0.000000
317.423706 -105.624115 -49.298302 0.000000
330.907043 -105.624115 -49.298302 0.000000
344.390320 -105.624115 -49.298302 0.000000
-343.257996 -119.107422 -49.298302 0.000000
-329.774689 -119.107422 -49.298302 0.000000
-316.291382 -119.107422 -49.298302 0.000000
-302.808105 -119.107422 -49.298302 0.000000
-289.324799 -119.107422 -49.298302 0.000000
-275.841492 -119.107422 -49.298302 0.000000
-262.358185 -119.107422 -49.298302 0.000000
-248.874893 -119.107422 -49.298302 0.000000
-235.391602 -119.107422 -49.298302 0.000000
-221.908295 -119.107422 -49.298302 0.000000
-208.424988 -119.107422 -49.298302 0.000000
-194.941696 -119.107422 -49.298302 0.000000
-181.458389 -119.107422 -49.298302 0.000000
-167.975098 -119.107422 -49.298302 0.000000
-154.491791 -119.107422 -49.298302 0.000000
-141.008499 -119.107422 -49.298302 0.000000
-127.525192 -119.107422 -49.298302 0.000000
-114.041885 -119.107422 -49.298302 0.000000
-100.558594 -119.107422 -49.298302 0.000000
-87.075287 -119.107422 -49.298302 0.000000
-73.591980 -119.107422 -49.298302 0.000000
-60.108704 -119.107422 -49.298302 0.000000
-46.625397 -119.107422 -49.298302 0.334265
-33.142090 -119.107422 -49.298302 0.000000
-19.658783 -119.107422 -49.298302 0.240563
-6.175476 -119.107422 -49.298302 0.000000
7.307800 -119.107422 -49.298302 0.000000
20.791107 -119.107422 -49.298302 0.155453
34.274414 -119.107422 -49.298302 0.127194
47.757721 -119.107422 -49.298302 0.102727
61.240997 -119.107422 -49.298302 0.097630
74.724304 -119.107422 -49.298302 0.089498
88.207611 -119.107422 -49.298302 0.090357
101.690918 -119.107422 -49.298302 0.095682
115.174225 -119.107422 -49.298302 0.096585
128.657501 -119.107422 -49.298302 0.098249
142.140808 -119.107422 -49.298302 0.110081
155.624115 -119.107422 -49.298302 0.135754
169.107422 -119.107422 -49.298302 0.169106
182.590698 -119.107422 -49.298302 0.197144
196.074036 -119.107422 -49.298302 0.220673
209.557312 -119.107422 -49.298302 0.195299
223.040588 -119.107422 -49.298302 0.152885
236.523926 -119.107422 -49.298302 0.105966
250.007202 -119.107422 -49.298302 0.073619
263.490540 -119.107422 -49.298302 0.048963
276.973816 -119.107422 -49.298302 0.037145
290.457092 -119.107422 -49.298302 0.031315
303.940430 -119.107422 -49.298302 0.000000
317.423706 -119.107422 -49.298302 0.000000
330.907043 -119.107422 -49.298302 0.000000
344.390320 -119.107422 -49.298302 0.000000
-343.257996 -132.590698 -49.298302 0.000000
-329.774689 -132.590698 -49.298302 0.000000
-316.291382 -132.590698 -49.298302 0.000000
-302.808105 -132.590698 -49.298302 0.000000
-289.324799 -132.590698 -49.298302 0.000000
-275.841492 -132.590698 -49.298302 0.000000
-262.358185 -132.590698 -49.298302 0.000000
-248.874893 -132.590698 -49.298302 0.000000
-235.391602 -132.590698 -49.298302 0.000000
-221.908295 -132.590698 -49.298302 0.000000
-208.424988 -132.590698 -49.298302 0.000000
-194.941696 -132.590698 -49.298302 0.000000
-181.458389 -132.590698 -49.298302 0.000000
-167.975098 -132.590698 -49.298302 0.000000
-154.491791 -132.590698 -49.298302 0.810086
-141.008499 -132.590698 -49.298302 0.000000
-127.525192 -132.590698 -49.298302 0.000000
-114.041885 -132.590698 -49.298302 0.000000
-100.558594 -132.590698 -49.298302 0.000000
-87.075287 -132.590698 -49.298302 0.000000
-73.591980 -132.590698 -49.298302 0.000000
-60.108704 -132.590698 -49.298302 0.000000
-46.625397 -132.590698 -49.298302 0.000000
-33.142090 -132.590698 -49.298302 0.000000
-19.658783 -132.590698 -49.298302 0.000000
-6.175476 -132.590698 -49.298302 0.000000
7.307800 -132.590698 -49.298302 0.000000
20.791107 -132.590698 -49.298302 0.000000
34.274414 -132.590698 -49.298302 0.000000
47.757721 -132.590698 -49.298302 0.000000
61.240997 -132.590698 -49.298302 0.000000
74.724304 -132.590698 -49.298302 0.115002
88.207611 -132.590698 -49.298302 0.113007
101.690918 -132.590698 -49.298302 0.118465
115.174225 -132.590698 -49.298302 0.113633
128.657501 -132.590698 -49.298302 0.111123
142.140808 -132.590698 -49.298302 0.124844
155.624115 -132.590698 -49.298302 0.152337
169.107422 -132.590698 -49.298302 0.173523
182.590698 -132.590698 -49.298302 0.211151
196.074036 -132.590698 -49.298302 0.232250
209.557312 -132.590698 -49.298302 0.223004
223.040588 -132.590698 -49.298302 0.188302
236.523926 -132.590698 -49.298302 0.133321
250.007202 -132.590698 -49.298302 0.093758
263.490540 -132.590698 -49.298302 0.066541
276.973816 -132.590698 -49.298302 0.053627
290.457092 -132.590698 -49.298302 0.056052
303.940430 -132.590698 -49.298302 0.000000
317.423706 -132.590698 -49.298302 0.000000
330.907043 -132.590698 -49.298302 0.000000
344.390320 -132.590698 -49.298302 0.000000
-343.257996 -146.074036 -49.298302 0.000000
-329.774689 -146.074036 -49.298302 0.000000
-316.291382 -146.074036 -49.298302 0.000000
-302.808105 -146.074036 -49.298302 0.000000
-289.324799 -146.074036 -49.298302 0.000000
-275.841492 -146.074036 -49.298302 0.000000
-262.358185 -146.074036 -49.298302 0.000000
-248.874893 -146.074036 -49.298302 0.000000
-235.391602 -146.074036 -49.298302 0.000000
-221.908295 -146.074036 -49.298302 0.000000
-208.424988 -146.074036 -49.298302 0.000000
-194.941696 -146.074036 -49.298302 0.000000
-181.458389 -146.074036 -49.298302 0.000000
-167.975098 -146.074036 -49.298302 0.000000
-154.491791 -146.074036 -49.298302 0.000000
-141.008499 -146.074036 -49.298302 0.000000
-127.525192 -146.074036 -49.298302 0.000000
-114.041885 -146.074036 -49.298302 0.000000
-100.558594 -146.074036 -49.298302 0.000000
-87.075287 -146.074036 -49.298302 0.000000
-73.591980 -146.074036 -49.298302 0.000000
-60.108704 -146.074036 -49.298302 0.000000
-46.625397 -146.074036 -49.298302 0.000000
-33.142090 -146.074036 -49.298302 0.000000
-19.658783 -146.074036 -49.298302 0.000000
-6.175476 -146.074036 -49.298302 0.000000
7.307800 -146.074036 -49.298302 0.000000
20.791107 -146.074036 -49.298302 0.000000
34.274414 -146.074036 -49.298302 0.000000
47.757721 -146.074036 -49.298302 0.000000
61.240997 -146.074036 -49.298302 0.000000
74.724304 -146.074036 -49.298302 0.000000
88.207611 -146.074036 -49.298302 0.000000
101.690918 -146.074036 -49.298302 0.000000
115.174225 -146.074036 -49.298302 0.000000
128.657501 -146.074036 -49.298302 0.000000
142.140808 -146.074036 -49.298302 0.145190
155.624115 -146.074036 -49.298302 0.172658
169.107422 -146.074036 -49.298302 0.196238
182.590698 -146.074036 -49.298302 0.228790
196.074036 -146.074036 -49.298302 0.251207
209.557312 -146.074036 -49.298302 0.236128
223.040588 -146.074036 -49.298302 0.000000
236.523926 -146.074036 -49.298302 0.000000
250.007202 -146.074036 -49.298302 0.127920
263.490540 -146.074036 -49.298302 0.000000
276.973816 -146.074036 -49.298302 0.000000
290.457092 -146.074036 -49.298302 0.000000
303.940430 -146.074036 -49.298302 0.000000
317.423706 -146.074036 -49.298302 0.000000
330.907043 -146.074036 -49.298302 0.000000
344.390320 -146.074036 -49.298302 0.000000
-343.257996 -159.557312 -49.298302 0.000000
-329.774689 -159.557312 -49.298302 0.000000
-316.291382 -159.557312 -49.298302 0.000000
-302.808105 -159.557312 -49.298302 0.000000
-289.324799 -159.557312 -49.298302 0.000000
-275.841492 -159.557312 -49.298302 0.000000
-262.358185 -159.557312 -49.298302 0.000000
-248.874893 -159.557312 -49.298302 0.000000
-235.391602 -159.557312 -49.298302 0.000000
-221.908295 -159.557312 -49.298302 0.000000
-208.424988 -159.557312 -49.298302 0.000000
-194.941696 -159.557312 -49.298302 0.000000
-181.458389 -159.557312 -49.298302 0.000000
-167.975098 -159.557312 -49.298302 0.000000
-154.491791 -159.557312 -49.298302 0.000000
-141.008499 -159.557312 -49.298302 0.000000
-127.525192 -159.557312 -49.298302 0.000000
-114.041885 -159.557312 -49.298302 0.000000
-100.558594 -159.557312 -49.298302 0.000000
-87.075287 -159.557312 -49.298302 0.000000
-73.591980 -159.557312 -49.298302 0.000000
-60.108704 -159.557312 -49.298302 0.000000
-46.625397 -159.557312 -49.298302 0.000000
-33.142090 -159.557312 -49.298302 0.000000
-19.658783 -159.557312 -49.298302 0.000000
-6.175476 -159.557312 -49.298302 0.000000
7.307800 -159.557312 -49.298302 0.000000
20.791107 -159.557312 -49.298302 0.000000
34.274414 -159.557312 -49.298302 0.000000
47.757721 -159.557312 -49.298302 0.000000
61.240997 -159.557312 -49.298302 0.000000
74.724304 -159.557312 -49.298302 0.000000
88.207611 -159.557312 -49.298302 0.000000
101.690918 -159.557312 -49.298302 0.000000
115.174225 -159.557312 -49.298302 0.000000
128.657501 -159.557312 -49.298302 0.000000
142.140808 -159.557312 -49.298302 0.000000
155.624115 -159.557312 -49.298302 0.000000
169.107422 -159.557312 -49.298302 0.000000
182.590698 -159.557312 -49.298302 0.000000
196.074036 -159.557312 -49.298302 0.000000
209.557312 -159.557312 -49.298302 0.000000
223.040588 -159.557312 -49.298302 0.000000
236.523926 -159.557312 -49.298302 0.000000
250.007202 -159.557312 -49.298302 0.000000
263.490540 -159.557312 -49.298302 0.000000
276.973816 -159.557312 -49.298302 0.000000
290.457092 -159.557312 -49.298302 0.000000
303.940430 -159.557312 -49.298302 0.000000
317.423706 -159.557312 -49.298302 0.000000
330.907043 -159.557312 -49.298302 0.000000
344.390320 -159.557312 -49.298302 0.000000
-343.257996 -173.040588 -49.298302 0.000000
-329.774689 -173.040588 -49.298302 0.000000
-316.291382 -173.040588 -49.298302 0.000000
-302.808105 -173.040588 -49.298302 0.000000
-289.324799 -173.040588 -49.298302 0.000000
-275.841492 -173.040588 -49.298302 0.000000
-262.358185 -173.040588 -49.298302 0.000000
-248.874893 -173.040588 -49.298302 0.000000
-235.391602 -173.040588 -49.298302 0.000000
-221.908295 -173.040588 -49.298302 0.000000
-208.424988 -173.040588 -49.298302 0.000000
-194.941696 -173.040588 -49.298302 0.000000
-181.458389 -173.040588 -49.298302 0.000000
-167.975098 -173.040588 -49.298302 0.000000
-154.491791 -173.040588 -49.298302 0.000000
-141.008499 -173.040588 -49.298302 0.000000
-127.525192 -173.040588 -49.298302 0.000000
-114.041885 -173.040588 -49.298302 0.000000
-100.558594 -173.040588 -49.298302 0.000000
-87.075287 -173.040588 -49.298302 0.000000
-73.591980 -173.040588 -49.298302 0.000000
-60.108704 -173.040588 -49.298302 0.000000
-46.625397 -173.040588 -49.298302 0.000000
-33.142090 -173.040588 -49.298302 0.000000
-19.658783 -173.040588 -49.298302 0.000000
-6.175476 -173.040588 -49.298302 0.000000
7.307800 -173.040588 -49.298302 0.000000
20.791107 -173.040588 -49.298302 0.000000
34.274414 -173.040588 -49.298302 0.000000
47.757721 -173.040588 -49.298302 0.000000
61.240997 -173.040588 -49.298302 0.000000
74.724304 -173.040588 -49.298302 0.000000
88.207611 -173.040588 -49.298302 0.000000
101.690918 -173.040588 -49.298302 0.000000
115.174225 -173.040588 -49.298302 0.000000
128.657501 -173.040588 -49.298302 0.000000
142.140808 -173.040588 -49.298302 0.000000
155.624115 -173.040588 -49.298302 0.000000
169.107422 -173.040588 -49.298302 0.000000
182.590698 -173.040588 -49.298302 0.000000
196.074036 -173.040588 -49.298302 0.000000
209.557312 -173.040588 -49.298302 0.000000
223.040588 -173.040588 -49.298302 0.000000
236.523926 -173.040588 -49.298302 0.000000
250.007202 -173.040588 -49.298302 0.000000
263.490540 -173.040588 -49.298302 0.000000
276.973816 -173.040588 -49.298302 0.000000
290.457092 -173.040588 -49.298302 0.000000
303.940430 -173.040588 -49.298302 0.000000
317.423706 -173.040588 -49.298302 0.000000
330.907043 -173.040588 -49.298302 0.000000
344.390320 -173.040588 -49.298302 0.000000
-343.257996 -186.523926 -49.298302 0.000000
-329.774689 -186.523926 -49.298302 0.000000
-316.291382 -186.523926 -49.298302 0.000000
-302.808105 -186.523926 -49.298302 0.000000
-289.324799 -186.523926 -49.298302 0.000000
-275.841492 -186.523926 -49.298302 0.000000
-262.358185 -186.523926 -49.298302 0.000000
-248.874893 -186.523926 -49.298302 0.000000
-235.391602 -186.523926 -49.298302 0.000000
-221.908295 -186.523926 -49.298302 0.000000
-208.424988 -186.523926 -49.298302 0.000000
-194.941696 -186.523926 -49.298302 0.000000
-181.458389 -186.523926 -49.298302 0.000000
-167.975098 -186.523926 -49.298302 0.000000
-154.491791 -186.523926 -49.298302 0.000000
-141.008499 -186.523926 -49.298302 0.000000
-127.525192 -186.523926 -49.298302 0.000000
-114.041885 -186.523926 -49.298302 0.000000
-100.558594 -186.523926 -49.298302 0.000000
-87.075287 -186.523926 -49.298302 0.000000
-73.591980 -186.523926 -49.298302 0.000000
-60.108704 -186.523926 -49.298302 0.000000
-46.625397 -186.523926 -49.298302 0.000000
-33.142090 -186.523926 -49.298302 0.000000
-19.658783 -186.523926 -49.298302 0.000000
-6.175476 -186.523926 -49.298302 0.000000
7.307800 -186.523926 -49.298302 0.000000
20.791107 -186.523926 -49.298302 0.000000
34.274414 -186.523926 -49.298302 0.000000
47.757721 -186.523926 -49.298302 0.000000
61.240997 -186.523926 -49.298302 0.000000
74.724304 -186.523926 -49.298302 0.000000
88.207611 -186.523926 -49.298302 0.000000
101.690918 -186.523926 -49.298302 0.000000
115.174225 -186.523926 -49.298302 0.000000
128.657501 -186.523926 -49.298302 0.000000
142.140808 -186.523926 -49.298302 0.000000
155.624115 -186.523926 -49.298302 0.000000
169.107422 -186.523926 -49.298302 0.000000
182.590698 -186.523926 -49.298302 0.000000
196.074036 -186.523926 -49.298302 0.000000
209.557312 -186.523926 -49.298302 0.000000
223.040588 -186.523926 -49.298302 0.000000
236.523926 -186.523926 -49.298302 0.000000
250.007202 -186.523926 -49.298302 0.000000
263.490540 -186.523926 -49.298302 0.000000
276.973816 -186.523926 -49.298302 0.000000
290.457092 -186.523926 -49.298302 0.000000
303.940430 -186.523926 -49.298302 0.000000
317.423706 -186.523926 -49.298302 0.000000
330.907043 -186.523926 -49.298302 0.000000
344.390320 -186.523926 -49.298302 0.000000
-343.257996 -200.007202 -49.298302 0.000000
-329.774689 -200.007202 -49.298302 0.000000
-316.291382 -200.007202 -49.298302 0.000000
-302.808105 -200.007202 -49.298302 0.000000
-289.324799 -200.007202 -49.298302 0.000000
-275.841492 -200.007202 -49.298302 0.000000
-262.358185 -200.007202 -49.298302 0.000000
-248.874893 -200.007202 -49.298302 0.000000
-235.391602 -200.007202 -49.298302 0.000000
-221.908295 -200.007202 -49.298302 0.000000
-208.424988 -200.007202 -49.298302 0.000000
-194.941696 -200.007202 -49.298302 0.000000
-181.458389 -200.007202 -49.298302 0.000000
-167.975098 -200.007202 -49.298302 0.000000
-154.491791 -200.007202 -49.298302 0.000000
-141.008499 -200.007202 -49.298302 0.000000
-127.525192 -200.007202 -49.298302 0.000000
-114.041885 -200.007202 -49.298302 0.000000
-100.558594 -200.007202 -49.298302 0.000000
-87.075287 -200.007202 -49.298302 0.000000
-73.591980 -200.007202 -49.298302 0.000000
-60.108704 -200.007202 -49.298302 0.000000
-46.625397 -200.007202 -49.298302 0.000000
-33.142090 -200.007202 -49.298302 0.000000
-19.658783 -200.007202 -49.298302 0.000000
-6.175476 -200.007202 -49.298302 0.000000
7.307800 -200.007202 -49.298302 0.000000
20.791107 -200.007202 -49.298302 0.000000
34.274414 -200.007202 -49.298302 0.000000
47.757721 -200.007202 -49.298302 0.000000
61.240997 -200.007202 -49.298302 0.000000
74.724304 -200.007202 -49.298302 0.000000
88.207611 -200.007202 -49.298302 0.000000
101.690918 -200.007202 -49.298302 0.000000
115.174225 -200.007202 -49.298302 0.000000
128.657501 -200.007202 -49.298302 0.000000
142.140808 -200.007202 -49.298302 0.000000
155.624115 -200.007202 -49.298302 0.000000
169.107422 -200.007202 -49.298302 0.000000
182.590698 -200.007202 -49.298302 0.000000
196.074036 -200.007202 -49.298302 0.000000
209.557312 -200.007202 -49.298302 0.000000
223.040588 -200.007202 -49.298302 0.000000
236.523926 -200.007202 -49.298302 0.000000
250.007202 -200.007202 -49.298302 0.000000
263.490540 -200.007202 -49.298302 0.000000
276.973816 -200.007202 -49.298302 0.000000
290.457092 -200.007202 -49.298302 0.000000
303.940430 -200.007202 -49.298302 0.000000
317.423706 -200.007202 -49.298302 0.000000
330.907043 -200.007202 -49.298302 0.000000
344.390320 -200.007202 -49.298302 0.000000
-343.257996 393.257996 -35.815002 0.000000
-329.774689 393.257996 -35.815002 0.000000
-316.291382 393.257996 -35.815002 0.000000
-302.808105 393.257996 -35.815002 0.000000
-289.324799 393.257996 -35.815002 0.000000
-275.841492 393.257996 -35.815002 0.000000
-262.358185 393.257996 -35.815002 0.000000
-248.874893 393.257996 -35.815002 0.000000
-235.391602 393.257996 -35.815002 0.000000
-221.908295 393.257996 -35.815002 0.000000
-208.424988 393.257996 -35.815002 0.000000
-194.941696 393.257996 -35.815002 0.000000
-181.458389 393.257996 -35.815002 0.000000
-167.975098 393.257996 -35.815002 0.000000
-154.491791 393.257996 -35.815002 0.000000
-141.008499 393.257996 -35.815002 0.000000
-127.525192 393.257996 -35.815002 0.000000
-114.041885 393.257996 -35.815002 0.000000
-100.558594 393.257996 -35.815002 0.000000
-87.075287 393.257996 -35.815002 0.000000
-73.591980 393.257996 -35.815002 0.000000
-60.108704 393.257996 -35.815002 0.000000
-46.625397 393.257996 -35.815002 0.000000
-33.142090 393.257996 -35.815002 0.000000
-19.658783 393.257996 -35.815002 0.000000
-6.175476 393.257996 -35.815002 0.000000
7.307800 393.257996 -35.815002 0.000000
20.791107 393.257996 -35.815002 0.000000
34.274414 393.257996 -35.815002 0.000000
47.757721 393.257996 -35.815002 0.000000
61.240997 393.257996 -35.815002 0.000000
74.724304 393.257996 -35.815002 0.000000
88.207611 393.257996 -35.815002 0.000000
101.690918 393.257996 -35.815002 0.000000
115.174225 393.257996 -35.815002 0.000000
128.657501 393.257996 -35.815002 0.000000
142.140808 393.257996 -35.815002 0.000000
155.624115 393.257996 -35.815002 0.000000
169.107422 393.257996 -35.815002 0.000000
182.590698 393.257996 -35.815002 0.000000
196.074036 393.257996 -35.815002 0.000000
209.557312 393.257996 -35.815002 0.000000
223.040588 393.257996 -35.815002 0.000000
236.523926 393.257996 -35.815002 0.000000
250.007202 393.257996 -35.815002 0.000000
263.490540 393.257996 -35.815002 0.000000
276.973816 393.257996 -35.815002 0.000000
290.457092 393.257996 -35.815002 0.000000
303.940430 393.257996 -35.815002 0.000000
317.423706 393.257996 -35.815002 0.000000
330.907043 393.257996 -35.815002 0.000000
344.390320 393.257996 -35.815002 0.000000
-343.257996 379.774689 -35.815002 0.000000
-329.774689 379.774689 -35.815002 0.000000
-316.291382 379.774689 -35.815002 0.000000
-302.808105 379.774689 -35.815002 0.000000
-289.324799 379.774689 -35.815002 0.000000
-275.841492 379.774689 -35.815002 0.000000
-262.358185 379.774689 -35.815002 0.000000
-248.874893 379.774689 -35.815002 0.000000
-235.391602 379.774689 -35.815002 0.000000
-221.908295 379.774689 -35.815002 0.000000
-208.424988 379.774689 -35.815002 0.000000
-194.941696 379.774689 -35.815002 0.000000
-181.458389 379.774689 -35.815002 0.000000
-167.975098 379.774689 -35.815002 0.000000
-154.491791 379.774689 -35.815002 0.000000
-141.008499 379.774689 -35.815002 0.000000
-127.525192 379.774689 -35.815002 0.000000
-114.041885 379.774689 -35.815002 0.000000
-100.558594 379.774689 -35.815002 0.000000
-87.075287 379.774689 -35.815002 0.000000
-73.591980 379.774689 -35.815002 0.000000
-60.108704 379.774689 -35.815002 0.000000
-46.625397 379.774689 -35.815002 0.000000
-33.142090 379.774689 -35.815002 0.000000
-19.658783 379.774689 -35.815002 0.000000
-6.175476 379.774689 -35.815002 0.000000
7.307800 379.774689 -35.815002 0.000000
20.791107 379.774689 -35.815002 0.000000
34.274414 379.774689 -35.815002 0.000000
47.757721 379.774689 -35.815002 0.000000
61.240997 379.774689 -35.815002 0.000000
74.724304 379.774689 -35.815002 0.000000
88.207611 379.774689 -35.815002 0.000000
101.690918 379.774689 -35.815002 0.000000
115.174225 379.774689 -35.815002 0.000000
128.657501 379.774689 -35.815002 0.000000
142.140808 379.774689 -35.815002 0.000000
155.624115 379.774689 -35.815002 0.000000
169.107422 379.774689 -35.815002 0.000000
182.590698 379.774689 -35.815002 0.000000
196.074036 379.774689 -35.815002 0.000000
209.557312 379.774689 -35.815002 0.000000
223.040588 379.774689 -35.815002 0.000000
236.523926 379.774689 -35.815002 0.000000
250.007202 379.774689 -35.815002 0.000000
263.490540 379.774689 -35.815002 0.000000
276.973816 379.774689 -35.815002 0.000000
290.457092 379.774689 -35.815002 0.000000
303.940430 379.774689 -35.815002 0.000000
317.423706 379.774689 -35.815002 0.000000
330.907043 379.774689 -35.815002 0.000000
344.390320 379.774689 -35.815002 0.000000
-343.257996 366.291382 -35.815002 0.000000
-329.774689 366.291382 -35.815002 0.000000
-316.291382 366.291382 -35.815002 0.055827
-302.808105 366.291382 -35.815002 0.000000
-289.324799 366.291382 -35.815002 0.000000
-275.841492 366.291382 -35.815002 0.000000
-262.358185 366.291382 -35.815002 0.000000
-248.874893 366.291382 -35.815002 0.000000
-235.391602 366.291382 -35.815002 0.000000
-221.908295 366.291382 -35.815002 0.000000
-208.424988 366.291382 -35.815002 0.000000
-194.941696 366.291382 -35.815002 0.000000
-181.458389 366.291382 -35.815002 0.000000
-167.975098 366.291382 -35.815002 0.000000
-154.491791 366.291382 -35.815002 0.000000
-141.008499 366.291382 -35.815002 0.000000
-127.525192 366.291382 -35.815002 0.000000
-114.041885 366.291382 -35.815002 0.000000
-100.558594 366.291382 -35.815002 0.000000
-87.075287 366.291382 -35.815002 0.000000
-73.591980 366.291382 -35.815002 0.000000
-60.108704 366.291382 -35.815002 0.000000
-46.625397 366.291382 -35.815002 0.000000
-33.142090 366.291382 -35.815002 0.000000
-19.658783 366.291382 -35.815002 0.000000
-6.175476 366.291382 -35.815002 0.000000
7.307800 366.291382 -35.815002 0.000000
20.791107 366.291382 -35.815002 0.000000
34.274414 366.291382 -35.815002 0.000000
47.757721 366.291382 -35.815002 0.000000
61.240997 366.291382 -35.815002 0.000000
74.724304 366.291382 -35.815002 0.000000
88.207611 366.291382 -35.815002 0.000000
101.690918 366.291382 -35.815002 0.000000
115.174225 366.291382 -35.815002 0.000000
128.657501 366.291382 -35.815002 0.000000
142.140808 366.291382 -35.815002 0.000000
155.624115 366.291382 -35.815002 0.000000
169.107422 366.291382 -35.815002 0.000000
182.590698 366.291382 -35.815002 0.000000
196.074036 366.291382 -35.815002 0.000000
209.557312 366.291382 -35.815002 0.000000
223.040588 366.291382 -35.815002 0.000000
236.523926 366.291382 -35.815002 0.000000
250.007202 366.291382 -35.815002 0.000000
263.490540 366.291382 -35.815002 0.000000
276.973816 366.291382 -35.815002 0.000000
290.457092 366.291382 -35.815002 0.000000
303.940430 366.291382 -35.815002 0.000000
317.423706 366.291382 -35.815002 0.000000
330.907043 366.291382 -35.815002 0.000000
344.390320 366.291382 -35.815002 0.000000
-343.257996 352.808105 -35.815002 0.000000
-329.774689 352.808105 -35.815002 0.000000
-316.291382 352.808105 -35.815002 0.000000
-302.808105 352.808105 -35.815002 0.029626
-289.324799 352.808105 -35.815002 0.032485
-275.841492 352.808105 -35.815002 0.033968
-262.358185 352.808105 -35.815002 0.040500
-248.874893 352.808105 -35.815002 0.047735
-235.391602 352.808105 -35.815002 0.059355
-221.908295 352.808105 -35.815002 0.065619
-208.424988 352.808105 -35.815002 0.069833
-194.941696 352.808105 -35.815002 0.087487
-181.458389 352.808105 -35.815002 0.000000
-167.975098 352.808105 -35.815002 0.000000
-154.491791 352.808105 -35.815002 0.000000
-141.008499 352.808105 -35.815002 0.000000
-127.525192 352.808105 -35.815002 0.000000
-114.041885 352.808105 -35.815002 0.000000
-100.558594 352.808105 -35.815002 0.000000
-87.075287 352.808105 -35.815002 0.000000
-73.591980 352.808105 -35.815002 0.000000
-60.108704 352.808105 -35.815002 0.000000
-46.625397 352.808105 -35.815002 0.000000
-33.142090 352.808105 -35.815002 0.000000
-19.658783 352.808105 -35.815002 0.000000
-6.175476 352.808105 -35.815002 0.000000
7.307800 352.808105 -35.815002 0.000000
20.791107 352.808105 -35.815002 0.000000
34.274414 352.808105 -35.815002 0.195745
47.757721 352.808105 -35.815002 0.178244
61.240997 352.808105 -35.815002 0.163727
74.724304 352.808105 -35.815002 0.000000
88.207611 352.808105 -35.815002 0.000000
101.690918 352.808105 -35.815002 0.000000
115.174225 352.808105 -35.815002 0.000000
128.657501 352.808105 -35.815002 0.000000
142.140808 352.808105 -35.815002 0.000000
155.624115 352.808105 -35.815002 0.000000
169.107422 352.808105 -35.815002 0.000000
182.590698 352.808105 -35.815002 0.000000
196.074036 352.808105 -35.815002 0.000000
209.557312 352.808105 -35.815002 0.000000
223.040588 352.808105 -35.815002 0.000000
236.523926 352.808105 -35.815002 0.000000
250.007202 352.808105 -35.815002 0.000000
263.490540 352.808105 -35.815002 0.000000
276.973816 352.808105 -35.815002 0.000000
290.457092 352.808105 -35.815002 0.000000
303.940430 352.808105 -35.815002 0.000000
317.423706 352.808105 -35.815002 0.000000
330.907043 352.808105 -35.815002 0.000000
344.390320 352.808105 -35.815002 0.000000
-343.257996 339.324799 -35.815002 0.000000
-329.774689 339.324799 -35.815002 0.000000
-316.291382 339.324799 -35.815002 0.025324
-302.808105 339.324799 -35.815002 0.028159
-289.324799 339.324799 -35.815002 0.031337
-275.841492 339.324799 -35.815002 0.033234
-262.358185 339.324799 -35.815002 0.040230
-248.874893 339.324799 -35.815002 0.048478
-235.391602 339.324799 -35.815002 0.058871
-221.908295 339.324799 -35.815002 0.067989
-208.424988 339.324799 -35.815002 0.077760
-194.941696 339.324799 -35.815002 0.088063
-181.458389 339.324799 -35.815002 0.105220
-167.975098 339.324799 -35.815002 0.124647
-154.491791 339.324799 -35.815002 0.145782
-141.008499 339.324799 -35.815002 0.163615
-127.525192 339.324799 -35.815002 0.178078
-114.041885 339.324799 -35.815002 0.199300
-100.558594 339.324799 -35.815002 0.217422
-87.075287 339.324799 -35.815002 0.249213
-73.591980 339.324799 -35.815002 0.247033
-60.108704 339.324799 -35.815002 0.258158
-46.625397 339.324799 -35.815002 0.291951
-33.142090 339.324799 -35.815002 0.286057
-19.658783 339.324799 -35.815002 0.287224
-6.175476 339.324799 -35.815002 0.291376
7.307800 339.324799 -35.815002 0.257996
20.791107 339.324799 -35.815002 0.236975
34.274414 339.324799 -35.815002 0.219029
47.757721 339.324799 -35.815002 0.208201
61.240997 339.324799 -35.815002 0.195892
74.724304 339.324799 -35.815002 0.179166
88.207611 339.324799 -35.815002 0.176612
101.690918 339.324799 -35.815002 0.171422
115.174225 339.324799 -35.815002 0.172284
128.657501 339.324799 -35.815002 0.167583
142.140808 339.324799 -35.815002 0.155734
155.624115 339.324799 -35.815002 0.133208
169.107422 339.324799 -35.815002 0.115456
182.590698 339.324799 -35.815002 0.113008
196.074036 339.324799 -35.815002 0.115933
209.557312 339.324799 -35.815002 0.113453
223.040588 339.324799 -35.815002 0.110918
236.523926 339.324799 -35.815002 0.114925
250.007202 339.324799 -35.815002 0.114471
263.490540 339.324799 -35.815002 0.114033
276.973816 339.324799 -35.815002 0.120426
290.457092 339.324799 -35.815002 0.000000
303.940430 339.324799 -35.815002 0.000000
317.423706 339.324799 -35.815002 0.000000
330.907043 339.324799 -35.815002 0.000000
344.390320 339.324799 -35.815002 0.000000
-343.257996 325.841492 -35.815002 0.000000
-329.774689 325.841492 -35.815002 0.000000
-316.291382 325.841492 -35.815002 0.021563
-302.808105 325.841492 -35.815002 0.025068
-289.324799 325.841492 -35.815002 0.031294
-275.841492 325.841492 -35.815002 0.034956
-262.358185 325.841492 -35.815002 0.040221
-248.874893 325.841492 -35.815002 0.046408
-235.391602 325.841492 -35.815002 0.055762
-221.908295 325.841492 -35.815002 0.062725
-208.424988 325.841492 -35.815002 0.071915
-194.941696 325.841492 -35.815002 0.084254
-181.458389 325.841492 -35.815002 0.096977
-167.975098 325.841492 -35.815002 0.115251
-154.491791 325.841492 -35.815002 0.137891
-141.008499 325.841492 -35.815002 0.158695
-127.525192 325.841492 -35.815002 0.175905
-114.041885 325.841492 -35.815002 0.204391
-100.558594 325.841492 -35.815002 0.231187
-87.075287 325.841492 -35.815002 0.256087
-73.591980 325.841492 -35.815002 0.284536
-60.108704 325.841492 -35.815002 0.303756
-46.625397 325.841492 -35.815002 0.312526
-33.142090 325.841492 -35.815002 0.298563
-19.658783 325.841492 -35.815002 0.288152
-6.175476 325.841492 -35.815002 0.290351
7.307800 325.841492 -35.815002 0.266691
20.791107 325.841492 -35.815002 0.245976
34.274414 325.841492 -35.815002 0.233300
47.757721 325.841492 -35.815002 0.228816
61.240997 325.841492 -35.815002 0.221000
74.724304 325.841492 -35.815002 0.206865
88.207611 325.841492 -35.815002 0.200766
101.690918 325.841492 -35.815002 0.211159
115.174225 325.841492 -35.815002 0.207919
128.657501 325.841492 -35.815002 0.192488
142.140808 325.841492 -35.815002 0.176436
155.624115 325.841492 -35.815002 0.173817
169.107422 325.841492 -35.815002 0.147252
182.590698 325.841492 -35.815002 0.136764
196.074036 325.841492 -35.815002 0.129593
209.557312 325.841492 -35.815002 0.128874
223.040588 325.841492 -35.815002 0.130149
236.523926 325.841492 -35.815002 0.127909
250.007202 325.841492 -35.815002 0.125569
263.490540 325.841492 -35.815002 0.124642
276.973816 325.841492 -35.815002 0.118078
290.457092 325.841492 -35.815002 0.118438
303.940430 325.841492 -35.815002 0.000000
317.423706 325.841492 -35.815002 0.000000
330.907043 325.841492 -35.815002 0.000000
344.390320 325.841492 -35.815002 0.000000
-343.257996 312.358185 -35.815002 0.000000
-329.774689 312.358185 -35.815002 0.000000
-316.291382 312.358185 -35.815002 0.020817
-302.808105 312.358185 -35.815002 0.025140
-289.324799 312.358185 -35.815002 0.032024
-275.841492 312.358185 -35.815002 0.036825
-262.358185 312.358185 -35.815002 0.041713
-248.874893 312.358185 -35.815002 0.046346
-235.391602 312.358185 -35.815002 0.055223
-221.908295 312.358185 -35.815002 0.064330
-208.424988 312.358185 -35.815002 0.072941
-194.941696 312.358185 -35.815002 0.085638
-181.458389 312.358185 -35.815002 0.097597
-167.975098 312.358185 -35.815002 0.111209
-154.491791 312.358185 -35.815002 0.129633
-141.008499 312.358185 -35.815002 0.152791
-127.525192 312.358185 -35.815002 0.176610
-114.041885 312.358185 -35.815002 0.211531
-100.558594 312.358185 -35.815002 0.232620
-87.075287 312.358185 -35.815002 0.265171
-73.591980 312.358185 -35.815002 0.295114
-60.108704 312.358185 -35.815002 0.333064
-46.625397 312.358185 -35.815002 0.332543
-33.142090 312.358185 -35.815002 0.317462
-19.658783 312.358185 -35.815002 0.315072
-6.175476 312.358185 -35.815002 0.301640
7.307800 312.358185 -35.815002 0.289331
20.791107 312.358185 -35.815002 0.286486
34.274414 312.358185 -35.815002 0.277511
47.757721 312.358185 -35.815002 0.260707
61.240997 312.358185 -35.815002 0.260955
74.724304 312.358185 -35.815002 0.260682
88.207611 312.358185 -35.815002 0.254521
101.690918 312.358185 -35.815002 0.247626
115.174225 312.358185 -35.815002 0.233969
128.657501 312.358185 -35.815002 0.209408
142.140808 312.358185 -35.815002 0.197230
155.624115 312.358185 -35.815002 0.200430
169.107422 312.358185 -35.815002 0.181613
182.590698 312.358185 -35.815002 0.163365
196.074036 312.358185 -35.815002 0.159430
209.557312 312.358185 -35.815002 0.147214
223.040588 312.358185 -35.815002 0.136210
236.523926 312.358185 -35.815002 0.127818
250.007202 312.358185 -35.815002 0.125441
263.490540 312.358185 -35.815002 0.131314
276.973816 312.358185 -35.815002 0.122319
290.457092 312.358185 -35.815002 0.121024
303.940430 312.358185 -35.815002 0.000000
317.423706 312.358185 -35.815002 0.000000
330.907043 312.358185 -35.815002 0.000000
344.390320 312.358185 -35.815002 0.000000
-343.257996 298.874878 -35.815002 0.000000
-329.774689 298.874878 -35.815002 0.000000
-316.291382 298.874878 -35.815002 0.022186
-302.808105 298.874878 -35.815002 0.026688
-289.324799 298.874878 -35.815002 0.033945
-275.841492 298.874878 -35.815002 0.041069
-262.358185 298.874878 -35.815002 0.044848
-248.874893 298.874878 -35.815002 0.051512
-235.391602 298.874878 -35.815002 0.056993
-221.908295 298.874878 -35.815002 0.064340
-208.424988 298.874878 -35.815002 0.071992
-194.941696 298.874878 -35.815002 0.081569
-181.458389 298.874878 -35.815002 0.094116
-167.975098 298.874878 -35.815002 0.112416
-154.491791 298.874878 -35.815002 0.133844
-141.008499 298.874878 -35.815002 0.150474
-127.525192 298.874878 -35.815002 0.175778
-114.041885 298.874878 -35.815002 0.194568
-100.558594 298.874878 -35.815002 0.217994
-87.075287 298.874878 -35.815002 0.249329
-73.591980 298.874878 -35.815002 0.280741
-60.108704 298.874878 -35.815002 0.315124
-46.625397 298.874878 -35.815002 0.335582
-33.142090 298.874878 -35.815002 0.335374
-19.658783 298.874878 -35.815002 0.343313
-6.175476 298.874878 -35.815002 0.319115
7.307800 298.874878 -35.815002 0.307889
20.791107 298.874878 -35.815002 0.304808
34.274414 298.874878 -35.815002 0.297208
47.757721 298.874878 -35.815002 0.295075
61.240997 298.874878 -35.815002 0.304138
74.724304 298.874878 -35.815002 0.290383
88.207611 298.874878 -35.815002 0.298007
101.690918 298.874878 -35.815002 0.275748
115.174225 298.874878 -35.815002 0.257434
128.657501 298.874878 -35.815002 0.243120
142.140808 298.874878 -35.815002 0.222993
155.624115 298.874878 -35.815002 0.220699
169.107422 298.874878 -35.815002 0.200431
182.590698 298.874878 -35.815002 0.181523
196.074036 298.874878 -35.815002 0.164536
209.557312 298.874878 -35.815002 0.154421
223.040588 298.874878 -35.815002 0.140690
236.523926 298.874878 -35.815002 0.137897
250.007202 298.874878 -35.815002 0.141058
263.490540 298.874878 -35.815002 0.137479
276.973816 298.874878 -35.815002 0.132117
290.457092 298.874878 -35.815002 0.120622
303.940430 298.874878 -35.815002 0.000000
317.423706 298.874878 -35.815002 0.000000
330.907043 298.874878 -35.815002 0.000000
344.390320 298.874878 -35.815002 0.000000
-343.257996 285.391602 -35.815002 0.000000
-329.774689 285.391602 -35.815002 0.000000
-316.291382 285.391602 -35.815002 0.022635
-302.808105 285.391602 -35.815002 0.027800
-289.324799 285.391602 -35.815002 0.035389
-275.841492 285.391602 -35.815002 0.042008
-262.358185 285.391602 -35.815002 0.048307
-248.874893 285.391602 -35.815002 0.054895
-235.391602 285.391602 -35.815002 0.061611
-221.908295 285.391602 -35.815002 0.067981
-208.424988 285.391602 -35.815002 0.072922
-194.941696 285.391602 -35.815002 0.083695
-181.458389 285.391602 -35.815002 0.093932
-167.975098 285.391602 -35.815002 0.107553
-154.491791 285.391602 -35.815002 0.126919
-141.008499 285.391602 -35.815002 0.146365
-127.525192 285.391602 -35.815002 0.176723
-114.041885 285.391602 -35.815002 0.197272
-100.558594 285.391602 -35.815002 0.223675
-87.075287 285.391602 -35.815002 0.249295
-73.591980 285.391602 -35.815002 0.283069
-60.108704 285.391602 -35.815002 0.317998
-46.625397 285.391602 -35.815002 0.336429
-33.142090 285.391602 -35.815002 0.364693
-19.658783 285.391602 -35.815002 0.364501
-6.175476 285.391602 -35.815002 0.340716
7.307800 285.391602 -35.815002 0.333447
20.791107 285.391602 -35.815002 0.319456
34.274414 285.391602 -35.815002 0.314607
47.757721 285.391602 -35.815002 0.317769
61.240997 285.391602 -35.815002 0.315707
74.724304 285.391602 -35.815002 0.305553
88.207611 285.391602 -35.815002 0.307768
101.690918 285.391602 -35.815002 0.282735
115.174225 285.391602 -35.815002 0.283720
128.657501 285.391602 -35.815002 0.263824
142.140808 285.391602 -35.815002 0.239789
155.624115 285.391602 -35.815002 0.227932
169.107422 285.391602 -35.815002 0.214573
182.590698 285.391602 -35.815002 0.195559
196.074036 285.391602 -35.815002 0.178169
209.557312 285.391602 -35.815002 0.165266
223.040588 285.391602 -35.815002 0.155078
236.523926 285.391602 -35.815002 0.157059
250.007202 285.391602 -35.815002 0.146113
263.490540 285.391602 -35.815002 0.139519
276.973816 285.391602 -35.815002 0.128642
290.457092 285.391602 -35.815002 0.111786
303.940430 285.391602 -35.815002 0.101603
317.423706 285.391602 -35.815002 0.000000
330.907043 285.391602 -35.815002 0.000000
344.390320 285.391602 -35.815002 0.000000
-343.257996 271.908295 -35.815002 0.000000
-329.774689 271.908295 -35.815002 0.000000
-316.291382 271.908295 -35.815002 0.022705
-302.808105 271.908295 -35.815002 0.029414
-289.324799 271.908295 -35.815002 0.037965
-275.841492 271.908295 -35.815002 0.045466
-262.358185 271.908295 -35.815002 0.052398
-248.874893 271.908295 -35.815002 0.062211
-235.391602 271.908295 -35.815002 0.068199
-221.908295 271.908295 -35.815002 0.070558
-208.424988 271.908295 -35.815002 0.077188
-194.941696 271.908295 -35.815002 0.085453
-181.458389 271.908295 -35.815002 0.091012
-167.975098 271.908295 -35.815002 0.106660
-154.491791 271.908295 -35.815002 0.127647
-141.008499 271.908295 -35.815002 0.149926
-127.525192 271.908295 -35.815002 0.175412
-114.041885 271.908295 -35.815002 0.205745
-100.558594 271.908295 -35.815002 0.230306
-87.075287 271.908295 -35.815002 0.278258
-73.591980 271.908295 -35.815002 0.309705
-60.108704 271.908295 -35.815002 0.346805
-46.625397 271.908295 -35.815002 0.363268
-33.142090 271.908295 -35.815002 0.383737
-19.658783 271.908295 -35.815002 0.380888
-6.175476 271.908295 -35.815002 0.359958
7.307800 271.908295 -35.815002 0.352540
20.791107 271.908295 -35.815002 0.341676
34.274414 271.908295 -35.815002 0.335669
47.757721 271.908295 -35.815002 0.340840
61.240997 271.908295 -35.815002 0.329880
74.724304 271.908295 -35.815002 0.317450
88.207611 271.908295 -35.815002 0.298144
101.690918 271.908295 -35.815002 0.288078
115.174225 271.908295 -35.815002 0.279711
128.657501 271.908295 -35.815002 0.248700
142.140808 271.908295 -35.815002 0.226587
155.624115 271.908295 -35.815002 0.217009
169.107422 271.908295 -35.815002 0.217617
182.590698 271.908295 -35.815002 0.198380
196.074036 271.908295 -35.815002 0.175392
209.557312 271.908295 -35.815002 0.169060
223.040588 271.908295 -35.815002 0.171363
236.523926 271.908295 -35.815002 0.161401
250.007202 271.908295 -35.815002 0.154332
263.490540 271.908295 -35.815002 0.142925
276.973816 271.908295 -35.815002 0.126491
290.457092 271.908295 -35.815002 0.103235
303.940430 271.908295 -35.815002 0.085839
317.423706 271.908295 -35.815002 0.000000
330.907043 271.908295 -35.815002 0.000000
344.390320 271.908295 -35.815002 0.000000
-343.257996 258.424988 -35.815002 0.000000
-329.774689 258.424988 -35.815002 0.000000
-316.291382 258.424988 -35.815002 0.023842
-302.808105 258.424988 -35.815002 0.030813
-289.324799 258.424988 -35.815002 0.039530
-275.841492 258.424988 -35.815002 0.047830
-262.358185 258.424988 -35.815002 0.055575
-248.874893 258.424988 -35.815002 0.065442
-235.391602 258.424988 -35.815002 0.075754
-221.908295 258.424988 -35.815002 0.077158
-208.424988 258.424988 -35.815002 0.083101
-194.941696 258.424988 -35.815002 0.090579
-181.458389 258.424988 -35.815002 0.100695
-167.975098 258.424988 -35.815002 0.112586
-154.491791 258.424988 -35.815002 0.132914
-141.008499 258.424988 -35.815002 0.157315
-127.525192 258.424988 -35.815002 0.186996
-114.041885 258.424988 -35.815002 0.213348
-100.558594 258.424988 -35.815002 0.249107
-87.075287 258.424988 -35.815002 0.302108
-73.591980 258.424988 -35.815002 0.334729
-60.108704 258.424988 -35.815002 0.367083
-46.625397 258.424988 -35.815002 0.371736
-33.142090 258.424988 -35.815002 0.389736
-19.658783 258.424988 -35.815002 0.392940
-6.175476 258.424988 -35.815002 0.375448
7.307800 258.424988 -35.815002 0.376963
20.791107 258.424988 -35.815002 0.338661
34.274414 258.424988 -35.815002 0.324756
47.757721 258.424988 -35.815002 0.338651
61.240997 258.424988 -35.815002 0.329787
74.724304 258.424988 -35.815002 0.302112
88.207611 258.424988 -35.815002 0.285098
101.690918 258.424988 -35.815002 0.296682
115.174225 258.424988 -35.815002 0.276093
128.657501 258.424988 -35.815002 0.260721
142.140808 258.424988 -35.815002 0.245902
155.624115 258.424988 -35.815002 0.222998
169.107422 258.424988 -35.815002 0.213112
182.590698 258.424988 -35.815002 0.199796
196.074036 258.424988 -35.815002 0.183857
209.557312 258.424988 -35.815002 0.183914
223.040588 258.424988 -35.815002 0.179103
236.523926 258.424988 -35.815002 0.165369
250.007202 258.424988 -35.815002 0.147504
263.490540 258.424988 -35.815002 0.136128
276.973816 258.424988 -35.815002 0.118462
290.457092 258.424988 -35.815002 0.091929
303.940430 258.424988 -35.815002 0.071126
317.423706 258.424988 -35.815002 0.050900
330.907043 258.424988 -35.815002 0.000000
344.390320 258.424988 -35.815002 0.000000
-343.257996 244.941696 -35.815002 0.000000
-329.774689 244.941696 -35.815002 0.000000
-316.291382 244.941696 -35.815002 0.025012
-302.808105 244.941696 -35.815002 0.032438
-289.324799 244.941696 -35.815002 0.041650
-275.841492 244.941696 -35.815002 0.050255
-262.358185 244.941696 -35.815002 0.056799
-248.874893 244.941696 -35.815002 0.069004
-235.391602 244.941696 -35.815002 0.075229
-221.908295 244.941696 -35.815002 0.081730
-208.424988 244.941696 -35.815002 0.089216
-194.941696 244.941696 -35.815002 0.096512
-181.458389 244.941696 -35.815002 0.108378
-167.975098 244.941696 -35.815002 0.120307
-154.491791 244.941696 -35.815002 0.147822
-141.008499 244.941696 -35.815002 0.165139
-127.525192 244.941696 -35.815002 0.193689
-114.041885 244.941696 -35.815002 0.233845
-100.558594 244.941696 -35.815002 0.265593
-87.075287 244.941696 -35.815002 0.326193
-73.591980 244.941696 -35.815002 0.356695
-60.108704 244.941696 -35.815002 0.370824
-46.625397 244.941696 -35.815002 0.391561
-33.142090 244.941696 -35.815002 0.383812
-19.658783 244.941696 -35.815002 0.415607
-6.175476 244.941696 -35.815002 0.394078
7.307800 244.941696 -35.815002 0.356414
20.791107 244.941696 -35.815002 0.328356
34.274414 244.941696 -35.815002 0.340204
47.757721 244.941696 -35.815002 0.328937
61.240997 244.941696 -35.815002 0.309920
74.724304 244.941696 -35.815002 0.282132
88.207611 244.941696 -35.815002 0.276355
101.690918 244.941696 -35.815002 0.280096
115.174225 244.941696 -35.815002 0.275571
128.657501 244.941696 -35.815002 0.259369
142.140808 244.941696 -35.815002 0.232396
155.624115 244.941696 -35.815002 0.220623
169.107422 244.941696 -35.815002 0.213986
182.590698 244.941696 -35.815002 0.197116
196.074036 244.941696 -35.815002 0.190977
209.557312 244.941696 -35.815002 0.189395
223.040588 244.941696 -35.815002 0.169406
236.523926 244.941696 -35.815002 0.161161
250.007202 244.941696 -35.815002 0.144589
263.490540 244.941696 -35.815002 0.129648
276.973816 244.941696 -35.815002 0.105457
290.457092 244.941696 -35.815002 0.083136
303.940430 244.941696 -35.815002 0.061466
317.423706 244.941696 -35.815002 0.042720
330.907043 244.941696 -35.815002 0.000000
344.390320 244.941696 -35.815002 0.000000
-343.257996 231.458389 -35.815002 0.000000
-329.774689 231.458389 -35.815002 0.000000
-316.291382 231.458389 -35.815002 0.024406
-302.808105 231.458389 -35.815002 0.031403
-289.324799 231.458389 -35.815002 0.041394
-275.841492 231.458389 -35.815002 0.050331
-262.358185 231.458389 -35.815002 0.061434
-248.874893 231.458389 -35.815002 0.073561
-235.391602 231.458389 -35.815002 0.081195
-221.908295 231.458389 -35.815002 0.091313
-208.424988 231.458389 -35.815002 0.099423
-194.941696 231.458389 -35.815002 0.104937
-181.458389 231.458389 -35.815002 0.118985
-167.975098 231.458389 -35.815002 0.135968
-154.491791 231.458389 -35.815002 0.156817
-141.008499 231.458389 -35.815002 0.181260
-127.525192 231.458389 -35.815002 0.212217
-114.041885 231.458389 -35.815002 0.255694
-100.558594 231.458389 -35.815002 0.301512
-87.075287 231.458389 -35.815002 0.339608
-73.591980 231.458389 -35.815002 0.379638
-60.108704 231.458389 -35.815002 0.393517
-46.625397 231.458389 -35.815002 0.409862
-33.142090 231.458389 -35.815002 0.430467
-19.658783 231.458389 -35.815002 0.427633
-6.175476 231.458389 -35.815002 0.402058
7.307800 231.458389 -35.815002 0.379602
20.791107 231.458389 -35.815002 0.353190
34.274414 231.458389 -35.815002 0.346467
47.757721 231.458389 -35.815002 0.321866
61.240997 231.458389 -35.815002 0.305347
74.724304 231.458389 -35.815002 0.299006
88.207611 231.458389 -35.815002 0.286297
101.690918 231.458389 -35.815002 0.281218
115.174225 231.458389 -35.815002 0.272086
128.657501 231.458389 -35.815002 0.262174
142.140808 231.458389 -35.815002 0.250590
155.624115 231.458389 -35.815002 0.228776
169.107422 231.458389 -35.815002 0.224474
182.590698 231.458389 -35.815002 0.201458
196.074036 231.458389 -35.815002 0.193036
209.557312 231.458389 -35.815002 0.177093
223.040588 231.458389 -35.815002 0.154559
236.523926 231.458389 -35.815002 0.147991
250.007202 231.458389 -35.815002 0.137639
263.490540 231.458389 -35.815002 0.119456
276.973816 231.458389 -35.815002 0.095013
290.457092 231.458389 -35.815002 0.070566
303.940430 231.458389 -35.815002 0.049754
317.423706 231.458389 -35.815002 0.032623
330.907043 231.458389 -35.815002 0.000000
344.390320 231.458389 -35.815002 0.000000
-343.257996 217.975098 -35.815002 0.000000
-329.774689 217.975098 -35.815002 0.000000
-316.291382 217.975098 -35.815002 0.024830
-302.808105 217.975098 -35.815002 0.031081
-289.324799 217.975098 -35.815002 0.041221
-275.841492 217.975098 -35.815002 0.052124
-262.358185 217.975098 -35.815002 0.063846
-248.874893 217.975098 -35.815002 0.075137
-235.391602 217.975098 -35.815002 0.085854
-221.908295 217.975098 -35.815002 0.095983
-208.424988 217.975098 -35.815002 0.105333
-194.941696 217.975098 -35.815002 0.116127
-181.458389 217.975098 -35.815002 0.131777
-167.975098 217.975098 -35.815002 0.151489
-154.491791 217.975098 -35.815002 0.175721
-141.008499 217.975098 -35.815002 0.202241
-127.525192 217.975098 -35.815002 0.238525
-114.041885 217.975098 -35.815002 0.283787
-100.558594 217.975098 -35.815002 0.340393
-87.075287 217.975098 -35.815002 0.383803
-73.591980 217.975098 -35.815002 0.419525
-60.108704 217.975098 -35.815002 0.427740
-46.625397 217.975098 -35.815002 0.446131
-33.142090 217.975098 -35.815002 0.438475
-19.658783 217.975098 -35.815002 0.430635
-6.175476 217.975098 -35.815002 0.418597
7.307800 217.975098 -35.815002 0.372623
20.791107 217.975098 -35.815002 0.359933
34.274414 217.975098 -35.815002 0.335368
47.757721 217.975098 -35.815002 0.314556
61.240997 217.975098 -35.815002 0.321605
74.724304 217.975098 -35.815002 0.314683
88.207611 217.975098 -35.815002 0.301285
101.690918 217.975098 -35.815002 0.293521
115.174225 217.975098 -35.815002 0.278879
128.657501 217.975098 -35.815002 0.262034
142.140808 217.975098 -35.815002 0.254931
155.624115 217.975098 -35.815002 0.242133
169.107422 217.975098 -35.815002 0.228064
182.590698 217.975098 -35.815002 0.197247
196.074036 217.975098 -35.815002 0.173922
209.557312 217.975098 -35.815002 0.153332
223.040588 217.975098 -35.815002 0.140060
236.523926 217.975098 -35.815002 0.135017
250.007202 217.975098 -35.815002 0.126849
263.490540 217.975098 -35.815002 0.109989
276.973816 217.975098 -35.815002 0.087434
290.457092 217.975098 -35.815002 0.061223
303.940430 217.975098 -35.815002 0.038236
317.423706 217.975098 -35.815002 0.024247
330.907043 217.975098 -35.815002 0.000000
344.390320 217.975098 -35.815002 0.000000
-343.257996 204.491791 -35.815002 0.000000
-329.774689 204.491791 -35.815002 0.000000
-316.291382 204.491791 -35.815002 0.023501
-302.808105 204.491791 -35.815002 0.030858
-289.324799 204.491791 -35.815002 0.041557
-275.841492 204.491791 -35.815002 0.051758
-262.358185 204.491791 -35.815002 0.060897
-248.874893 204.491791 -35.815002 0.074488
-235.391602 204.491791 -35.815002 0.086076
-221.908295 204.491791 -35.815002 0.101159
-208.424988 204.491791 -35.815002 0.114770
-194.941696 204.491791 -35.815002 0.133373
-181.458389 204.491791 -35.815002 0.149338
-167.975098 204.491791 -35.815002 0.171767
-154.491791 204.491791 -35.815002 0.193709
-141.008499 204.491791 -35.815002 0.236907
-127.525192 204.491791 -35.815002 0.277832
-114.041885 204.491791 -35.815002 0.316288
-100.558594 204.491791 -35.815002 0.373154
-87.075287 204.491791 -35.815002 0.415917
-73.591980 204.491791 -35.815002 0.452270
-60.108704 204.491791 -35.815002 0.467057
-46.625397 204.491791 -35.815002 0.478797
-33.142090 204.491791 -35.815002 0.465576
-19.658783 204.491791 -35.815002 0.442196
-6.175476 204.491791 -35.815002 0.410971
7.307800 204.491791 -35.815002 0.378327
20.791107 204.491791 -35.815002 0.350441
34.274414 204.491791 -35.815002 0.333000
47.757721 204.491791 -35.815002 0.321467
61.240997 204.491791 -35.815002 0.307766
74.724304 204.491791 -35.815002 0.289978
88.207611 204.491791 -35.815002 0.298938
101.690918 204.491791 -35.815002 0.294809
115.174225 204.491791 -35.815002 0.283696
128.657501 204.491791 -35.815002 0.256845
142.140808 204.491791 -35.815002 0.242584
155.624115 204.491791 -35.815002 0.227353
169.107422 204.491791 -35.815002 0.209527
182.590698 204.491791 -35.815002 0.180617
196.074036 204.491791 -35.815002 0.150156
209.557312 204.491791 -35.815002 0.127971
223.040588 204.491791 -35.815002 0.117625
236.523926 204.491791 -35.815002 0.111583
250.007202 204.491791 -35.815002 0.105632
263.490540 204.491791 -35.815002 0.089664
276.973816 204.491791 -35.815002 0.071879
290.457092 204.491791 -35.815002 0.051926
303.940430 204.491791 -35.815002 0.031597
317.423706 204.491791 -35.815002 0.019107
330.907043 204.491791 -35.815002 0.000000
344.390320 204.491791 -35.815002 0.000000
-343.257996 191.008499 -35.815002 0.000000
-329.774689 191.008499 -35.815002 0.000000
-316.291382 191.008499 -35.815002 0.023331
-302.808105 191.008499 -35.815002 0.030234
-289.324799 191.008499 -35.815002 0.040020
-275.841492 191.008499 -35.815002 0.050324
-262.358185 191.008499 -35.815002 0.059605
-248.874893 191.008499 -35.815002 0.072213
-235.391602 191.008499 -35.815002 0.087759
-221.908295 191.008499 -35.815002 0.104220
-208.424988 191.008499 -35.815002 0.119973
-194.941696 191.008499 -35.815002 0.143468
-181.458389 191.008499 -35.815002 0.175878
-167.975098 191.008499 -35.815002 0.209634
-154.491791 191.008499 -35.815002 0.241359
-141.008499 191.008499 -35.815002 0.298667
-127.525192 191.008499 -35.815002 0.339642
-114.041885 191.008499 -35.815002 0.385593
-100.558594 191.008499 -35.815002 0.444735
-87.075287 191.008499 -35.815002 0.479697
-73.591980 191.008499 -35.815002 0.522831
-60.108704 191.008499 -35.815002 0.514796
-46.625397 191.008499 -35.815002 0.492844
-33.142090 191.008499 -35.815002 0.454428
-19.658783 191.008499 -35.815002 0.432786
-6.175476 191.008499 -35.815002 0.394035
7.307800 191.008499 -35.815002 0.368455
20.791107 191.008499 -35.815002 0.331858
34.274414 191.008499 -35.815002 0.314152
47.757721 191.008499 -35.815002 0.329515
61.240997 191.008499 -35.815002 0.296044
74.724304 191.008499 -35.815002 0.300254
88.207611 191.008499 -35.815002 0.288241
101.690918 191.008499 -35.815002 0.271133
115.174225 191.008499 -35.815002 0.255424
128.657501 191.008499 -35.815002 0.246025
142.140808 191.008499 -35.815002 0.223789
155.624115 191.008499 -35.815002 0.197064
169.107422 191.008499 -35.815002 0.168360
182.590698 191.008499 -35.815002 0.151012
196.074036 191.008499 -35.815002 0.129551
209.557312 191.008499 -35.815002 0.114330
223.040588 191.008499 -35.815002 0.096953
236.523926 191.008499 -35.815002 0.092751
250.007202 191.008499 -35.815002 0.083982
263.490540 191.008499 -35.815002 0.072113
276.973816 191.008499 -35.815002 0.055447
290.457092 191.008499 -35.815002 0.040006
303.940430 191.008499 -35.815002 0.023992
317.423706 191.008499 -35.815002 0.016276
330.907043 191.008499 -35.815002 0.000000
344.390320 191.008499 -35.815002 0.000000
-343.257996 177.525192 -35.815002 0.000000
-329.774689 177.525192 -35.815002 0.000000
-316.291382 177.525192 -35.815002 0.022589
-302.808105 177.525192 -35.815002 0.029373
-289.324799 177.525192 -35.815002 0.038585
-275.841492 177.525192 -35.815002 0.050354
-262.358185 177.525192 -35.815002 0.062946
-248.874893 177.525192 -35.815002 0.076901
-235.391602 177.525192 -35.815002 0.096617
-221.908295 177.525192 -35.815002 0.113583
-208.424988 177.525192 -35.815002 0.134743
-194.941696 177.525192 -35.815002 0.161569
-181.458389 177.525192 -35.815002 0.194118
-167.975098 177.525192 -35.815002 0.241673
-154.491791 177.525192 -35.815002 0.310537
-141.008499 177.525192 -35.815002 0.361831
-127.525192 177.525192 -35.815002 0.404592
-114.041885 177.525192 -35.815002 0.444767
-100.558594 177.525192 -35.815002 0.494302
-87.075287 177.525192 -35.815002 0.526903
-73.591980 177.525192 -35.815002 0.536981
-60.108704 177.525192 -35.815002 0.553138
-46.625397 177.525192 -35.815002 0.508278
-33.142090 177.525192 -35.815002 0.468676
-19.658783 177.525192 -35.815002 0.427907
-6.175476 177.525192 -35.815002 0.405173
7.307800 177.525192 -35.815002 0.376940
20.791107 177.525192 -35.815002 0.359240
34.274414 177.525192 -35.815002 0.351131
47.757721 177.525192 -35.815002 0.357093
61.240997 177.525192 -35.815002 0.333362
74.724304 177.525192 -35.815002 0.309915
88.207611 177.525192 -35.815002 0.300424
101.690918 177.525192 -35.815002 0.268241
115.174225 177.525192 -35.815002 0.244316
128.657501 177.525192 -35.815002 0.210484
142.140808 177.525192 -35.815002 0.187579
155.624115 177.525192 -35.815002 0.159773
169.107422 177.525192 -35.815002 0.136739
182.590698 177.525192 -35.815002 0.119035
196.074036 177.525192 -35.815002 0.107746
209.557312 177.525192 -35.815002 0.097748
223.040588 177.525192 -35.815002 0.084871
236.523926 177.525192 -35.815002 0.073953
250.007202 177.525192 -35.815002 0.067897
263.490540 177.525192 -35.815002 0.057159
276.973816 177.525192 -35.815002 0.044512
290.457092 177.525192 -35.815002 0.031293
303.940430 177.525192 -35.815002 0.020230
317.423706 177.525192 -35.815002 0.013107
330.907043 177.525192 -35.815002 0.000000
344.390320 177.525192 -35.815002 0.000000
-343.257996 164.041885 -35.815002 0.000000
-329.774689 164.041885 -35.815002 0.000000
-316.291382 164.041885 -35.815002 0.022268
-302.808105 164.041885 -35.815002 0.029408
-289.324799 164.041885 -35.815002 0.040802
-275.841492 164.041885 -35.815002 0.052477
-262.358185 164.041885 -35.815002 0.065085
-248.874893 164.041885 -35.815002 0.080050
-235.391602 164.041885 -35.815002 0.096002
-221.908295 164.041885 -35.815002 0.125618
-208.424988 164.041885 -35.815002 0.153232
-194.941696 164.041885 -35.815002 0.189986
-181.458389 164.041885 -35.815002 0.229309
-167.975098 164.041885 -35.815002 0.284473
-154.491791 164.041885 -35.815002 0.378370
-141.008499 164.041885 -35.815002 0.453332
-127.525192 164.041885 -35.815002 0.481793
-114.041885 164.041885 -35.815002 0.505484
-100.558594 164.041885 -35.815002 0.571412
-87.075287 164.041885 -35.815002 0.567242
-73.591980 164.041885 -35.815002 0.565303
-60.108704 164.041885 -35.815002 0.572169
-46.625397 164.041885 -35.815002 0.544225
-33.142090 164.041885 -35.815002 0.478727
-19.658783 164.041885 -35.815002 0.450498
-6.175476 164.041885 -35.815002 0.417078
7.307800 164.041885 -35.815002 0.399114
20.791107 164.041885 -35.815002 0.369277
34.274414 164.041885 -35.815002 0.354616
47.757721 164.041885 -35.815002 0.345480
61.240997 164.041885 -35.815002 0.332897
74.724304 164.041885 -35.815002 0.322013
88.207611 164.041885 -35.815002 0.285943
101.690918 164.041885 -35.815002 0.243316
115.174225 164.041885 -35.815002 0.217820
128.657501 164.041885 -35.815002 0.181418
142.140808 164.041885 -35.815002 0.155303
155.624115 164.041885 -35.815002 0.134723
169.107422 164.041885 -35.815002 0.110960
182.590698 164.041885 -35.815002 0.093772
196.074036 164.041885 -35.815002 0.086563
209.557312 164.041885 -35.815002 0.078683
223.040588 164.041885 -35.815002 0.069937
236.523926 164.041885 -35.815002 0.059746
250.007202 164.041885 -35.815002 0.051205
263.490540 164.041885 -35.815002 0.044243
276.973816 164.041885 -35.815002 0.033915
290.457092 164.041885 -35.815002 0.025049
303.940430 164.041885 -35.815002 0.016090
317.423706 164.041885 -35.815002 0.011042
330.907043 164.041885 -35.815002 0.000000
344.390320 164.041885 -35.815002 0.000000
-343.257996 150.558594 -35.815002 0.000000
-329.774689 150.558594 -35.815002 0.000000
-316.291382 150.558594 -35.815002 0.023155
-302.808105 150.558594 -35.815002 0.030931
-289.324799 150.558594 -35.815002 0.040976
-275.841492 150.558594 -35.815002 0.053872
-262.358185 150.558594 -35.815002 0.064773
-248.874893 150.558594 -35.815002 0.082850
-235.391602 150.558594 -35.815002 0.109522
-221.908295 150.558594 -35.815002 0.138346
-208.424988 150.558594 -35.815002 0.172463
-194.941696 150.558594 -35.815002 0.216860
-181.458389 150.558594 -35.815002 0.265527
-167.975098 150.558594 -35.815002 0.327089
-154.491791 150.558594 -35.815002 0.427883
-141.008499 150.558594 -35.815002 0.495139
-127.525192 150.558594 -35.815002 0.547861
-114.041885 150.558594 -35.815002 0.579839
-100.558594 150.558594 -35.815002 0.585077
-87.075287 150.558594 -35.815002 0.584198
-73.591980 150.558594 -35.815002 0.582144
-60.108704 150.558594 -35.815002 0.575763
-46.625397 150.558594 -35.815002 0.556103
-33.142090 150.558594 -35.815002 0.512075
-19.658783 150.558594 -35.815002 0.476930
-6.175476 150.558594 -35.815002 0.431596
7.307800 150.558594 -35.815002 0.400374
20.791107 150.558594 -35.815002 0.368149
34.274414 150.558594 -35.815002 0.341054
47.757721 150.558594 -35.815002 0.349957
61.240997 150.558594 -35.815002 0.321170
74.724304 150.558594 -35.815002 0.295727
88.207611 150.558594 -35.815002 0.263307
101.690918 150.558594 -35.815002 0.228712
115.174225 150.558594 -35.815002 0.199750
128.657501 150.558594 -35.815002 0.158667
142.140808 150.558594 -35.815002 0.133948
155.624115 150.558594 -35.815002 0.108908
169.107422 150.558594 -35.815002 0.087509
182.590698 150.558594 -35.815002 0.076405
196.074036 150.558594 -35.815002 0.069925
209.557312 150.558594 -35.815002 0.064409
223.040588 150.558594 -35.815002 0.055193
236.523926 150.558594 -35.815002 0.044555
250.007202 150.558594 -35.815002 0.040000
263.490540 150.558594 -35.815002 0.033550
276.973816 150.558594 -35.815002 0.025748
290.457092 150.558594 -35.815002 0.018975
303.940430 150.558594 -35.815002 0.013095
317.423706 150.558594 -35.815002 0.009520
330.907043 150.558594 -35.815002 0.000000
344.390320 150.558594 -35.815002 0.000000
-343.257996 137.075287 -35.815002 0.000000
-329.774689 137.075287 -35.815002 0.000000
-316.291382 137.075287 -35.815002 0.026927
-302.808105 137.075287 -35.815002 0.034812
-289.324799 137.075287 -35.815002 0.044077
-275.841492 137.075287 -35.815002 0.060188
-262.358185 137.075287 -35.815002 0.074128
-248.874893 137.075287 -35.815002 0.093974
-235.391602 137.075287 -35.815002 0.121262
-221.908295 137.075287 -35.815002 0.163417
-208.424988 137.075287 -35.815002 0.199630
-194.941696 137.075287 -35.815002 0.253695
-181.458389 137.075287 -35.815002 0.318304
-167.975098 137.075287 -35.815002 0.421205
-154.491791 137.075287 -35.815002 0.485602
-141.008499 137.075287 -35.815002 0.550826
-127.525192 137.075287 -35.815002 0.584933
-114.041885 137.075287 -35.815002 0.652390
-100.558594 137.075287 -35.815002 0.670442
-87.075287 137.075287 -35.815002 0.628235
-73.591980 137.075287 -35.815002 0.596976
-60.108704 137.075287 -35.815002 0.588442
-46.625397 137.075287 -35.815002 0.540993
-33.142090 137.075287 -35.815002 0.506965
-19.658783 137.075287 -35.815002 0.464920
-6.175476 137.075287 -35.815002 0.411813
7.307800 137.075287 -35.815002 0.368999
20.791107 137.075287 -35.815002 0.347169
34.274414 137.075287 -35.815002 0.344300
47.757721 137.075287 -35.815002 0.330165
61.240997 137.075287 -35.815002 0.295245
74.724304 137.075287 -35.815002 0.261977
88.207611 137.075287 -35.815002 0.224629
101.690918 137.075287 -35.815002 0.199135
115.174225 137.075287 -35.815002 0.169515
128.657501 137.075287 -35.815002 0.139417
142.140808 137.075287 -35.815002 0.110816
155.624115 137.075287 -35.815002 0.097114
169.107422 137.075287 -35.815002 0.079603
182.590698 137.075287 -35.815002 0.065087
196.074036 137.075287 -35.815002 0.056891
209.557312 137.075287 -35.815002 0.049651
223.040588 137.075287 -35.815002 0.042247
236.523926 137.075287 -35.815002 0.034840
250.007202 137.075287 -35.815002 0.030354
263.490540 137.075287 -35.815002 0.024408
276.973816 137.075287 -35.815002 0.019782
290.457092 137.075287 -35.815002 0.014614
303.940430 137.075287 -35.815002 0.010176
317.423706 137.075287 -35.815002 0.007976
330.907043 137.075287 -35.815002 0.000000
344.390320 137.075287 -35.815002 0.000000
-343.257996 123.591980 -35.815002 0.000000
-329.774689 123.591980 -35.815002 0.000000
-316.291382 123.591980 -35.815002 0.031340
-302.808105 123.591980 -35.815002 0.038338
-289.324799 123.591980 -35.815002 0.050640
-275.841492 123.591980 -35.815002 0.065320
-262.358185 123.591980 -35.815002 0.084229
-248.874893 123.591980 -35.815002 0.106998
-235.391602 123.591980 -35.815002 0.143413
-221.908295 123.591980 -35.815002 0.194066
-208.424988 123.591980 -35.815002 0.237686
-194.941696 123.591980 -35.815002 0.298509
-181.458389 123.591980 -35.815002 0.376792
-167.975098 123.591980 -35.815002 0.484870
-154.491791 123.591980 -35.815002 0.537233
-141.008499 123.591980 -35.815002 0.583915
-127.525192 123.591980 -35.815002 0.659162
-114.041885 123.591980 -35.815002 0.684612
-100.558594 123.591980 -35.815002 0.705752
-87.075287 123.591980 -35.815002 0.653381
-73.591980 123.591980 -35.815002 0.630125
-60.108704 123.591980 -35.815002 0.600982
-46.625397 123.591980 -35.815002 0.534168
-33.142090 123.591980 -35.815002 0.477995
-19.658783 123.591980 -35.815002 0.431635
-6.175476 123.591980 -35.815002 0.402505
7.307800 123.591980 -35.815002 0.359384
20.791107 123.591980 -35.815002 0.344265
34.274414 123.591980 -35.815002 0.319010
47.757721 123.591980 -35.815002 0.313987
61.240997 123.591980 -35.815002 0.285093
74.724304 123.591980 -35.815002 0.231838
88.207611 123.591980 -35.815002 0.191670
101.690918 123.591980 -35.815002 0.164146
115.174225 123.591980 -35.815002 0.137523
128.657501 123.591980 -35.815002 0.116104
142.140808 123.591980 -35.815002 0.095491
155.624115 123.591980 -35.815002 0.080448
169.107422 123.591980 -35.815002 0.067640
182.590698 123.591980 -35.815002 0.057443
196.074036 123.591980 -35.815002 0.046668
209.557312 123.591980 -35.815002 0.037057
223.040588 123.591980 -35.815002 0.032399
236.523926 123.591980 -35.815002 0.026046
250.007202 123.591980 -35.815002 0.022562
263.490540 123.591980 -35.815002 0.018509
276.973816 123.591980 -35.815002 0.014240
290.457092 123.591980 -35.815002 0.011220
303.940430 123.591980 -35.815002 0.008304
317.423706 123.591980 -35.815002 0.006872
330.907043 123.591980 -35.815002 0.000000
344.390320 123.591980 -35.815002 0.000000
-343.257996 110.108704 -35.815002 0.000000
-329.774689 110.108704 -35.815002 0.000000
-316.291382 110.108704 -35.815002 0.035296
-302.808105 110.108704 -35.815002 0.043436
-289.324799 110.108704 -35.815002 0.053803
-275.841492 110.108704 -35.815002 0.071549
-262.358185 110.108704 -35.815002 0.091653
-248.874893 110.108704 -35.815002 0.123309
-235.391602 110.108704 -35.815002 0.155336
-221.908295 110.108704 -35.815002 0.207682
-208.424988 110.108704 -35.815002 0.274181
-194.941696 110.108704 -35.815002 0.357380
-181.458389 110.108704 -35.815002 0.446244
-167.975098 110.108704 -35.815002 0.514889
-154.491791 110.108704 -35.815002 0.590178
-141.008499 110.108704 -35.815002 0.654151
-127.525192 110.108704 -35.815002 0.715594
-114.041885 110.108704 -35.815002 0.728757
-100.558594 110.108704 -35.815002 0.715051
-87.075287 110.108704 -35.815002 0.714822
-73.591980 110.108704 -35.815002 0.670834
-60.108704 110.108704 -35.815002 0.618905
-46.625397 110.108704 -35.815002 0.559437
-33.142090 110.108704 -35.815002 0.462386
-19.658783 110.108704 -35.815002 0.418979
-6.175476 110.108704 -35.815002 0.389606
7.307800 110.108704 -35.815002 0.349978
20.791107 110.108704 -35.815002 0.323883
34.274414 110.108704 -35.815002 0.305702
47.757721 110.108704 -35.815002 0.283988
61.240997 110.108704 -35.815002 0.256110
74.724304 110.108704 -35.815002 0.210209
88.207611 110.108704 -35.815002 0.170530
101.690918 110.108704 -35.815002 0.142299
115.174225 110.108704 -35.815002 0.122840
128.657501 110.108704 -35.815002 0.098879
142.140808 110.108704 -35.815002 0.084837
155.624115 110.108704 -35.815002 0.067800
169.107422 110.108704 -35.815002 0.057428
182.590698 110.108704 -35.815002 0.047902
196.074036 110.108704 -35.815002 0.036945
209.557312 110.108704 -35.815002 0.030361
223.040588 110.108704 -35.815002 0.024301
236.523926 110.108704 -35.815002 0.019594
250.007202 110.108704 -35.815002 0.016110
263.490540 110.108704 -35.815002 0.012908
276.973816 110.108704 -35.815002 0.010389
290.457092 110.108704 -35.815002 0.008278
303.940430 110.108704 -35.815002 0.006839
317.423706 110.108704 -35.815002 0.005927
330.907043 110.108704 -35.815002 0.000000
344.390320 110.108704 -35.815002 0.000000
-343.257996 96.625397 -35.815002 0.000000
-329.774689 96.625397 -35.815002 0.000000
-316.291382 96.625397 -35.815002 0.038740
-302.808105 96.625397 -35.815002 0.046154
-289.324799 96.625397 -35.815002 0.058041
-275.841492 96.625397 -35.815002 0.078148
-262.358185 96.625397 -35.815002 0.103209
-248.874893 96.625397 -35.815002 0.133866
-235.391602 96.625397 -35.815002 0.169834
-221.908295 96.625397 -35.815002 0.229964
-208.424988 96.625397 -35.815002 0.293999
-194.941696 96.625397 -35.815002 0.400325
-181.458389 96.625397 -35.815002 0.462621
-167.975098 96.625397 -35.815002 0.562279
-154.491791 96.625397 -35.815002 0.665482
-141.008499 96.625397 -35.815002 0.725744
-127.525192 96.625397 -35.815002 0.746434
-114.041885 96.625397 -35.815002 0.744336
-100.558594 96.625397 -35.815002 0.737426
-87.075287 96.625397 -35.815002 0.701846
-73.591980 96.625397 -35.815002 0.648877
-60.108704 96.625397 -35.815002 0.625246
-46.625397 96.625397 -35.815002 0.561555
-33.142090 96.625397 -35.815002 0.498515
-19.658783 96.625397 -35.815002 0.449303
-6.175476 96.625397 -35.815002 0.402543
7.307800 96.625397 -35.815002 0.368349
20.791107 96.625397 -35.815002 0.343534
34.274414 96.625397 -35.815002 0.305255
47.757721 96.625397 -35.815002 0.279690
61.240997 96.625397 -35.815002 0.215288
74.724304 96.625397 -35.815002 0.176000
88.207611 96.625397 -35.815002 0.151416
101.690918 96.625397 -35.815002 0.125843
115.174225 96.625397 -35.815002 0.106014
128.657501 96.625397 -35.815002 0.092439
142.140808 96.625397 -35.815002 0.074255
155.624115 96.625397 -35.815002 0.058432
169.107422 96.625397 -35.815002 0.049501
182.590698 96.625397 -35.815002 0.038624
196.074036 96.625397 -35.815002 0.030421
209.557312 96.625397 -35.815002 0.024057
223.040588 96.625397 -35.815002 0.018568
236.523926 96.625397 -35.815002 0.014447
250.007202 96.625397 -35.815002 0.012046
263.490540 96.625397 -35.815002 0.009884
276.973816 96.625397 -35.815002 0.007852
290.457092 96.625397 -35.815002 0.006455
303.940430 96.625397 -35.815002 0.005677
317.423706 96.625397 -35.815002 0.005182
330.907043 96.625397 -35.815002 0.000000
344.390320 96.625397 -35.815002 0.000000
-343.257996 83.142090 -35.815002 0.000000
-329.774689 83.142090 -35.815002 0.000000
-316.291382 83.142090 -35.815002 0.042659
-302.808105 83.142090 -35.815002 0.049265
-289.324799 83.142090 -35.815002 0.063286
-275.841492 83.142090 -35.815002 0.085746
-262.358185 83.142090 -35.815002 0.110961
-248.874893 83.142090 -35.815002 0.143859
-235.391602 83.142090 -35.815002 0.191637
-221.908295 83.142090 -35.815002 0.252536
-208.424988 83.142090 -35.815002 0.328242
-194.941696 83.142090 -35.815002 0.419973
-181.458389 83.142090 -35.815002 0.504519
-167.975098 83.142090 -35.815002 0.621612
-154.491791 83.142090 -35.815002 0.676720
-141.008499 83.142090 -35.815002 0.745907
-127.525192 83.142090 -35.815002 0.785507
-114.041885 83.142090 -35.815002 0.765124
-100.558594 83.142090 -35.815002 0.740025
-87.075287 83.142090 -35.815002 0.697647
-73.591980 83.142090 -35.815002 0.650013
-60.108704 83.142090 -35.815002 0.587161
-46.625397 83.142090 -35.815002 0.533594
-33.142090 83.142090 -35.815002 0.498195
-19.658783 83.142090 -35.815002 0.456786
-6.175476 83.142090 -35.815002 0.409801
7.307800 83.142090 -35.815002 0.376383
20.791107 83.142090 -35.815002 0.366073
34.274414 83.142090 -35.815002 0.331747
47.757721 83.142090 -35.815002 0.274826
61.240997 83.142090 -35.815002 0.230944
74.724304 83.142090 -35.815002 0.173555
88.207611 83.142090 -35.815002 0.138611
101.690918 83.142090 -35.815002 0.118663
115.174225 83.142090 -35.815002 0.102031
128.657501 83.142090 -35.815002 0.081981
142.140808 83.142090 -35.815002 0.066018
155.624115 83.142090 -35.815002 0.051069
169.107422 83.142090 -35.815002 0.044224
182.590698 83.142090 -35.815002 0.033258
196.074036 83.142090 -35.815002 0.025193
209.557312 83.142090 -35.815002 0.019446
223.040588 83.142090 -35.815002 0.014206
236.523926 83.142090 -35.815002 0.010998
250.007202 83.142090 -35.815002 0.009730
263.490540 83.142090 -35.815002 0.008166
276.973816 83.142090 -35.815002 0.006730
290.457092 83.142090 -35.815002 0.005665
303.940430 83.142090 -35.815002 0.005249
317.423706 83.142090 -35.815002 0.005018
330.907043 83.142090 -35.815002 0.000000
344.390320 83.142090 -35.815002 0.000000
-343.257996 69.658783 -35.815002 0.000000
-329.774689 69.658783 -35.815002 0.000000
-316.291382 69.658783 -35.815002 0.046273
-302.808105 69.658783 -35.815002 0.054519
-289.324799 69.658783 -35.815002 0.072835
-275.841492 69.658783 -35.815002 0.096842
-262.358185 69.658783 -35.815002 0.123116
-248.874893 69.658783 -35.815002 0.157213
-235.391602 69.658783 -35.815002 0.206629
-221.908295 69.658783 -35.815002 0.283967
-208.424988 69.658783 -35.815002 0.375891
-194.941696 69.658783 -35.815002 0.447652
-181.458389 69.658783 -35.815002 0.569378
-167.975098 69.658783 -35.815002 0.648352
-154.491791 69.658783 -35.815002 0.737345
-141.008499 69.658783 -35.815002 0.763494
-127.525192 69.658783 -35.815002 0.794069
-114.041885 69.658783 -35.815002 0.791155
-100.558594 69.658783 -35.815002 0.755227
-87.075287 69.658783 -35.815002 0.686825
-73.591980 69.658783 -35.815002 0.609000
-60.108704 69.658783 -35.815002 0.581496
-46.625397 69.658783 -35.815002 0.524620
-33.142090 69.658783 -35.815002 0.465838
-19.658783 69.658783 -35.815002 0.464661
-6.175476 69.658783 -35.815002 0.420054
7.307800 69.658783 -35.815002 0.397532
20.791107 69.658783 -35.815002 0.394736
34.274414 69.658783 -35.815002 0.355495
47.757721 69.658783 -35.815002 0.292905
61.240997 69.658783 -35.815002 0.248478
74.724304 69.658783 -35.815002 0.186669
88.207611 69.658783 -35.815002 0.143806
101.690918 69.658783 -35.815002 0.114188
115.174225 69.658783 -35.815002 0.098244
128.657501 69.658783 -35.815002 0.076501
142.140808 69.658783 -35.815002 0.060602
155.624115 69.658783 -35.815002 0.052760
169.107422 69.658783 -35.815002 0.041459
182.590698 69.658783 -35.815002 0.034482
196.074036 69.658783 -35.815002 0.023912
209.557312 69.658783 -35.815002 0.018144
223.040588 69.658783 -35.815002 0.013605
236.523926 69.658783 -35.815002 0.010566
250.007202 69.658783 -35.815002 0.008719
263.490540 69.658783 -35.815002 0.007486
276.973816 69.658783 -35.815002 0.006448
290.457092 69.658783 -35.815002 0.005425
303.940430 69.658783 -35.815002 0.004937
317.423706 69.658783 -35.815002 0.004984
330.907043 69.658783 -35.815002 0.000000
344.390320 69.658783 -35.815002 0.000000
-343.257996 56.175476 -35.815002 0.000000
-329.774689 56.175476 -35.815002 0.000000
-316.291382 56.175476 -35.815002 0.050829
-302.808105 56.175476 -35.815002 0.060629
-289.324799 56.175476 -35.815002 0.081144
-275.841492 56.175476 -35.815002 0.108627
-262.358185 56.175476 -35.815002 0.139927
-248.874893 56.175476 -35.815002 0.174612
-235.391602 56.175476 -35.815002 0.245015
-221.908295 56.175476 -35.815002 0.324932
-208.424988 56.175476 -35.815002 0.406699
-194.941696 56.175476 -35.815002 0.494592
-181.458389 56.175476 -35.815002 0.622775
-167.975098 56.175476 -35.815002 0.718728
-154.491791 56.175476 -35.815002 0.789449
-141.008499 56.175476 -35.815002 0.813980
-127.525192 56.175476 -35.815002 0.801451
-114.041885 56.175476 -35.815002 0.733599
-100.558594 56.175476 -35.815002 0.694005
-87.075287 56.175476 -35.815002 0.612114
-73.591980 56.175476 -35.815002 0.573190
-60.108704 56.175476 -35.815002 0.530912
-46.625397 56.175476 -35.815002 0.496900
-33.142090 56.175476 -35.815002 0.476700
-19.658783 56.175476 -35.815002 0.456995
-6.175476 56.175476 -35.815002 0.435449
7.307800 56.175476 -35.815002 0.426071
20.791107 56.175476 -35.815002 0.422813
34.274414 56.175476 -35.815002 0.396905
47.757721 56.175476 -35.815002 0.319576
61.240997 56.175476 -35.815002 0.260821
74.724304 56.175476 -35.815002 0.205758
88.207611 56.175476 -35.815002 0.161118
101.690918 56.175476 -35.815002 0.135030
115.174225 56.175476 -35.815002 0.106537
128.657501 56.175476 -35.815002 0.089472
142.140808 56.175476 -35.815002 0.074863
155.624115 56.175476 -35.815002 0.062804
169.107422 56.175476 -35.815002 0.052366
182.590698 56.175476 -35.815002 0.039226
196.074036 56.175476 -35.815002 0.027738
209.557312 56.175476 -35.815002 0.020936
223.040588 56.175476 -35.815002 0.015906
236.523926 56.175476 -35.815002 0.011986
250.007202 56.175476 -35.815002 0.009023
263.490540 56.175476 -35.815002 0.007469
276.973816 56.175476 -35.815002 0.006786
290.457092 56.175476 -35.815002 0.005741
303.940430 56.175476 -35.815002 0.005365
317.423706 56.175476 -35.815002 0.005375
330.907043 56.175476 -35.815002 0.000000
344.390320 56.175476 -35.815002 0.000000
-343.257996 42.692200 -35.815002 0.000000
-329.774689 42.692200 -35.815002 0.000000
-316.291382 42.692200 -35.815002 0.054664
-302.808105 42.692200 -35.815002 0.065889
-289.324799 42.692200 -35.815002 0.086952
-275.841492 42.692200 -35.815002 0.114978
-262.358185 42.692200 -35.815002 0.148112
-248.874893 42.692200 -35.815002 0.198767
-235.391602 42.692200 -35.815002 0.266642
-221.908295 42.692200 -35.815002 0.340566
-208.424988 42.692200 -35.815002 0.444453
-194.941696 42.692200 -35.815002 0.561256
-181.458389 42.692200 -35.815002 0.687841
-167.975098 42.692200 -35.815002 0.767068
-154.491791 42.692200 -35.815002 0.842080
-141.008499 42.692200 -35.815002 0.814011
-127.525192 42.692200 -35.815002 0.734062
-114.041885 42.692200 -35.815002 0.678668
-100.558594 42.692200 -35.815002 0.631175
-87.075287 42.692200 -35.815002 0.569134
-73.591980 42.692200 -35.815002 0.539647
-60.108704 42.692200 -35.815002 0.526559
-46.625397 42.692200 -35.815002 0.489063
-33.142090 42.692200 -35.815002 0.455545
-19.658783 42.692200 -35.815002 0.432760
-6.175476 42.692200 -35.815002 0.426618
7.307800 42.692200 -35.815002 0.440260
20.791107 42.692200 -35.815002 0.434433
34.274414 42.692200 -35.815002 0.420267
47.757721 42.692200 -35.815002 0.363710
61.240997 42.692200 -35.815002 0.294311
74.724304 42.692200 -35.815002 0.235762
88.207611 42.692200 -35.815002 0.201825
101.690918 42.692200 -35.815002 0.163801
115.174225 42.692200 -35.815002 0.138581
128.657501 42.692200 -35.815002 0.109300
142.140808 42.692200 -35.815002 0.098211
155.624115 42.692200 -35.815002 0.083400
169.107422 42.692200 -35.815002 0.063910
182.590698 42.692200 -35.815002 0.051414
196.074036 42.692200 -35.815002 0.035997
209.557312 42.692200 -35.815002 0.026147
223.040588 42.692200 -35.815002 0.018350
236.523926 42.692200 -35.815002 0.013726
250.007202 42.692200 -35.815002 0.010108
263.490540 42.692200 -35.815002 0.008576
276.973816 42.692200 -35.815002 0.006998
290.457092 42.692200 -35.815002 0.006083
303.940430 42.692200 -35.815002 0.005837
317.423706 42.692200 -35.815002 0.005900
330.907043 42.692200 -35.815002 0.000000
344.390320 42.692200 -35.815002 0.000000
-343.257996 29.208893 -35.815002 0.000000
-329.774689 29.208893 -35.815002 0.000000
-316.291382 29.208893 -35.815002 0.057874
-302.808105 29.208893 -35.815002 0.073389
-289.324799 29.208893 -35.815002 0.095147
-275.841492 29.208893 -35.815002 0.126895
-262.358185 29.208893 -35.815002 0.162227
-248.874893 29.208893 -35.815002 0.226894
-235.391602 29.208893 -35.815002 0.305846
-221.908295 29.208893 -35.815002 0.389657
-208.424988 29.208893 -35.815002 0.517201
-194.941696 29.208893 -35.815002 0.645591
-181.458389 29.208893 -35.815002 0.736837
-167.975098 29.208893 -35.815002 0.810404
-154.491791 29.208893 -35.815002 0.811286
-141.008499 29.208893 -35.815002 0.759181
-127.525192 29.208893 -35.815002 0.684543
-114.041885 29.208893 -35.815002 0.597255
-100.558594 29.208893 -35.815002 0.553034
-87.075287 29.208893 -35.815002 0.515062
-73.591980 29.208893 -35.815002 0.512570
-60.108704 29.208893 -35.815002 0.511533
-46.625397 29.208893 -35.815002 0.490098
-33.142090 29.208893 -35.815002 0.462102
-19.658783 29.208893 -35.815002 0.424873
-6.175476 29.208893 -35.815002 0.419111
7.307800 29.208893 -35.815002 0.439415
20.791107 29.208893 -35.815002 0.435036
34.274414 29.208893 -35.815002 0.398148
47.757721 29.208893 -35.815002 0.367582
61.240997 29.208893 -35.815002 0.324309
74.724304 29.208893 -35.815002 0.269785
88.207611 29.208893 -35.815002 0.231086
101.690918 29.208893 -35.815002 0.198583
115.174225 29.208893 -35.815002 0.170942
128.657501 29.208893 -35.815002 0.152061
142.140808 29.208893 -35.815002 0.130521
155.624115 29.208893 -35.815002 0.116333
169.107422 29.208893 -35.815002 0.090745
182.590698 29.208893 -35.815002 0.067080
196.074036 29.208893 -35.815002 0.049021
209.557312 29.208893 -35.815002 0.033258
223.040588 29.208893 -35.815002 0.023313
236.523926 29.208893 -35.815002 0.016672
250.007202 29.208893 -35.815002 0.012398
263.490540 29.208893 -35.815002 0.009767
276.973816 29.208893 -35.815002 0.007390
290.457092 29.208893 -35.815002 0.006141
303.940430 29.208893 -35.815002 0.005865
317.423706 29.208893 -35.815002 0.006051
330.907043 29.208893 -35.815002 0.000000
344.390320 29.208893 -35.815002 0.000000
-343.257996 15.725586 -35.815002 0.000000
-329.774689 15.725586 -35.815002 0.000000
-316.291382 15.725586 -35.815002 0.061617
-302.808105 15.725586 -35.815002 0.077562
-289.324799 15.725586 -35.815002 0.101509
-275.841492 15.725586 -35.815002 0.135354
-262.358185 15.725586 -35.815002 0.180170
-248.874893 15.725586 -35.815002 0.250461
-235.391602 15.725586 -35.815002 0.329622
-221.908295 15.725586 -35.815002 0.448827
-208.424988 15.725586 -35.815002 0.555167
-194.941696 15.725586 -35.815002 0.649301
-181.458389 15.725586 -35.815002 0.736672
-167.975098 15.725586 -35.815002 0.792555
-154.491791 15.725586 -35.815002 0.785193
-141.008499 15.725586 -35.815002 0.708251
-127.525192 15.725586 -35.815002 0.655269
-114.041885 15.725586 -35.815002 0.581657
-100.558594 15.725586 -35.815002 0.523009
-87.075287 15.725586 -35.815002 0.480733
-73.591980 15.725586 -35.815002 0.456672
-60.108704 15.725586 -35.815002 0.448558
-46.625397 15.725586 -35.815002 0.461092
-33.142090 15.725586 -35.815002 0.438489
-19.658783 15.725586 -35.815002 0.418797
-6.175476 15.725586 -35.815002 0.413751
7.307800 15.725586 -35.815002 0.409550
20.791107 15.725586 -35.815002 0.406460
34.274414 15.725586 -35.815002 0.388513
47.757721 15.725586 -35.815002 0.372755
61.240997 15.725586 -35.815002 0.325237
74.724304 15.725586 -35.815002 0.279432
88.207611 15.725586 -35.815002 0.244589
101.690918 15.725586 -35.815002 0.215808
115.174225 15.725586 -35.815002 0.200934
128.657501 15.725586 -35.815002 0.177812
142.140808 15.725586 -35.815002 0.170246
155.624115 15.725586 -35.815002 0.149643
169.107422 15.725586 -35.815002 0.119039
182.590698 15.725586 -35.815002 0.091905
196.074036 15.725586 -35.815002 0.066802
209.557312 15.725586 -35.815002 0.045303
223.040588 15.725586 -35.815002 0.031994
236.523926 15.725586 -35.815002 0.021506
250.007202 15.725586 -35.815002 0.015174
263.490540 15.725586 -35.815002 0.011721
276.973816 15.725586 -35.815002 0.008676
290.457092 15.725586 -35.815002 0.006734
303.940430 15.725586 -35.815002 0.005919
317.423706 15.725586 -35.815002 0.005971
330.907043 15.725586 -35.815002 0.000000
344.390320 15.725586 -35.815002 0.000000
-343.257996 2.242279 -35.815002 0.000000
-329.774689 2.242279 -35.815002 0.000000
-316.291382 2.242279 -35.815002 0.065683
-302.808105 2.242279 -35.815002 0.081080
-289.324799 2.242279 -35.815002 0.108908
-275.841492 2.242279 -35.815002 0.147650
-262.358185 2.242279 -35.815002 0.197597
-248.874893 2.242279 -35.815002 0.276003
-235.391602 2.242279 -35.815002 0.351739
-221.908295 2.242279 -35.815002 0.442756
-208.424988 2.242279 -35.815002 0.569366
-194.941696 2.242279 -35.815002 0.669248
-181.458389 2.242279 -35.815002 0.752277
-167.975098 2.242279 -35.815002 0.750497
-154.491791 2.242279 -35.815002 0.725357
-141.008499 2.242279 -35.815002 0.691816
-127.525192 2.242279 -35.815002 0.619098
-114.041885 2.242279 -35.815002 0.573766
-100.558594 2.242279 -35.815002 0.471715
-87.075287 2.242279 -35.815002 0.445905
-73.591980 2.242279 -35.815002 0.423040
-60.108704 2.242279 -35.815002 0.398183
-46.625397 2.242279 -35.815002 0.426119
-33.142090 2.242279 -35.815002 0.403006
-19.658783 2.242279 -35.815002 0.389282
-6.175476 2.242279 -35.815002 0.387131
7.307800 2.242279 -35.815002 0.386776
20.791107 2.242279 -35.815002 0.393236
34.274414 2.242279 -35.815002 0.381150
47.757721 2.242279 -35.815002 0.355676
61.240997 2.242279 -35.815002 0.303046
74.724304 2.242279 -35.815002 0.276597
88.207611 2.242279 -35.815002 0.240341
101.690918 2.242279 -35.815002 0.211532
115.174225 2.242279 -35.815002 0.202071
128.657501 2.242279 -35.815002 0.188784
142.140808 2.242279 -35.815002 0.180421
155.624115 2.242279 -35.815002 0.169710
169.107422 2.242279 -35.815002 0.143289
182.590698 2.242279 -35.815002 0.115570
196.074036 2.242279 -35.815002 0.083077
209.557312 2.242279 -35.815002 0.058463
223.040588 2.242279 -35.815002 0.038700
236.523926 2.242279 -35.815002 0.025949
250.007202 2.242279 -35.815002 0.018599
263.490540 2.242279 -35.815002 0.013090
276.973816 2.242279 -35.815002 0.009790
290.457092 2.242279 -35.815002 0.007493
303.940430 2.242279 -35.815002 0.006235
317.423706 2.242279 -35.815002 0.005794
330.907043 2.242279 -35.815002 0.000000
344.390320 2.242279 -35.815002 0.000000
-343.257996 -11.240997 -35.815002 0.000000
-329.774689 -11.240997 -35.815002 0.000000
-316.291382 -11.240997 -35.815002 0.071457
-302.808105 -11.240997 -35.815002 0.084837
-289.324799 -11.240997 -35.815002 0.107753
-275.841492 -11.240997 -35.815002 0.148720
-262.358185 -11.240997 -35.815002 0.200399
-248.874893 -11.240997 -35.815002 0.286787
-235.391602 -11.240997 -35.815002 0.370134
-221.908295 -11.240997 -35.815002 0.483721
-208.424988 -11.240997 -35.815002 0.619583
-194.941696 -11.240997 -35.815002 0.753495
-181.458389 -11.240997 -35.815002 0.746344
-167.975098 -11.240997 -35.815002 0.747880
-154.491791 -11.240997 -35.815002 0.696394
-141.008499 -11.240997 -35.815002 0.645691
-127.525192 -11.240997 -35.815002 0.584662
-114.041885 -11.240997 -35.815002 0.527808
-100.558594 -11.240997 -35.815002 0.475266
-87.075287 -11.240997 -35.815002 0.392544
-73.591980 -11.240997 -35.815002 0.376084
-60.108704 -11.240997 -35.815002 0.369730
-46.625397 -11.240997 -35.815002 0.372150
-33.142090 -11.240997 -35.815002 0.375652
-19.658783 -11.240997 -35.815002 0.368572
-6.175476 -11.240997 -35.815002 0.363829
7.307800 -11.240997 -35.815002 0.342673
20.791107 -11.240997 -35.815002 0.369413
34.274414 -11.240997 -35.815002 0.354232
47.757721 -11.240997 -35.815002 0.316496
61.240997 -11.240997 -35.815002 0.274622
74.724304 -11.240997 -35.815002 0.242649
88.207611 -11.240997 -35.815002 0.213393
101.690918 -11.240997 -35.815002 0.189220
115.174225 -11.240997 -35.815002 0.184841
128.657501 -11.240997 -35.815002 0.190538
142.140808 -11.240997 -35.815002 0.183248
155.624115 -11.240997 -35.815002 0.177651
169.107422 -11.240997 -35.815002 0.167439
182.590698 -11.240997 -35.815002 0.143310
196.074036 -11.240997 -35.815002 0.109427
209.557312 -11.240997 -35.815002 0.074280
223.040588 -11.240997 -35.815002 0.048415
236.523926 -11.240997 -35.815002 0.031137
250.007202 -11.240997 -35.815002 0.020974
263.490540 -11.240997 -35.815002 0.014671
276.973816 -11.240997 -35.815002 0.010788
290.457092 -11.240997 -35.815002 0.008204
303.940430 -11.240997 -35.815002 0.006808
317.423706 -11.240997 -35.815002 0.006177
330.907043 -11.240997 -35.815002 0.000000
344.390320 -11.240997 -35.815002 0.000000
-343.257996 -24.724304 -35.815002 0.000000
-329.774689 -24.724304 -35.815002 0.000000
-316.291382 -24.724304 -35.815002 0.072546
-302.808105 -24.724304 -35.815002 0.086214
-289.324799 -24.724304 -35.815002 0.110967
-275.841492 -24.724304 -35.815002 0.154055
-262.358185 -24.724304 -35.815002 0.211467
-248.874893 -24.724304 -35.815002 0.289881
-235.391602 -24.724304 -35.815002 0.409166
-221.908295 -24.724304 -35.815002 0.522622
-208.424988 -24.724304 -35.815002 0.595773
-194.941696 -24.724304 -35.815002 0.725850
-181.458389 -24.724304 -35.815002 0.779194
-167.975098 -24.724304 -35.815002 0.750910
-154.491791 -24.724304 -35.815002 0.708748
-141.008499 -24.724304 -35.815002 0.624914
-127.525192 -24.724304 -35.815002 0.571959
-114.041885 -24.724304 -35.815002 0.516627
-100.558594 -24.724304 -35.815002 0.466556
-87.075287 -24.724304 -35.815002 0.415151
-73.591980 -24.724304 -35.815002 0.378430
-60.108704 -24.724304 -35.815002 0.352132
-46.625397 -24.724304 -35.815002 0.332670
-33.142090 -24.724304 -35.815002 0.343661
-19.658783 -24.724304 -35.815002 0.341121
-6.175476 -24.724304 -35.815002 0.331196
7.307800 -24.724304 -35.815002 0.323852
20.791107 -24.724304 -35.815002 0.323701
34.274414 -24.724304 -35.815002 0.305082
47.757721 -24.724304 -35.815002 0.266311
61.240997 -24.724304 -35.815002 0.213459
74.724304 -24.724304 -35.815002 0.190920
88.207611 -24.724304 -35.815002 0.169155
101.690918 -24.724304 -35.815002 0.159367
115.174225 -24.724304 -35.815002 0.151703
128.657501 -24.724304 -35.815002 0.169924
142.140808 -24.724304 -35.815002 0.179946
155.624115 -24.724304 -35.815002 0.185633
169.107422 -24.724304 -35.815002 0.183907
182.590698 -24.724304 -35.815002 0.162994
196.074036 -24.724304 -35.815002 0.128810
209.557312 -24.724304 -35.815002 0.089626
223.040588 -24.724304 -35.815002 0.059501
236.523926 -24.724304 -35.815002 0.037533
250.007202 -24.724304 -35.815002 0.024076
263.490540 -24.724304 -35.815002 0.016468
276.973816 -24.724304 -35.815002 0.011954
290.457092 -24.724304 -35.815002 0.008921
303.940430 -24.724304 -35.815002 0.007368
317.423706 -24.724304 -35.815002 0.006622
330.907043 -24.724304 -35.815002 0.000000
344.390320 -24.724304 -35.815002 0.000000
-343.257996 -38.207611 -35.815002 0.000000
-329.774689 -38.207611 -35.815002 0.000000
-316.291382 -38.207611 -35.815002 0.078401
-302.808105 -38.207611 -35.815002 0.094264
-289.324799 -38.207611 -35.815002 0.127798
-275.841492 -38.207611 -35.815002 0.165664
-262.358185 -38.207611 -35.815002 0.244798
-248.874893 -38.207611 -35.815002 0.349514
-235.391602 -38.207611 -35.815002 0.474937
-221.908295 -38.207611 -35.815002 0.574340
-208.424988 -38.207611 -35.815002 0.628139
-194.941696 -38.207611 -35.815002 0.716110
-181.458389 -38.207611 -35.815002 0.773776
-167.975098 -38.207611 -35.815002 0.722313
-154.491791 -38.207611 -35.815002 0.666049
-141.008499 -38.207611 -35.815002 0.622068
-127.525192 -38.207611 -35.815002 0.579547
-114.041885 -38.207611 -35.815002 0.552683
-100.558594 -38.207611 -35.815002 0.495309
-87.075287 -38.207611 -35.815002 0.454592
-73.591980 -38.207611 -35.815002 0.419747
-60.108704 -38.207611 -35.815002 0.360494
-46.625397 -38.207611 -35.815002 0.350408
-33.142090 -38.207611 -35.815002 0.333849
-19.658783 -38.207611 -35.815002 0.339213
-6.175476 -38.207611 -35.815002 0.308412
7.307800 -38.207611 -35.815002 0.302197
20.791107 -38.207611 -35.815002 0.281497
34.274414 -38.207611 -35.815002 0.261169
47.757721 -38.207611 -35.815002 0.211891
61.240997 -38.207611 -35.815002 0.174754
74.724304 -38.207611 -35.815002 0.146329
88.207611 -38.207611 -35.815002 0.135947
101.690918 -38.207611 -35.815002 0.124191
115.174225 -38.207611 -35.815002 0.130050
128.657501 -38.207611 -35.815002 0.146758
142.140808 -38.207611 -35.815002 0.163705
155.624115 -38.207611 -35.815002 0.186230
169.107422 -38.207611 -35.815002 0.198011
182.590698 -38.207611 -35.815002 0.184146
196.074036 -38.207611 -35.815002 0.144322
209.557312 -38.207611 -35.815002 0.105777
223.040588 -38.207611 -35.815002 0.066999
236.523926 -38.207611 -35.815002 0.042715
250.007202 -38.207611 -35.815002 0.026195
263.490540 -38.207611 -35.815002 0.018237
276.973816 -38.207611 -35.815002 0.013168
290.457092 -38.207611 -35.815002 0.010089
303.940430 -38.207611 -35.815002 0.008318
317.423706 -38.207611 -35.815002 0.007451
330.907043 -38.207611 -35.815002 0.000000
344.390320 -38.207611 -35.815002 0.000000
-343.257996 -51.690918 -35.815002 0.000000
-329.774689 -51.690918 -35.815002 0.000000
-316.291382 -51.690918 -35.815002 0.000000
-302.808105 -51.690918 -35.815002 0.104941
-289.324799 -51.690918 -35.815002 0.143975
-275.841492 -51.690918 -35.815002 0.186655
-262.358185 -51.690918 -35.815002 0.266679
-248.874893 -51.690918 -35.815002 0.351730
-235.391602 -51.690918 -35.815002 0.493148
-221.908295 -51.690918 -35.815002 0.595376
-208.424988 -51.690918 -35.815002 0.665756
-194.941696 -51.690918 -35.815002 0.731298
-181.458389 -51.690918 -35.815002 0.782261
-167.975098 -51.690918 -35.815002 0.719038
-154.491791 -51.690918 -35.815002 0.635851
-141.008499 -51.690918 -35.815002 0.597346
-127.525192 -51.690918 -35.815002 0.599782
-114.041885 -51.690918 -35.815002 0.583998
-100.558594 -51.690918 -35.815002 0.492491
-87.075287 -51.690918 -35.815002 0.433798
-73.591980 -51.690918 -35.815002 0.411250
-60.108704 -51.690918 -35.815002 0.369270
-46.625397 -51.690918 -35.815002 0.351346
-33.142090 -51.690918 -35.815002 0.346903
-19.658783 -51.690918 -35.815002 0.324259
-6.175476 -51.690918 -35.815002 0.300655
7.307800 -51.690918 -35.815002 0.274664
20.791107 -51.690918 -35.815002 0.241874
34.274414 -51.690918 -35.815002 0.227628
47.757721 -51.690918 -35.815002 0.179251
61.240997 -51.690918 -35.815002 0.140895
74.724304 -51.690918 -35.815002 0.122693
88.207611 -51.690918 -35.815002 0.112703
101.690918 -51.690918 -35.815002 0.105448
115.174225 -51.690918 -35.815002 0.112454
128.657501 -51.690918 -35.815002 0.128044
142.140808 -51.690918 -35.815002 0.153221
155.624115 -51.690918 -35.815002 0.179108
169.107422 -51.690918 -35.815002 0.194637
182.590698 -51.690918 -35.815002 0.201293
196.074036 -51.690918 -35.815002 0.163442
209.557312 -51.690918 -35.815002 0.119472
223.040588 -51.690918 -35.815002 0.076187
236.523926 -51.690918 -35.815002 0.048871
250.007202 -51.690918 -35.815002 0.029632
263.490540 -51.690918 -35.815002 0.019461
276.973816 -51.690918 -35.815002 0.014601
290.457092 -51.690918 -35.815002 0.011696
303.940430 -51.690918 -35.815002 0.009548
317.423706 -51.690918 -35.815002 0.009350
330.907043 -51.690918 -35.815002 0.000000
344.390320 -51.690918 -35.815002 0.000000
-343.257996 -65.174225 -35.815002 0.000000
-329.774689 -65.174225 -35.815002 0.000000
-316.291382 -65.174225 -35.815002 0.000000
-302.808105 -65.174225 -35.815002 0.000000
-289.324799 -65.174225 -35.815002 0.000000
-275.841492 -65.174225 -35.815002 0.000000
-262.358185 -65.174225 -35.815002 0.000000
-248.874893 -65.174225 -35.815002 0.000000
-235.391602 -65.174225 -35.815002 0.000000
-221.908295 -65.174225 -35.815002 0.609542
-208.424988 -65.174225 -35.815002 0.658750
-194.941696 -65.174225 -35.815002 0.708376
-181.458389 -65.174225 -35.815002 0.743899
-167.975098 -65.174225 -35.815002 0.731738
-154.491791 -65.174225 -35.815002 0.661898
-141.008499 -65.174225 -35.815002 0.631275
-127.525192 -65.174225 -35.815002 0.603477
-114.041885 -65.174225 -35.815002 0.586467
-100.558594 -65.174225 -35.815002 0.525929
-87.075287 -65.174225 -35.815002 0.484160
-73.591980 -65.174225 -35.815002 0.433598
-60.108704 -65.174225 -35.815002 0.365890
-46.625397 -65.174225 -35.815002 0.363661
-33.142090 -65.174225 -35.815002 0.354355
-19.658783 -65.174225 -35.815002 0.339106
-6.175476 -65.174225 -35.815002 0.298769
7.307800 -65.174225 -35.815002 0.276323
20.791107 -65.174225 -35.815002 0.238135
34.274414 -65.174225 -35.815002 0.196478
47.757721 -65.174225 -35.815002 0.158325
61.240997 -65.174225 -35.815002 0.121204
74.724304 -65.174225 -35.815002 0.104191
88.207611 -65.174225 -35.815002 0.098229
101.690918 -65.174225 -35.815002 0.094702
115.174225 -65.174225 -35.815002 0.093269
128.657501 -65.174225 -35.815002 0.109976
142.140808 -65.174225 -35.815002 0.136907
155.624115 -65.174225 -35.815002 0.169042
169.107422 -65.174225 -35.815002 0.191123
182.590698 -65.174225 -35.815002 0.197089
196.074036 -65.174225 -35.815002 0.177923
209.557312 -65.174225 -35.815002 0.137286
223.040588 -65.174225 -35.815002 0.089610
236.523926 -65.174225 -35.815002 0.055819
250.007202 -65.174225 -35.815002 0.033714
263.490540 -65.174225 -35.815002 0.022021
276.973816 -65.174225 -35.815002 0.016535
290.457092 -65.174225 -35.815002 0.012579
303.940430 -65.174225 -35.815002 0.010175
317.423706 -65.174225 -35.815002 0.011493
330.907043 -65.174225 -35.815002 0.000000
344.390320 -65.174225 -35.815002 0.000000
-343.257996 -78.657501 -35.815002 0.000000
-329.774689 -78.657501 -35.815002 0.000000
-316.291382 -78.657501 -35.815002 0.000000
-302.808105 -78.657501 -35.815002 0.000000
-289.324799 -78.657501 -35.815002 0.000000
-275.841492 -78.657501 -35.815002 0.000000
-262.358185 -78.657501 -35.815002 0.000000
-248.874893 -78.657501 -35.815002 0.000000
-235.391602 -78.657501 -35.815002 0.000000
-221.908295 -78.657501 -35.815002 0.000000
-208.424988 -78.657501 -35.815002 0.621453
-194.941696 -78.657501 -35.815002 0.000000
-181.458389 -78.657501 -35.815002 0.000000
-167.975098 -78.657501 -35.815002 0.716868
-154.491791 -78.657501 -35.815002 0.712903
-141.008499 -78.657501 -35.815002 0.707391
-127.525192 -78.657501 -35.815002 0.666845
-114.041885 -78.657501 -35.815002 0.609915
-100.558594 -78.657501 -35.815002 0.555661
-87.075287 -78.657501 -35.815002 0.492362
-73.591980 -78.657501 -35.815002 0.411897
-60.108704 -78.657501 -35.815002 0.370817
-46.625397 -78.657501 -35.815002 0.369000
-33.142090 -78.657501 -35.815002 0.362606
-19.658783 -78.657501 -35.815002 0.318264
-6.175476 -78.657501 -35.815002 0.276080
7.307800 -78.657501 -35.815002 0.247564
20.791107 -78.657501 -35.815002 0.210363
34.274414 -78.657501 -35.815002 0.172321
47.757721 -78.657501 -35.815002 0.135795
61.240997 -78.657501 -35.815002 0.103382
74.724304 -78.657501 -35.815002 0.091472
88.207611 -78.657501 -35.815002 0.087661
101.690918 -78.657501 -35.815002 0.083482
115.174225 -78.657501 -35.815002 0.084896
128.657501 -78.657501 -35.815002 0.103326
142.140808 -78.657501 -35.815002 0.125192
155.624115 -78.657501 -35.815002 0.161511
169.107422 -78.657501 -35.815002 0.187781
182.590698 -78.657501 -35.815002 0.202853
196.074036 -78.657501 -35.815002 0.191994
209.557312 -78.657501 -35.815002 0.151686
223.040588 -78.657501 -35.815002 0.104785
236.523926 -78.657501 -35.815002 0.066419
250.007202 -78.657501 -35.815002 0.038680
263.490540 -78.657501 -35.815002 0.025219
276.973816 -78.657501 -35.815002 0.019435
290.457092 -78.657501 -35.815002 0.016214
303.940430 -78.657501 -35.815002 0.011827
317.423706 -78.657501 -35.815002 0.011747
330.907043 -78.657501 -35.815002 0.000000
344.390320 -78.657501 -35.815002 0.000000
-343.257996 -92.140808 -35.815002 0.000000
-329.774689 -92.140808 -35.815002 0.000000
-316.291382 -92.140808 -35.815002 0.000000
-302.808105 -92.140808 -35.815002 0.000000
-289.324799 -92.140808 -35.815002 0.000000
-275.841492 -92.140808 -35.815002 0.000000
-262.358185 -92.140808 -35.815002 0.000000
-248.874893 -92.140808 -35.815002 0.000000
-235.391602 -92.140808 -35.815002 0.000000
-221.908295 -92.140808 -35.815002 0.000000
-208.424988 -92.140808 -35.815002 0.000000
-194.941696 -92.140808 -35.815002 0.000000
-181.458389 -92.140808 -35.815002 0.722905
-167.975098 -92.140808 -35.815002 0.000000
-154.491791 -92.140808 -35.815002 0.740831
-141.008499 -92.140808 -35.815002 0.750639
-127.525192 -92.140808 -35.815002 0.692660
-114.041885 -92.140808 -35.815002 0.641621
-100.558594 -92.140808 -35.815002 0.594059
-87.075287 -92.140808 -35.815002 0.530845
-73.591980 -92.140808 -35.815002 0.414742
-60.108704 -92.140808 -35.815002 0.357888
-46.625397 -92.140808 -35.815002 0.325080
-33.142090 -92.140808 -35.815002 0.313499
-19.658783 -92.140808 -35.815002 0.294190
-6.175476 -92.140808 -35.815002 0.262398
7.307800 -92.140808 -35.815002 0.240788
20.791107 -92.140808 -35.815002 0.182297
34.274414 -92.140808 -35.815002 0.140351
47.757721 -92.140808 -35.815002 0.109154
61.240997 -92.140808 -35.815002 0.087572
74.724304 -92.140808 -35.815002 0.082633
88.207611 -92.140808 -35.815002 0.077990
101.690918 -92.140808 -35.815002 0.081225
115.174225 -92.140808 -35.815002 0.082369
128.657501 -92.140808 -35.815002 0.098894
142.140808 -92.140808 -35.815002 0.117411
155.624115 -92.140808 -35.815002 0.148137
169.107422 -92.140808 -35.815002 0.177833
182.590698 -92.140808 -35.815002 0.203157
196.074036 -92.140808 -35.815002 0.203324
209.557312 -92.140808 -35.815002 0.166998
223.040588 -92.140808 -35.815002 0.119015
236.523926 -92.140808 -35.815002 0.076140
250.007202 -92.140808 -35.815002 0.045637
263.490540 -92.140808 -35.815002 0.030309
276.973816 -92.140808 -35.815002 0.023407
290.457092 -92.140808 -35.815002 0.018511
303.940430 -92.140808 -35.815002 0.015249
317.423706 -92.140808 -35.815002 0.014992
330.907043 -92.140808 -35.815002 0.000000
344.390320 -92.140808 -35.815002 0.000000
-343.257996 -105.624115 -35.815002 0.000000
-329.774689 -105.624115 -35.815002 0.000000
-316.291382 -105.624115 -35.815002 0.000000
-302.808105 -105.624115 -35.815002 0.000000
-289.324799 -105.624115 -35.815002 0.000000
-275.841492 -105.624115 -35.815002 0.000000
-262.358185 -105.624115 -35.815002 0.000000
-248.874893 -105.624115 -35.815002 0.000000
-235.391602 -105.624115 -35.815002 0.000000
-221.908295 -105.624115 -35.815002 0.000000
-208.424988 -105.624115 -35.815002 0.000000
-194.941696 -105.624115 -35.815002 0.664222
-181.458389 -105.624115 -35.815002 0.000000
-167.975098 -105.624115 -35.815002 0.000000
-154.491791 -105.624115 -35.815002 0.731732
-141.008499 -105.624115 -35.815002 0.769328
-127.525192 -105.624115 -35.815002 0.723154
-114.041885 -105.624115 -35.815002 0.674007
-100.558594 -105.624115 -35.815002 0.631626
-87.075287 -105.624115 -35.815002 0.000000
-73.591980 -105.624115 -35.815002 0.000000
-60.108704 -105.624115 -35.815002 0.000000
-46.625397 -105.624115 -35.815002 0.310446
-33.142090 -105.624115 -35.815002 0.292550
-19.658783 -105.624115 -35.815002 0.265651
-6.175476 -105.624115 -35.815002 0.246060
7.307800 -105.624115 -35.815002 0.208972
20.791107 -105.624115 -35.815002 0.173928
34.274414 -105.624115 -35.815002 0.131939
47.757721 -105.624115 -35.815002 0.100942
61.240997 -105.624115 -35.815002 0.090494
74.724304 -105.624115 -35.815002 0.082353
88.207611 -105.624115 -35.815002 0.076890
101.690918 -105.624115 -35.815002 0.083351
115.174225 -105.624115 -35.815002 0.090643
128.657501 -105.624115 -35.815002 0.094590
142.140808 -105.624115 -35.815002 0.110503
155.624115 -105.624115 -35.815002 0.131716
169.107422 -105.624115 -35.815002 0.167928
182.590698 -105.624115 -35.815002 0.198863
196.074036 -105.624115 -35.815002 0.203159
209.557312 -105.624115 -35.815002 0.180144
223.040588 -105.624115 -35.815002 0.131231
236.523926 -105.624115 -35.815002 0.086009
250.007202 -105.624115 -35.815002 0.055841
263.490540 -105.624115 -35.815002 0.040121
276.973816 -105.624115 -35.815002 0.030697
290.457092 -105.624115 -35.815002 0.023548
303.940430 -105.624115 -35.815002 0.021194
317.423706 -105.624115 -35.815002 0.021667
330.907043 -105.624115 -35.815002 0.000000
344.390320 -105.624115 -35.815002 0.000000
-343.257996 -119.107422 -35.815002 0.000000
-329.774689 -119.107422 -35.815002 0.000000
-316.291382 -119.107422 -35.815002 0.000000
-302.808105 -119.107422 -35.815002 0.000000
-289.324799 -119.107422 -35.815002 0.000000
-275.841492 -119.107422 -35.815002 0.000000
-262.358185 -119.107422 -35.815002 0.000000
-248.874893 -119.107422 -35.815002 0.000000
-235.391602 -119.107422 -35.815002 0.000000
-221.908295 -119.107422 -35.815002 0.000000
-208.424988 -119.107422 -35.815002 0.000000
-194.941696 -119.107422 -35.815002 0.000000
-181.458389 -119.107422 -35.815002 0.000000
-167.975098 -119.107422 -35.815002 0.000000
-154.491791 -119.107422 -35.815002 0.763023
-141.008499 -119.107422 -35.815002 0.773634
-127.525192 -119.107422 -35.815002 0.723911
-114.041885 -119.107422 -35.815002 0.000000
-100.558594 -119.107422 -35.815002 0.597353
-87.075287 -119.107422 -35.815002 0.000000
-73.591980 -119.107422 -35.815002 0.460791
-60.108704 -119.107422 -35.815002 0.000000
-46.625397 -119.107422 -35.815002 0.321305
-33.142090 -119.107422 -35.815002 0.275432
-19.658783 -119.107422 -35.815002 0.236932
-6.175476 -119.107422 -35.815002 0.214689
7.307800 -119.107422 -35.815002 0.186640
20.791107 -119.107422 -35.815002 0.156568
34.274414 -119.107422 -35.815002 0.126376
47.757721 -119.107422 -35.815002 0.105482
61.240997 -119.107422 -35.815002 0.100787
74.724304 -119.107422 -35.815002 0.092382
88.207611 -119.107422 -35.815002 0.089377
101.690918 -119.107422 -35.815002 0.095919
115.174225 -119.107422 -35.815002 0.094228
128.657501 -119.107422 -35.815002 0.098560
142.140808 -119.107422 -35.815002 0.110149
155.624115 -119.107422 -35.815002 0.134152
169.107422 -119.107422 -35.815002 0.166398
182.590698 -119.107422 -35.815002 0.193681
196.074036 -119.107422 -35.815002 0.214895
209.557312 -119.107422 -35.815002 0.197389
223.040588 -119.107422 -35.815002 0.152160
236.523926 -119.107422 -35.815002 0.104437
250.007202 -119.107422 -35.815002 0.073376
263.490540 -119.107422 -35.815002 0.050091
276.973816 -119.107422 -35.815002 0.038335
290.457092 -119.107422 -35.815002 0.031618
303.940430 -119.107422 -35.815002 0.031111
317.423706 -119.107422 -35.815002 0.032554
330.907043 -119.107422 -35.815002 0.000000
344.390320 -119.107422 -35.815002 0.000000
-343.257996 -132.590698 -35.815002 0.000000
-329.774689 -132.590698 -35.815002 0.000000
-316.291382 -132.590698 -35.815002 0.000000
-302.808105 -132.590698 -35.815002 0.000000
-289.324799 -132.590698 -35.815002 0.000000
-275.841492 -132.590698 -35.815002 0.000000
-262.358185 -132.590698 -35.815002 0.000000
-248.874893 -132.590698 -35.815002 0.000000
-235.391602 -132.590698 -35.815002 0.000000
-221.908295 -132.590698 -35.815002 0.000000
-208.424988 -132.590698 -35.815002 0.000000
-194.941696 -132.590698 -35.815002 0.000000
-181.458389 -132.590698 -35.815002 0.768474
-167.975098 -132.590698 -35.815002 0.789536
-154.491791 -132.590698 -35.815002 0.000000
-141.008499 -132.590698 -35.815002 0.810538
-127.525192 -132.590698 -35.815002 0.768634
-114.041885 -132.590698 -35.815002 0.690524
-100.558594 -132.590698 -35.815002 0.643176
-87.075287 -132.590698 -35.815002 0.535345
-73.591980 -132.590698 -35.815002 0.493520
-60.108704 -132.590698 -35.815002 0.000000
-46.625397 -132.590698 -35.815002 0.000000
-33.142090 -132.590698 -35.815002 0.000000
-19.658783 -132.590698 -35.815002 0.252359
-6.175476 -132.590698 -35.815002 0.231598
7.307800 -132.590698 -35.815002 0.193703
20.791107 -132.590698 -35.815002 0.167458
34.274414 -132.590698 -35.815002 0.142195
47.757721 -132.590698 -35.815002 0.129311
61.240997 -132.590698 -35.815002 0.119403
74.724304 -132.590698 -35.815002 0.114971
88.207611 -132.590698 -35.815002 0.113430
101.690918 -132.590698 -35.815002 0.116928
115.174225 -132.590698 -35.815002 0.109281
128.657501 -132.590698 -35.815002 0.111970
142.140808 -132.590698 -35.815002 0.123738
155.624115 -132.590698 -35.815002 0.147721
169.107422 -132.590698 -35.815002 0.173223
182.590698 -132.590698 -35.815002 0.208250
196.074036 -132.590698 -35.815002 0.233600
209.557312 -132.590698 -35.815002 0.225026
223.040588 -132.590698 -35.815002 0.191225
236.523926 -132.590698 -35.815002 0.135340
250.007202 -132.590698 -35.815002 0.091076
263.490540 -132.590698 -35.815002 0.068129
276.973816 -132.590698 -35.815002 0.054687
290.457092 -132.590698 -35.815002 0.056636
303.940430 -132.590698 -35.815002 0.044758
317.423706 -132.590698 -35.815002 0.000000
330.907043 -132.590698 -35.815002 0.000000
344.390320 -132.590698 -35.815002 0.000000
-343.257996 -146.074036 -35.815002 0.000000
-329.774689 -146.074036 -35.815002 0.000000
-316.291382 -146.074036 -35.815002 0.000000
-302.808105 -146.074036 -35.815002 0.000000
-289.324799 -146.074036 -35.815002 0.000000
-275.841492 -146.074036 -35.815002 0.000000
-262.358185 -146.074036 -35.815002 0.000000
-248.874893 -146.074036 -35.815002 0.000000
-235.391602 -146.074036 -35.815002 0.000000
-221.908295 -146.074036 -35.815002 0.000000
-208.424988 -146.074036 -35.815002 0.000000
-194.941696 -146.074036 -35.815002 0.000000
-181.458389 -146.074036 -35.815002 0.000000
-167.975098 -146.074036 -35.815002 0.000000
-154.491791 -146.074036 -35.815002 0.000000
-141.008499 -146.074036 -35.815002 0.000000
-127.525192 -146.074036 -35.815002 0.000000
-114.041885 -146.074036 -35.815002 0.000000
-100.558594 -146.074036 -35.815002 0.000000
-87.075287 -146.074036 -35.815002 0.000000
-73.591980 -146.074036 -35.815002 0.000000
-60.108704 -146.074036 -35.815002 0.000000
-46.625397 -146.074036 -35.815002 0.000000
-33.142090 -146.074036 -35.815002 0.000000
-19.658783 -146.074036 -35.815002 0.000000
-6.175476 -146.074036 -35.815002 0.000000
7.307800 -146.074036 -35.815002 0.000000
20.791107 -146.074036 -35.815002 0.000000
34.274414 -146.074036 -35.815002 0.000000
47.757721 -146.074036 -35.815002 0.000000
61.240997 -146.074036 -35.815002 0.000000
74.724304 -146.074036 -35.815002 0.000000
88.207611 -146.074036 -35.815002 0.000000
101.690918 -146.074036 -35.815002 0.000000
115.174225 -146.074036 -35.815002 0.000000
128.657501 -146.074036 -35.815002 0.140262
142.140808 -146.074036 -35.815002 0.147690
155.624115 -146.074036 -35.815002 0.170616
169.107422 -146.074036 -35.815002 0.195825
182.590698 -146.074036 -35.815002 0.229520
196.074036 -146.074036 -35.815002 0.250890
209.557312 -146.074036 -35.815002 0.233491
223.040588 -146.074036 -35.815002 0.214857
236.523926 -146.074036 -35.815002 0.166665
250.007202 -146.074036 -35.815002 0.126034
263.490540 -146.074036 -35.815002 0.098656
276.973816 -146.074036 -35.815002 0.000000
290.457092 -146.074036 -35.815002 0.000000
303.940430 -146.074036 -35.815002 0.000000
317.423706 -146.074036 -35.815002 0.000000
330.907043 -146.074036 -35.815002 0.000000
344.390320 -146.074036 -35.815002 0.000000
-343.257996 -159.557312 -35.815002 0.000000
-329.774689 -159.557312 -35.815002 0.000000
-316.291382 -159.557312 -35.815002 0.000000
-302.808105 -159.557312 -35.815002 0.000000
-289.324799 -159.557312 -35.815002 0.000000
-275.841492 -159.557312 -35.815002 0.000000
-262.358185 -159.557312 -35.815002 0.000000
-248.874893 -159.557312 -35.815002 0.000000
-235.391602 -159.557312 -35.815002 0.000000
-221.908295 -159.557312 -35.815002 0.000000
-208.424988 -159.557312 -35.815002 0.000000
-194.941696 -159.557312 -35.815002 0.000000
-181.458389 -159.557312 -35.815002 0.000000
-167.975098 -159.557312 -35.815002 0.000000
-154.491791 -159.557312 -35.815002 0.000000
-141.008499 -159.557312 -35.815002 0.000000
-127.525192 -159.557312 -35.815002 0.000000
-114.041885 -159.557312 -35.815002 0.000000
-100.558594 -159.557312 -35.815002 0.000000
-87.075287 -159.557312 -35.815002 0.000000
-73.591980 -159.557312 -35.815002 0.000000
-60.108704 -159.557312 -35.815002 0.000000
-46.625397 -159.557312 -35.815002 0.000000
-33.142090 -159.557312 -35.815002 0.000000
-19.658783 -159.557312 -35.815002 0.000000
-6.175476 -159.557312 -35.815002 0.000000
7.307800 -159.557312 -35.815002 0.000000
20.791107 -159.557312 -35.815002 0.000000
34.274414 -159.557312 -35.815002 0.000000
47.757721 -159.557312 -35.815002 0.000000
61.240997 -159.557312 -35.815002 0.000000
74.724304 -159.557312 -35.815002 0.000000
88.207611 -159.557312 -35.815002 0.000000
101.690918 -159.557312 -35.815002 0.000000
115.174225 -159.557312 -35.815002 0.000000
128.657501 -159.557312 -35.815002 0.000000
142.140808 -159.557312 -35.815002 0.000000
155.624115 -159.557312 -35.815002 0.000000
169.107422 -159.557312 -35.815002 0.000000
182.590698 -159.557312 -35.815002 0.000000
196.074036 -159.557312 -35.815002 0.000000
209.557312 -159.557312 -35.815002 0.000000
223.040588 -159.557312 -35.815002 0.000000
236.523926 -159.557312 -35.815002 0.000000
250.007202 -159.557312 -35.815002 0.000000
263.490540 -159.557312 -35.815002 0.000000
276.973816 -159.557312 -35.815002 0.000000
290.457092 -159.557312 -35.815002 0.000000
303.940430 -159.557312 -35.815002 0.000000
317.423706 -159.557312 -35.815002 0.000000
330.907043 -159.557312 -35.815002 0.000000
344.390320 -159.557312 -35.815002 0.000000
-343.257996 -173.040588 -35.815002 0.000000
-329.774689 -173.040588 -35.815002 0.000000
-316.291382 -173.040588 -35.815002 0.000000
-302.808105 -173.040588 -35.815002 0.000000
-289.324799 -173.040588 -35.815002 0.000000
-275.841492 -173.040588 -35.815002 0.000000
-262.358185 -173.040588 -35.815002 0.000000
-248.874893 -173.040588 -35.815002 0.000000
-235.391602 -173.040588 -35.815002 0.000000
-221.908295 -173.040588 -35.815002 0.000000
-208.424988 -173.040588 -35.815002 0.000000
-194.941696 -173.040588 -35.815002 0.000000
-181.458389 -173.040588 -35.815002 0.000000
-167.975098 -173.040588 -35.815002 0.000000
-154.491791 -173.040588 -35.815002 0.000000
-141.008499 -173.040588 -35.815002 0.000000
-127.525192 -173.040588 -35.815002 0.000000
-114.041885 -173.040588 -35.815002 0.000000
-100.558594 -173.040588 -35.815002 0.000000
-87.075287 -173.040588 -35.815002 0.000000
-73.591980 -173.040588 -35.815002 0.000000
-60.108704 -173.040588 -35.815002 0.000000
-46.625397 -173.040588 -35.815002 0.000000
-33.142090 -173.040588 -35.815002 0.000000
-19.658783 -173.040588 -35.815002 0.000000
-6.175476 -173.040588 -35.815002 0.000000
7.307800 -173.040588 -35.815002 0.000000
20.791107 -173.040588 -35.815002 0.000000
34.274414 -173.040588 -35.815002 0.000000
47.757721 -173.040588 -35.815002 0.000000
61.240997 -173.040588 -35.815002 0.000000
74.724304 -173.040588 -35.815002 0.000000
88.207611 -173.040588 -35.815002 0.000000
101.690918 -173.040588 -35.815002 0.000000
115.174225 -173.040588 -35.815002 0.000000
128.657501 -173.040588 -35.815002 0.000000
142.140808 -173.040588 -35.815002 0.000000
155.624115 -173.040588 -35.815002 0.000000
169.107422 -173.040588 -35.815002 0.000000
182.590698 -173.040588 -35.815002 0.000000
196.074036 -173.040588 -35.815002 0.000000
209.557312 -173.040588 -35.815002 0.000000
223.040588 -173.040588 -35.815002 0.000000
236.523926 -173.040588 -35.815002 0.000000
250.007202 -173.040588 -35.815002 0.000000
263.490540 -173.040588 -35.815002 0.000000
276.973816 -173.040588 -35.815002 0.000000
290.457092 -173.040588 -35.815002 0.000000
303.940430 -173.040588 -35.815002 0.000000
317.423706 -173.040588 -35.815002 0.000000
330.907043 -173.040588 -35.815002 0.000000
344.390320 -173.040588 -35.815002 0.000000
-343.257996 -186.523926 -35.815002 0.000000
-329.774689 -186.523926 -35.815002 0.000000
-316.291382 -186.523926 -35.815002 0.000000
-302.808105 -186.523926 -35.815002 0.000000
-289.324799 -186.523926 -35.815002 0.000000
-275.841492 -186.523926 -35.815002 0.000000
-262.358185 -186.523926 -35.815002 0.000000
-248.874893 -186.523926 -35.815002 0.000000
-235.391602 -186.523926 -35.815002 0.000000
-221.908295 -186.523926 -35.815002 0.000000
-208.424988 -186.523926 -35.815002 0.000000
-194.941696 -186.523926 -35.815002 0.000000
-181.458389 -186.523926 -35.815002 0.000000
-167.975098 -186.523926 -35.815002 0.000000
-154.491791 -186.523926 -35.815002 0.000000
-141.008499 -186.523926 -35.815002 0.000000
-127.525192 -186.523926 -35.815002 0.000000
-114.041885 -186.523926 -35.815002 0.000000
-100.558594 -186.523926 -35.815002 0.000000
-87.075287 -186.523926 -35.815002 0.000000
-73.591980 -186.523926 -35.815002 0.000000
-60.108704 -186.523926 -35.815002 0.000000
-46.625397 -186.523926 -35.815002 0.000000
-33.142090 -186.523926 -35.815002 0.000000
-19.658783 -186.523926 -35.815002 0.000000
-6.175476 -186.523926 -35.815002 0.000000
7.307800 -186.523926 -35.815002 0.000000
20.791107 -186.523926 -35.815002 0.000000
34.274414 -186.523926 -35.815002 0.000000
47.757721 -186.523926 -35.815002 0.000000
61.240997 -186.523926 -35.815002 0.000000
74.724304 -186.523926 -35.815002 0.000000
88.207611 -186.523926 -35.815002 0.000000
101.690918 -186.523926 -35.815002 0.000000
115.174225 -186.523926 -35.815002 0.000000
128.657501 -186.523926 -35.815002 0.000000
142.140808 -186.523926 -35.815002 0.000000
155.624115 -186.523926 -35.815002 0.000000
169.107422 -186.523926 -35.815002 0.000000
182.590698 -186.523926 -35.815002 0.000000
196.074036 -186.523926 -35.815002 0.000000
209.557312 -186.523926 -35.815002 0.000000
223.040588 -186.523926 -35.815002 0.000000
236.523926 -186.523926 -35.815002 0.000000
250.007202 -186.523926 -35.815002 0.000000
263.490540 -186.523926 -35.815002 0.000000
276.973816 -186.523926 -35.815002 0.000000
290.457092 -186.523926 -35.815002 0.000000
303.940430 -186.523926 -35.815002 0.000000
317.423706 -186.523926 -35.815002 0.000000
330.907043 -186.523926 -35.815002 0.000000
344.390320 -186.523926 -35.815002 0.000000
-343.257996 -200.007202 -35.815002 0.000000
-329.774689 -200.007202 -35.815002 0.000000
-316.291382 -200.007202 -35.815002 0.000000
-302.808105 -200.007202 -35.815002 0.000000
-289.324799 -200.007202 -35.815002 0.000000
-275.841492 -200.007202 -35.815002 0.000000
-262.358185 -200.007202 -35.815002 0.000000
-248.874893 -200.007202 -35.815002 0.000000
-235.391602 -200.007202 -35.815002 0.000000
-221.908295 -200.007202 -35.815002 0.000000
-208.424988 -200.007202 -35.815002 0.000000
-194.941696 -200.007202 -35.815002 0.000000
-181.458389 -200.007202 -35.815002 0.000000
-167.975098 -200.007202 -35.815002 0.000000
-154.491791 -200.007202 -35.815002 0.000000
-141.008499 -200.007202 -35.815002 0.000000
-127.525192 -200.007202 -35.815002 0.000000
-114.041885 -200.007202 -35.815002 0.000000
-100.558594 -200.007202 -35.815002 0.000000
-87.075287 -200.007202 -35.815002 0.000000
-73.591980 -200.007202 -35.815002 0.000000
-60.108704 -200.007202 -35.815002 0.000000
-46.625397 -200.007202 -35.815002 0.000000
-33.142090 -200.007202 -35.815002 0.000000
-19.658783 -200.007202 -35.815002 0.000000
-6.175476 -200.007202 -35.815002 0.000000
7.307800 -200.007202 -35.815002 0.000000
20.791107 -200.007202 -35.815002 0.000000
34.274414 -200.007202 -35.815002 0.000000
47.757721 -200.007202 -35.815002 0.000000
61.240997 -200.007202 -35.815002 0.000000
74.724304 -200.007202 -35.815002 0.000000
88.207611 -200.007202 -35.815002 0.000000
101.690918 -200.007202 -35.815002 0.000000
115.174225 -200.007202 -35.815002 0.000000
128.657501 -200.007202 -35.815002 0.000000
142.140808 -200.007202 -35.815002 0.000000
155.624115 -200.007202 -35.815002 0.000000
169.107422 -200.007202 -35.815002 0.000000
182.590698 -200.007202 -35.815002 0.000000
196.074036 -200.007202 -35.815002 0.000000
209.557312 -200.007202 -35.815002 0.000000
223.040588 -200.007202 -35.815002 0.000000
236.523926 -200.007202 -35.815002 0.000000
250.007202 -200.007202 -35.815002 0.000000
263.490540 -200.007202 -35.815002 0.000000
276.973816 -200.007202 -35.815002 0.000000
290.457092 -200.007202 -35.815002 0.000000
303.940430 -200.007202 -35.815002 0.000000
317.423706 -200.007202 -35.815002 0.000000
330.907043 -200.007202 -35.815002 0.000000
344.390320 -200.007202 -35.815002 0.000000
-343.257996 393.257996 -22.331701 0.000000
-329.774689 393.257996 -22.331701 0.000000
-316.291382 393.257996 -22.331701 0.000000
-302.808105 393.257996 -22.331701 0.000000
-289.324799 393.257996 -22.331701 0.000000
-275.841492 393.257996 -22.331701 0.000000
-262.358185 393.257996 -22.331701 0.000000
-248.874893 393.257996 -22.331701 0.000000
-235.391602 393.257996 -22.331701 0.000000
-221.908295 393.257996 -22.331701 0.000000
-208.424988 393.257996 -22.331701 0.000000
-194.941696 393.257996 -22.331701 0.000000
-181.458389 393.257996 -22.331701 0.000000
-167.975098 393.257996 -22.331701 0.000000
-154.491791 393.257996 -22.331701 0.000000
-141.008499 393.257996 -22.331701 0.000000
-127.525192 393.257996 -22.331701 0.000000
-114.041885 393.257996 -22.331701 0.000000
-100.558594 393.257996 -22.331701 0.000000
-87.075287 393.257996 -22.331701 0.000000
-73.591980 393.257996 -22.331701 0.000000
-60.108704 393.257996 -22.331701 0.000000
-46.625397 393.257996 -22.331701 0.000000
-33.142090 393.257996 -22.331701 0.000000
-19.658783 393.257996 -22.331701 0.000000
-6.175476 393.257996 -22.331701 0.000000
7.307800 393.257996 -22.331701 0.000000
20.791107 393.257996 -22.331701 0.000000
34.274414 393.257996 -22.331701 0.000000
47.757721 393.257996 -22.331701 0.000000
61.240997 393.257996 -22.331701 0.000000
74.724304 393.257996 -22.331701 0.000000
88.207611 393.257996 -22.331701 0.000000
101.690918 393.257996 -22.331701 0.000000
115.174225 393.257996 -22.331701 0.000000
128.657501 393.257996 -22.331701 0.000000
142.140808 393.257996 -22.331701 0.000000
155.624115 393.257996 -22.331701 0.000000
169.107422 393.257996 -22.331701 0.000000
182.590698 393.257996 -22.331701 0.000000
196.074036 393.257996 -22.331701 0.000000
209.557312 393.257996 -22.331701 0.000000
223.040588 393.257996 -22.331701 0.000000
236.523926 393.257996 -22.331701 0.000000
250.007202 393.257996 -22.331701 0.000000
263.490540 393.257996 -22.331701 0.000000
276.973816 393.257996 -22.331701 0.000000
290.457092 393.257996 -22.331701 0.000000
303.940430 393.257996 -22.331701 0.000000
317.423706 393.257996 -22.331701 0.000000
330.907043 393.257996 -22.331701 0.000000
344.390320 393.257996 -22.331701 0.000000
-343.257996 379.774689 -22.331701 0.000000
-329.774689 379.774689 -22.331701 0.000000
-316.291382 379.774689 -22.331701 0.000000
-302.808105 379.774689 -22.331701 0.000000
-289.324799 379.774689 -22.331701 0.000000
-275.841492 379.774689 -22.331701 0.000000
-262.358185 379.774689 -22.331701 0.000000
-248.874893 379.774689 -22.331701 0.000000
-235.391602 379.774689 -22.331701 0.000000
-221.908295 379.774689 -22.331701 0.000000
-208.424988 379.774689 -22.331701 0.000000
-194.941696 379.774689 -22.331701 0.000000
-181.458389 379.774689 -22.331701 0.000000
-167.975098 379.774689 -22.331701 0.000000
-154.491791 379.774689 -22.331701 0.000000
-141.008499 379.774689 -22.331701 0.000000
-127.525192 379.774689 -22.331701 0.000000
-114.041885 379.774689 -22.331701 0.000000
-100.558594 379.774689 -22.331701 0.000000
-87.075287 379.774689 -22.331701 0.000000
-73.591980 379.774689 -22.331701 0.000000
-60.108704 379.774689 -22.331701 0.000000
-46.625397 379.774689 -22.331701 0.000000
-33.142090 379.774689 -22.331701 0.000000
-19.658783 379.774689 -22.331701 0.000000
-6.175476 379.774689 -22.331701 0.000000
7.307800 379.774689 -22.331701 0.000000
20.791107 379.774689 -22.331701 0.000000
34.274414 379.774689 -22.331701 0.000000
47.757721 379.774689 -22.331701 0.000000
61.240997 379.774689 -22.331701 0.000000
74.724304 379.774689 -22.331701 0.000000
88.207611 379.774689 -22.331701 0.000000
101.690918 379.774689 -22.331701 0.000000
115.174225 379.774689 -22.331701 0.000000
128.657501 379.774689 -22.331701 0.000000
142.140808 379.774689 -22.331701 0.000000
155.624115 379.774689 -22.331701 0.000000
169.107422 379.774689 -22.331701 0.000000
182.590698 379.774689 -22.331701 0.000000
196.074036 379.774689 -22.331701 0.000000
209.557312 379.774689 -22.331701 0.000000
223.040588 379.774689 -22.331701 0.000000
236.523926 379.774689 -22.331701 0.000000
250.007202 379.774689 -22.331701 0.000000
263.490540 379.774689 -22.331701 0.000000
276.973816 379.774689 -22.331701 0.000000
290.457092 379.774689 -22.331701 0.000000
303.940430 379.774689 -22.331701 0.000000
317.423706 379.774689 -22.331701 0.000000
330.907043 379.774689 -22.331701 0.000000
344.390320 379.774689 -22.331701 0.000000
-343.257996 366.291382 -22.331701 0.000000
-329.774689 366.291382 -22.331701 0.000000
-316.291382 366.291382 -22.331701 0.000000
-302.808105 366.291382 -22.331701 0.000000
-289.324799 366.291382 -22.331701 0.000000
-275.841492 366.291382 -22.331701 0.000000
-262.358185 366.291382 -22.331701 0.000000
-248.874893 366.291382 -22.331701 0.000000
-235.391602 366.291382 -22.331701 0.000000
-221.908295 366.291382 -22.331701 0.000000
-208.424988 366.291382 -22.331701 0.000000
-194.941696 366.291382 -22.331701 0.000000
-181.458389 366.291382 -22.331701 0.000000
-167.975098 366.291382 -22.331701 0.000000
-154.491791 366.291382 -22.331701 0.000000
-141.008499 366.291382 -22.331701 0.000000
-127.525192 366.291382 -22.331701 0.000000
-114.041885 366.291382 -22.331701 0.000000
-100.558594 366.291382 -22.331701 0.000000
-87.075287 366.291382 -22.331701 0.000000
-73.591980 366.291382 -22.331701 0.000000
-60.108704 366.291382 -22.331701 0.000000
-46.625397 366.291382 -22.331701 0.000000
-33.142090 366.291382 -22.331701 0.000000
-19.658783 366.291382 -22.331701 0.000000
-6.175476 366.291382 -22.331701 0.000000
7.307800 366.291382 -22.331701 0.000000
20.791107 366.291382 -22.331701 0.000000
34.274414 366.291382 -22.331701 0.000000
47.757721 366.291382 -22.331701 0.000000
61.240997 366.291382 -22.331701 0.000000
74.724304 366.291382 -22.331701 0.000000
88.207611 366.291382 -22.331701 0.000000
101.690918 366.291382 -22.331701 0.000000
115.174225 366.291382 -22.331701 0.000000
128.657501 366.291382 -22.331701 0.000000
142.140808 366.291382 -22.331701 0.000000
155.624115 366.291382 -22.331701 0.000000
169.107422 366.291382 -22.331701 0.000000
182.590698 366.291382 -22.331701 0.000000
196.074036 366.291382 -22.331701 0.000000
209.557312 366.291382 -22.331701 0.000000
223.040588 366.291382 -22.331701 0.000000
236.523926 366.291382 -22.331701 0.000000
250.007202 366.291382 -22.331701 0.000000
263.490540 366.291382 -22.331701 0.000000
276.973816 366.291382 -22.331701 0.000000
290.457092 366.291382 -22.331701 0.000000
303.940430 366.291382 -22.331701 0.000000
317.423706 366.291382 -22.331701 0.000000
330.907043 366.291382 -22.331701 0.000000
344.390320 366.291382 -22.331701 0.000000
-343.257996 352.808105 -22.331701 0.000000
-329.774689 352.808105 -22.331701 0.000000
-316.291382 352.808105 -22.331701 0.000000
-302.808105 352.808105 -22.331701 0.030362
-289.324799 352.808105 -22.331701 0.033331
-275.841492 352.808105 -22.331701 0.034206
-262.358185 352.808105 -22.331701 0.041100
-248.874893 352.808105 -22.331701 0.047294
-235.391602 352.808105 -22.331701 0.057653
-221.908295 352.808105 -22.331701 0.064933
-208.424988 352.808105 -22.331701 0.070293
-194.941696 352.808105 -22.331701 0.086143
-181.458389 352.808105 -22.331701 0.000000
-167.975098 352.808105 -22.331701 0.000000
-154.491791 352.808105 -22.331701 0.000000
-141.008499 352.808105 -22.331701 0.000000
-127.525192 352.808105 -22.331701 0.000000
-114.041885 352.808105 -22.331701 0.000000
-100.558594 352.808105 -22.331701 0.000000
-87.075287 352.808105 -22.331701 0.000000
-73.591980 352.808105 -22.331701 0.000000
-60.108704 352.808105 -22.331701 0.000000
-46.625397 352.808105 -22.331701 0.000000
-33.142090 352.808105 -22.331701 0.000000
-19.658783 352.808105 -22.331701 0.000000
-6.175476 352.808105 -22.331701 0.000000
7.307800 352.808105 -22.331701 0.000000
20.791107 352.808105 -22.331701 0.000000
34.274414 352.808105 -22.331701 0.193701
47.757721 352.808105 -22.331701 0.177269
61.240997 352.808105 -22.331701 0.157346
74.724304 352.808105 -22.331701 0.155728
88.207611 352.808105 -22.331701 0.000000
101.690918 352.808105 -22.331701 0.000000
115.174225 352.808105 -22.331701 0.000000
128.657501 352.808105 -22.331701 0.000000
142.140808 352.808105 -22.331701 0.000000
155.624115 352.808105 -22.331701 0.000000
169.107422 352.808105 -22.331701 0.000000
182.590698 352.808105 -22.331701 0.000000
196.074036 352.808105 -22.331701 0.000000
209.557312 352.808105 -22.331701 0.000000
223.040588 352.808105 -22.331701 0.000000
236.523926 352.808105 -22.331701 0.000000
250.007202 352.808105 -22.331701 0.000000
263.490540 352.808105 -22.331701 0.000000
276.973816 352.808105 -22.331701 0.000000
290.457092 352.808105 -22.331701 0.000000
303.940430 352.808105 -22.331701 0.000000
317.423706 352.808105 -22.331701 0.000000
330.907043 352.808105 -22.331701 0.000000
344.390320 352.808105 -22.331701 0.000000
-343.257996 339.324799 -22.331701 0.000000
-329.774689 339.324799 -22.331701 0.000000
-316.291382 339.324799 -22.331701 0.000000
-302.808105 339.324799 -22.331701 0.027109
-289.324799 339.324799 -22.331701 0.031231
-275.841492 339.324799 -22.331701 0.033400
-262.358185 339.324799 -22.331701 0.040544
-248.874893 339.324799 -22.331701 0.048288
-235.391602 339.324799 -22.331701 0.058103
-221.908295 339.324799 -22.331701 0.065956
-208.424988 339.324799 -22.331701 0.076069
-194.941696 339.324799 -22.331701 0.086800
-181.458389 339.324799 -22.331701 0.104425
-167.975098 339.324799 -22.331701 0.125249
-154.491791 339.324799 -22.331701 0.145184
-141.008499 339.324799 -22.331701 0.162808
-127.525192 339.324799 -22.331701 0.174455
-114.041885 339.324799 -22.331701 0.198240
-100.558594 339.324799 -22.331701 0.218358
-87.075287 339.324799 -22.331701 0.254042
-73.591980 339.324799 -22.331701 0.243183
-60.108704 339.324799 -22.331701 0.265145
-46.625397 339.324799 -22.331701 0.290960
-33.142090 339.324799 -22.331701 0.288913
-19.658783 339.324799 -22.331701 0.288700
-6.175476 339.324799 -22.331701 0.289583
7.307800 339.324799 -22.331701 0.262216
20.791107 339.324799 -22.331701 0.236445
34.274414 339.324799 -22.331701 0.220576
47.757721 339.324799 -22.331701 0.200593
61.240997 339.324799 -22.331701 0.202652
74.724304 339.324799 -22.331701 0.179505
88.207611 339.324799 -22.331701 0.168036
101.690918 339.324799 -22.331701 0.170123
115.174225 339.324799 -22.331701 0.173123
128.657501 339.324799 -22.331701 0.161354
142.140808 339.324799 -22.331701 0.150370
155.624115 339.324799 -22.331701 0.131795
169.107422 339.324799 -22.331701 0.120264
182.590698 339.324799 -22.331701 0.116848
196.074036 339.324799 -22.331701 0.116108
209.557312 339.324799 -22.331701 0.109548
223.040588 339.324799 -22.331701 0.110997
236.523926 339.324799 -22.331701 0.112133
250.007202 339.324799 -22.331701 0.115176
263.490540 339.324799 -22.331701 0.109543
276.973816 339.324799 -22.331701 0.118115
290.457092 339.324799 -22.331701 0.000000
303.940430 339.324799 -22.331701 0.000000
317.423706 339.324799 -22.331701 0.000000
330.907043 339.324799 -22.331701 0.000000
344.390320 339.324799 -22.331701 0.000000
-343.257996 325.841492 -22.331701 0.000000
-329.774689 325.841492 -22.331701 0.000000
-316.291382 325.841492 -22.331701 0.021433
-302.808105 325.841492 -22.331701 0.025054
-289.324799 325.841492 -22.331701 0.031021
-275.841492 325.841492 -22.331701 0.035043
-262.358185 325.841492 -22.331701 0.040019
-248.874893 325.841492 -22.331701 0.047350
-235.391602 325.841492 -22.331701 0.055864
-221.908295 325.841492 -22.331701 0.064180
-208.424988 325.841492 -22.331701 0.070851
-194.941696 325.841492 -22.331701 0.082501
-181.458389 325.841492 -22.331701 0.095495
-167.975098 325.841492 -22.331701 0.113081
-154.491791 325.841492 -22.331701 0.137056
-141.008499 325.841492 -22.331701 0.154794
-127.525192 325.841492 -22.331701 0.176518
-114.041885 325.841492 -22.331701 0.207899
-100.558594 325.841492 -22.331701 0.233297
-87.075287 325.841492 -22.331701 0.251315
-73.591980 325.841492 -22.331701 0.278054
-60.108704 325.841492 -22.331701 0.290814
-46.625397 325.841492 -22.331701 0.315033
-33.142090 325.841492 -22.331701 0.293507
-19.658783 325.841492 -22.331701 0.290275
-6.175476 325.841492 -22.331701 0.289338
7.307800 325.841492 -22.331701 0.262907
20.791107 325.841492 -22.331701 0.248405
34.274414 325.841492 -22.331701 0.236047
47.757721 325.841492 -22.331701 0.223852
61.240997 325.841492 -22.331701 0.217521
74.724304 325.841492 -22.331701 0.207569
88.207611 325.841492 -22.331701 0.204661
101.690918 325.841492 -22.331701 0.201236
115.174225 325.841492 -22.331701 0.210159
128.657501 325.841492 -22.331701 0.200304
142.140808 325.841492 -22.331701 0.181832
155.624115 325.841492 -22.331701 0.177636
169.107422 325.841492 -22.331701 0.153346
182.590698 325.841492 -22.331701 0.143509
196.074036 325.841492 -22.331701 0.137613
209.557312 325.841492 -22.331701 0.128489
223.040588 325.841492 -22.331701 0.123850
236.523926 325.841492 -22.331701 0.128110
250.007202 325.841492 -22.331701 0.124303
263.490540 325.841492 -22.331701 0.126856
276.973816 325.841492 -22.331701 0.116112
290.457092 325.841492 -22.331701 0.000000
303.940430 325.841492 -22.331701 0.000000
317.423706 325.841492 -22.331701 0.000000
330.907043 325.841492 -22.331701 0.000000
344.390320 325.841492 -22.331701 0.000000
-343.257996 312.358185 -22.331701 0.000000
-329.774689 312.358185 -22.331701 0.000000
-316.291382 312.358185 -22.331701 0.021117
-302.808105 312.358185 -22.331701 0.024637
-289.324799 312.358185 -22.331701 0.031679
-275.841492 312.358185 -22.331701 0.035963
-262.358185 312.358185 -22.331701 0.041704
-248.874893 312.358185 -22.331701 0.046262
-235.391602 312.358185 -22.331701 0.054718
-221.908295 312.358185 -22.331701 0.064738
-208.424988 312.358185 -22.331701 0.073675
-194.941696 312.358185 -22.331701 0.084855
-181.458389 312.358185 -22.331701 0.098123
-167.975098 312.358185 -22.331701 0.110872
-154.491791 312.358185 -22.331701 0.130380
-141.008499 312.358185 -22.331701 0.156709
-127.525192 312.358185 -22.331701 0.182020
-114.041885 312.358185 -22.331701 0.210621
-100.558594 312.358185 -22.331701 0.234852
-87.075287 312.358185 -22.331701 0.256052
-73.591980 312.358185 -22.331701 0.292549
-60.108704 312.358185 -22.331701 0.317785
-46.625397 312.358185 -22.331701 0.331032
-33.142090 312.358185 -22.331701 0.325047
-19.658783 312.358185 -22.331701 0.319036
-6.175476 312.358185 -22.331701 0.304523
7.307800 312.358185 -22.331701 0.285553
20.791107 312.358185 -22.331701 0.282333
34.274414 312.358185 -22.331701 0.273254
47.757721 312.358185 -22.331701 0.261623
61.240997 312.358185 -22.331701 0.263718
74.724304 312.358185 -22.331701 0.258233
88.207611 312.358185 -22.331701 0.265374
101.690918 312.358185 -22.331701 0.247895
115.174225 312.358185 -22.331701 0.234292
128.657501 312.358185 -22.331701 0.217448
142.140808 312.358185 -22.331701 0.208018
155.624115 312.358185 -22.331701 0.208342
169.107422 312.358185 -22.331701 0.183944
182.590698 312.358185 -22.331701 0.165381
196.074036 312.358185 -22.331701 0.159444
209.557312 312.358185 -22.331701 0.145948
223.040588 312.358185 -22.331701 0.135728
236.523926 312.358185 -22.331701 0.127929
250.007202 312.358185 -22.331701 0.126975
263.490540 312.358185 -22.331701 0.132396
276.973816 312.358185 -22.331701 0.119567
290.457092 312.358185 -22.331701 0.122813
303.940430 312.358185 -22.331701 0.000000
317.423706 312.358185 -22.331701 0.000000
330.907043 312.358185 -22.331701 0.000000
344.390320 312.358185 -22.331701 0.000000
-343.257996 298.874878 -22.331701 0.000000
-329.774689 298.874878 -22.331701 0.000000
-316.291382 298.874878 -22.331701 0.021788
-302.808105 298.874878 -22.331701 0.026055
-289.324799 298.874878 -22.331701 0.034105
-275.841492 298.874878 -22.331701 0.041130
-262.358185 298.874878 -22.331701 0.044322
-248.874893 298.874878 -22.331701 0.051228
-235.391602 298.874878 -22.331701 0.056581
-221.908295 298.874878 -22.331701 0.065320
-208.424988 298.874878 -22.331701 0.071620
-194.941696 298.874878 -22.331701 0.081057
-181.458389 298.874878 -22.331701 0.092658
-167.975098 298.874878 -22.331701 0.112864
-154.491791 298.874878 -22.331701 0.130984
-141.008499 298.874878 -22.331701 0.150915
-127.525192 298.874878 -22.331701 0.174486
-114.041885 298.874878 -22.331701 0.193598
-100.558594 298.874878 -22.331701 0.211186
-87.075287 298.874878 -22.331701 0.245892
-73.591980 298.874878 -22.331701 0.273784
-60.108704 298.874878 -22.331701 0.320927
-46.625397 298.874878 -22.331701 0.349046
-33.142090 298.874878 -22.331701 0.331560
-19.658783 298.874878 -22.331701 0.340663
-6.175476 298.874878 -22.331701 0.329425
7.307800 298.874878 -22.331701 0.305493
20.791107 298.874878 -22.331701 0.310807
34.274414 298.874878 -22.331701 0.297066
47.757721 298.874878 -22.331701 0.289220
61.240997 298.874878 -22.331701 0.289057
74.724304 298.874878 -22.331701 0.290766
88.207611 298.874878 -22.331701 0.297174
101.690918 298.874878 -22.331701 0.281167
115.174225 298.874878 -22.331701 0.263052
128.657501 298.874878 -22.331701 0.242298
142.140808 298.874878 -22.331701 0.233980
155.624115 298.874878 -22.331701 0.215364
169.107422 298.874878 -22.331701 0.201364
182.590698 298.874878 -22.331701 0.184260
196.074036 298.874878 -22.331701 0.167154
209.557312 298.874878 -22.331701 0.156338
223.040588 298.874878 -22.331701 0.143265
236.523926 298.874878 -22.331701 0.136685
250.007202 298.874878 -22.331701 0.136359
263.490540 298.874878 -22.331701 0.133234
276.973816 298.874878 -22.331701 0.131472
290.457092 298.874878 -22.331701 0.118100
303.940430 298.874878 -22.331701 0.000000
317.423706 298.874878 -22.331701 0.000000
330.907043 298.874878 -22.331701 0.000000
344.390320 298.874878 -22.331701 0.000000
-343.257996 285.391602 -22.331701 0.000000
-329.774689 285.391602 -22.331701 0.000000
-316.291382 285.391602 -22.331701 0.022687
-302.808105 285.391602 -22.331701 0.027201
-289.324799 285.391602 -22.331701 0.035607
-275.841492 285.391602 -22.331701 0.041519
-262.358185 285.391602 -22.331701 0.048096
-248.874893 285.391602 -22.331701 0.054795
-235.391602 285.391602 -22.331701 0.061144
-221.908295 285.391602 -22.331701 0.067935
-208.424988 285.391602 -22.331701 0.072396
-194.941696 285.391602 -22.331701 0.082342
-181.458389 285.391602 -22.331701 0.092191
-167.975098 285.391602 -22.331701 0.108558
-154.491791 285.391602 -22.331701 0.127138
-141.008499 285.391602 -22.331701 0.147033
-127.525192 285.391602 -22.331701 0.170794
-114.041885 285.391602 -22.331701 0.197317
-100.558594 285.391602 -22.331701 0.226993
-87.075287 285.391602 -22.331701 0.247069
-73.591980 285.391602 -22.331701 0.283416
-60.108704 285.391602 -22.331701 0.308855
-46.625397 285.391602 -22.331701 0.332628
-33.142090 285.391602 -22.331701 0.367003
-19.658783 285.391602 -22.331701 0.362732
-6.175476 285.391602 -22.331701 0.354380
7.307800 285.391602 -22.331701 0.331204
20.791107 285.391602 -22.331701 0.322698
34.274414 285.391602 -22.331701 0.314804
47.757721 285.391602 -22.331701 0.315578
61.240997 285.391602 -22.331701 0.312744
74.724304 285.391602 -22.331701 0.309342
88.207611 285.391602 -22.331701 0.308876
101.690918 285.391602 -22.331701 0.284284
115.174225 285.391602 -22.331701 0.279374
128.657501 285.391602 -22.331701 0.260897
142.140808 285.391602 -22.331701 0.239127
155.624115 285.391602 -22.331701 0.230641
169.107422 285.391602 -22.331701 0.215958
182.590698 285.391602 -22.331701 0.198287
196.074036 285.391602 -22.331701 0.180300
209.557312 285.391602 -22.331701 0.164945
223.040588 285.391602 -22.331701 0.155667
236.523926 285.391602 -22.331701 0.150855
250.007202 285.391602 -22.331701 0.144774
263.490540 285.391602 -22.331701 0.135245
276.973816 285.391602 -22.331701 0.127928
290.457092 285.391602 -22.331701 0.109025
303.940430 285.391602 -22.331701 0.100920
317.423706 285.391602 -22.331701 0.000000
330.907043 285.391602 -22.331701 0.000000
344.390320 285.391602 -22.331701 0.000000
-343.257996 271.908295 -22.331701 0.000000
-329.774689 271.908295 -22.331701 0.000000
-316.291382 271.908295 -22.331701 0.022564
-302.808105 271.908295 -22.331701 0.028679
-289.324799 271.908295 -22.331701 0.036992
-275.841492 271.908295 -22.331701 0.044494
-262.358185 271.908295 -22.331701 0.052672
-248.874893 271.908295 -22.331701 0.061582
-235.391602 271.908295 -22.331701 0.066596
-221.908295 271.908295 -22.331701 0.068701
-208.424988 271.908295 -22.331701 0.076377
-194.941696 271.908295 -22.331701 0.084227
-181.458389 271.908295 -22.331701 0.091187
-167.975098 271.908295 -22.331701 0.108449
-154.491791 271.908295 -22.331701 0.126338
-141.008499 271.908295 -22.331701 0.151041
-127.525192 271.908295 -22.331701 0.176450
-114.041885 271.908295 -22.331701 0.208380
-100.558594 271.908295 -22.331701 0.230871
-87.075287 271.908295 -22.331701 0.278998
-73.591980 271.908295 -22.331701 0.308649
-60.108704 271.908295 -22.331701 0.337644
-46.625397 271.908295 -22.331701 0.358955
-33.142090 271.908295 -22.331701 0.372617
-19.658783 271.908295 -22.331701 0.377161
-6.175476 271.908295 -22.331701 0.357225
7.307800 271.908295 -22.331701 0.344499
20.791107 271.908295 -22.331701 0.327671
34.274414 271.908295 -22.331701 0.327465
47.757721 271.908295 -22.331701 0.344031
61.240997 271.908295 -22.331701 0.329276
74.724304 271.908295 -22.331701 0.321417
88.207611 271.908295 -22.331701 0.302462
101.690918 271.908295 -22.331701 0.284161
115.174225 271.908295 -22.331701 0.272287
128.657501 271.908295 -22.331701 0.246473
142.140808 271.908295 -22.331701 0.229885
155.624115 271.908295 -22.331701 0.216308
169.107422 271.908295 -22.331701 0.215288
182.590698 271.908295 -22.331701 0.199217
196.074036 271.908295 -22.331701 0.175917
209.557312 271.908295 -22.331701 0.170869
223.040588 271.908295 -22.331701 0.176837
236.523926 271.908295 -22.331701 0.158168
250.007202 271.908295 -22.331701 0.152637
263.490540 271.908295 -22.331701 0.139824
276.973816 271.908295 -22.331701 0.125934
290.457092 271.908295 -22.331701 0.101588
303.940430 271.908295 -22.331701 0.082654
317.423706 271.908295 -22.331701 0.000000
330.907043 271.908295 -22.331701 0.000000
344.390320 271.908295 -22.331701 0.000000
-343.257996 258.424988 -22.331701 0.000000
-329.774689 258.424988 -22.331701 0.000000
-316.291382 258.424988 -22.331701 0.023602
-302.808105 258.424988 -22.331701 0.029562
-289.324799 258.424988 -22.331701 0.039387
-275.841492 258.424988 -22.331701 0.047139
-262.358185 258.424988 -22.331701 0.056123
-248.874893 258.424988 -22.331701 0.064398
-235.391602 258.424988 -22.331701 0.075016
-221.908295 258.424988 -22.331701 0.076828
-208.424988 258.424988 -22.331701 0.083277
-194.941696 258.424988 -22.331701 0.088949
-181.458389 258.424988 -22.331701 0.101339
-167.975098 258.424988 -22.331701 0.112268
-154.491791 258.424988 -22.331701 0.132755
-141.008499 258.424988 -22.331701 0.157162
-127.525192 258.424988 -22.331701 0.187860
-114.041885 258.424988 -22.331701 0.209775
-100.558594 258.424988 -22.331701 0.257571
-87.075287 258.424988 -22.331701 0.299962
-73.591980 258.424988 -22.331701 0.330921
-60.108704 258.424988 -22.331701 0.367840
-46.625397 258.424988 -22.331701 0.377819
-33.142090 258.424988 -22.331701 0.389749
-19.658783 258.424988 -22.331701 0.396191
-6.175476 258.424988 -22.331701 0.374949
7.307800 258.424988 -22.331701 0.374991
20.791107 258.424988 -22.331701 0.327335
34.274414 258.424988 -22.331701 0.321718
47.757721 258.424988 -22.331701 0.337732
61.240997 258.424988 -22.331701 0.335733
74.724304 258.424988 -22.331701 0.308453
88.207611 258.424988 -22.331701 0.287447
101.690918 258.424988 -22.331701 0.289859
115.174225 258.424988 -22.331701 0.268964
128.657501 258.424988 -22.331701 0.255139
142.140808 258.424988 -22.331701 0.242323
155.624115 258.424988 -22.331701 0.221891
169.107422 258.424988 -22.331701 0.208750
182.590698 258.424988 -22.331701 0.203090
196.074036 258.424988 -22.331701 0.182449
209.557312 258.424988 -22.331701 0.176796
223.040588 258.424988 -22.331701 0.176005
236.523926 258.424988 -22.331701 0.166927
250.007202 258.424988 -22.331701 0.150896
263.490540 258.424988 -22.331701 0.136602
276.973816 258.424988 -22.331701 0.118014
290.457092 258.424988 -22.331701 0.091462
303.940430 258.424988 -22.331701 0.068320
317.423706 258.424988 -22.331701 0.000000
330.907043 258.424988 -22.331701 0.000000
344.390320 258.424988 -22.331701 0.000000
-343.257996 244.941696 -22.331701 0.000000
-329.774689 244.941696 -22.331701 0.000000
-316.291382 244.941696 -22.331701 0.024526
-302.808105 244.941696 -22.331701 0.031018
-289.324799 244.941696 -22.331701 0.041364
-275.841492 244.941696 -22.331701 0.049966
-262.358185 244.941696 -22.331701 0.056197
-248.874893 244.941696 -22.331701 0.067816
-235.391602 244.941696 -22.331701 0.074282
-221.908295 244.941696 -22.331701 0.082096
-208.424988 244.941696 -22.331701 0.089595
-194.941696 244.941696 -22.331701 0.097385
-181.458389 244.941696 -22.331701 0.110267
-167.975098 244.941696 -22.331701 0.119689
-154.491791 244.941696 -22.331701 0.148467
-141.008499 244.941696 -22.331701 0.168810
-127.525192 244.941696 -22.331701 0.195915
-114.041885 244.941696 -22.331701 0.231097
-100.558594 244.941696 -22.331701 0.266904
-87.075287 244.941696 -22.331701 0.326083
-73.591980 244.941696 -22.331701 0.369006
-60.108704 244.941696 -22.331701 0.374495
-46.625397 244.941696 -22.331701 0.395871
-33.142090 244.941696 -22.331701 0.391894
-19.658783 244.941696 -22.331701 0.409742
-6.175476 244.941696 -22.331701 0.394494
7.307800 244.941696 -22.331701 0.358137
20.791107 244.941696 -22.331701 0.327709
34.274414 244.941696 -22.331701 0.344039
47.757721 244.941696 -22.331701 0.000000
61.240997 244.941696 -22.331701 0.319706
74.724304 244.941696 -22.331701 0.297532
88.207611 244.941696 -22.331701 0.278311
101.690918 244.941696 -22.331701 0.270016
115.174225 244.941696 -22.331701 0.279736
128.657501 244.941696 -22.331701 0.254625
142.140808 244.941696 -22.331701 0.237949
155.624115 244.941696 -22.331701 0.222075
169.107422 244.941696 -22.331701 0.213361
182.590698 244.941696 -22.331701 0.191950
196.074036 244.941696 -22.331701 0.189697
209.557312 244.941696 -22.331701 0.191502
223.040588 244.941696 -22.331701 0.170495
236.523926 244.941696 -22.331701 0.158428
250.007202 244.941696 -22.331701 0.143436
263.490540 244.941696 -22.331701 0.127579
276.973816 244.941696 -22.331701 0.105722
290.457092 244.941696 -22.331701 0.083383
303.940430 244.941696 -22.331701 0.058678
317.423706 244.941696 -22.331701 0.041169
330.907043 244.941696 -22.331701 0.000000
344.390320 244.941696 -22.331701 0.000000
-343.257996 231.458389 -22.331701 0.000000
-329.774689 231.458389 -22.331701 0.000000
-316.291382 231.458389 -22.331701 0.024287
-302.808105 231.458389 -22.331701 0.030501
-289.324799 231.458389 -22.331701 0.040849
-275.841492 231.458389 -22.331701 0.050516
-262.358185 231.458389 -22.331701 0.061213
-248.874893 231.458389 -22.331701 0.074903
-235.391602 231.458389 -22.331701 0.082556
-221.908295 231.458389 -22.331701 0.090770
-208.424988 231.458389 -22.331701 0.096981
-194.941696 231.458389 -22.331701 0.105195
-181.458389 231.458389 -22.331701 0.119626
-167.975098 231.458389 -22.331701 0.135002
-154.491791 231.458389 -22.331701 0.156356
-141.008499 231.458389 -22.331701 0.177193
-127.525192 231.458389 -22.331701 0.214312
-114.041885 231.458389 -22.331701 0.248732
-100.558594 231.458389 -22.331701 0.302219
-87.075287 231.458389 -22.331701 0.347530
-73.591980 231.458389 -22.331701 0.391743
-60.108704 231.458389 -22.331701 0.388443
-46.625397 231.458389 -22.331701 0.403830
-33.142090 231.458389 -22.331701 0.418875
-19.658783 231.458389 -22.331701 0.415691
-6.175476 231.458389 -22.331701 0.400584
7.307800 231.458389 -22.331701 0.374167
20.791107 231.458389 -22.331701 0.361694
34.274414 231.458389 -22.331701 0.341590
47.757721 231.458389 -22.331701 0.323233
61.240997 231.458389 -22.331701 0.000000
74.724304 231.458389 -22.331701 0.308387
88.207611 231.458389 -22.331701 0.290949
101.690918 231.458389 -22.331701 0.285920
115.174225 231.458389 -22.331701 0.269644
128.657501 231.458389 -22.331701 0.000000
142.140808 231.458389 -22.331701 0.251450
155.624115 231.458389 -22.331701 0.233726
169.107422 231.458389 -22.331701 0.227735
182.590698 231.458389 -22.331701 0.202094
196.074036 231.458389 -22.331701 0.199046
209.557312 231.458389 -22.331701 0.178904
223.040588 231.458389 -22.331701 0.153967
236.523926 231.458389 -22.331701 0.149383
250.007202 231.458389 -22.331701 0.136280
263.490540 231.458389 -22.331701 0.118245
276.973816 231.458389 -22.331701 0.097863
290.457092 231.458389 -22.331701 0.070371
303.940430 231.458389 -22.331701 0.048203
317.423706 231.458389 -22.331701 0.032511
330.907043 231.458389 -22.331701 0.000000
344.390320 231.458389 -22.331701 0.000000
-343.257996 217.975098 -22.331701 0.000000
-329.774689 217.975098 -22.331701 0.000000
-316.291382 217.975098 -22.331701 0.024930
-302.808105 217.975098 -22.331701 0.029992
-289.324799 217.975098 -22.331701 0.040575
-275.841492 217.975098 -22.331701 0.050820
-262.358185 217.975098 -22.331701 0.063703
-248.874893 217.975098 -22.331701 0.076113
-235.391602 217.975098 -22.331701 0.084931
-221.908295 217.975098 -22.331701 0.095190
-208.424988 217.975098 -22.331701 0.103444
-194.941696 217.975098 -22.331701 0.116873
-181.458389 217.975098 -22.331701 0.133873
-167.975098 217.975098 -22.331701 0.152049
-154.491791 217.975098 -22.331701 0.177418
-141.008499 217.975098 -22.331701 0.192706
-127.525192 217.975098 -22.331701 0.244251
-114.041885 217.975098 -22.331701 0.288694
-100.558594 217.975098 -22.331701 0.336997
-87.075287 217.975098 -22.331701 0.380502
-73.591980 217.975098 -22.331701 0.409359
-60.108704 217.975098 -22.331701 0.416254
-46.625397 217.975098 -22.331701 0.433731
-33.142090 217.975098 -22.331701 0.432928
-19.658783 217.975098 -22.331701 0.429311
-6.175476 217.975098 -22.331701 0.419975
7.307800 217.975098 -22.331701 0.376229
20.791107 217.975098 -22.331701 0.367897
34.274414 217.975098 -22.331701 0.347805
47.757721 217.975098 -22.331701 0.318439
61.240997 217.975098 -22.331701 0.321714
74.724304 217.975098 -22.331701 0.305659
88.207611 217.975098 -22.331701 0.303992
101.690918 217.975098 -22.331701 0.292660
115.174225 217.975098 -22.331701 0.268674
128.657501 217.975098 -22.331701 0.260397
142.140808 217.975098 -22.331701 0.253193
155.624115 217.975098 -22.331701 0.243919
169.107422 217.975098 -22.331701 0.225950
182.590698 217.975098 -22.331701 0.197327
196.074036 217.975098 -22.331701 0.175070
209.557312 217.975098 -22.331701 0.157724
223.040588 217.975098 -22.331701 0.135001
236.523926 217.975098 -22.331701 0.129269
250.007202 217.975098 -22.331701 0.124764
263.490540 217.975098 -22.331701 0.110699
276.973816 217.975098 -22.331701 0.087177
290.457092 217.975098 -22.331701 0.059930
303.940430 217.975098 -22.331701 0.036443
317.423706 217.975098 -22.331701 0.024344
330.907043 217.975098 -22.331701 0.000000
344.390320 217.975098 -22.331701 0.000000
-343.257996 204.491791 -22.331701 0.000000
-329.774689 204.491791 -22.331701 0.000000
-316.291382 204.491791 -22.331701 0.023352
-302.808105 204.491791 -22.331701 0.029976
-289.324799 204.491791 -22.331701 0.041171
-275.841492 204.491791 -22.331701 0.051426
-262.358185 204.491791 -22.331701 0.061332
-248.874893 204.491791 -22.331701 0.074130
-235.391602 204.491791 -22.331701 0.087107
-221.908295 204.491791 -22.331701 0.099199
-208.424988 204.491791 -22.331701 0.113712
-194.941696 204.491791 -22.331701 0.132338
-181.458389 204.491791 -22.331701 0.153243
-167.975098 204.491791 -22.331701 0.172645
-154.491791 204.491791 -22.331701 0.194174
-141.008499 204.491791 -22.331701 0.239378
-127.525192 204.491791 -22.331701 0.271654
-114.041885 204.491791 -22.331701 0.323376
-100.558594 204.491791 -22.331701 0.369880
-87.075287 204.491791 -22.331701 0.420836
-73.591980 204.491791 -22.331701 0.439994
-60.108704 204.491791 -22.331701 0.453541
-46.625397 204.491791 -22.331701 0.463427
-33.142090 204.491791 -22.331701 0.459994
-19.658783 204.491791 -22.331701 0.433323
-6.175476 204.491791 -22.331701 0.412892
7.307800 204.491791 -22.331701 0.385230
20.791107 204.491791 -22.331701 0.352401
34.274414 204.491791 -22.331701 0.329714
47.757721 204.491791 -22.331701 0.308024
61.240997 204.491791 -22.331701 0.305259
74.724304 204.491791 -22.331701 0.286372
88.207611 204.491791 -22.331701 0.280559
101.690918 204.491791 -22.331701 0.294028
115.174225 204.491791 -22.331701 0.277158
128.657501 204.491791 -22.331701 0.261019
142.140808 204.491791 -22.331701 0.244549
155.624115 204.491791 -22.331701 0.231186
169.107422 204.491791 -22.331701 0.209069
182.590698 204.491791 -22.331701 0.181501
196.074036 204.491791 -22.331701 0.155387
209.557312 204.491791 -22.331701 0.129712
223.040588 204.491791 -22.331701 0.116193
236.523926 204.491791 -22.331701 0.109875
250.007202 204.491791 -22.331701 0.104242
263.490540 204.491791 -22.331701 0.091383
276.973816 204.491791 -22.331701 0.070141
290.457092 204.491791 -22.331701 0.051072
303.940430 204.491791 -22.331701 0.029935
317.423706 204.491791 -22.331701 0.019192
330.907043 204.491791 -22.331701 0.000000
344.390320 204.491791 -22.331701 0.000000
-343.257996 191.008499 -22.331701 0.000000
-329.774689 191.008499 -22.331701 0.000000
-316.291382 191.008499 -22.331701 0.022931
-302.808105 191.008499 -22.331701 0.029453
-289.324799 191.008499 -22.331701 0.039672
-275.841492 191.008499 -22.331701 0.050317
-262.358185 191.008499 -22.331701 0.059176
-248.874893 191.008499 -22.331701 0.073242
-235.391602 191.008499 -22.331701 0.088857
-221.908295 191.008499 -22.331701 0.104367
-208.424988 191.008499 -22.331701 0.120119
-194.941696 191.008499 -22.331701 0.146131
-181.458389 191.008499 -22.331701 0.170226
-167.975098 191.008499 -22.331701 0.209601
-154.491791 191.008499 -22.331701 0.243506
-141.008499 191.008499 -22.331701 0.288346
-127.525192 191.008499 -22.331701 0.349332
-114.041885 191.008499 -22.331701 0.382479
-100.558594 191.008499 -22.331701 0.432667
-87.075287 191.008499 -22.331701 0.487039
-73.591980 191.008499 -22.331701 0.515651
-60.108704 191.008499 -22.331701 0.516476
-46.625397 191.008499 -22.331701 0.488087
-33.142090 191.008499 -22.331701 0.456899
-19.658783 191.008499 -22.331701 0.429451
-6.175476 191.008499 -22.331701 0.398283
7.307800 191.008499 -22.331701 0.369132
20.791107 191.008499 -22.331701 0.341172
34.274414 191.008499 -22.331701 0.314102
47.757721 191.008499 -22.331701 0.313100
61.240997 191.008499 -22.331701 0.300151
74.724304 191.008499 -22.331701 0.289895
88.207611 191.008499 -22.331701 0.285597
101.690918 191.008499 -22.331701 0.263149
115.174225 191.008499 -22.331701 0.257866
128.657501 191.008499 -22.331701 0.243318
142.140808 191.008499 -22.331701 0.226417
155.624115 191.008499 -22.331701 0.199383
169.107422 191.008499 -22.331701 0.170539
182.590698 191.008499 -22.331701 0.151431
196.074036 191.008499 -22.331701 0.132561
209.557312 191.008499 -22.331701 0.115481
223.040588 191.008499 -22.331701 0.099202
236.523926 191.008499 -22.331701 0.091449
250.007202 191.008499 -22.331701 0.082842
263.490540 191.008499 -22.331701 0.071423
276.973816 191.008499 -22.331701 0.054960
290.457092 191.008499 -22.331701 0.039340
303.940430 191.008499 -22.331701 0.023480
317.423706 191.008499 -22.331701 0.016223
330.907043 191.008499 -22.331701 0.000000
344.390320 191.008499 -22.331701 0.000000
-343.257996 177.525192 -22.331701 0.000000
-329.774689 177.525192 -22.331701 0.000000
-316.291382 177.525192 -22.331701 0.022344
-302.808105 177.525192 -22.331701 0.028706
-289.324799 177.525192 -22.331701 0.038169
-275.841492 177.525192 -22.331701 0.050478
-262.358185 177.525192 -22.331701 0.061313
-248.874893 177.525192 -22.331701 0.077877
-235.391602 177.525192 -22.331701 0.096585
-221.908295 177.525192 -22.331701 0.110448
-208.424988 177.525192 -22.331701 0.135455
-194.941696 177.525192 -22.331701 0.162008
-181.458389 177.525192 -22.331701 0.188561
-167.975098 177.525192 -22.331701 0.243474
-154.491791 177.525192 -22.331701 0.301580
-141.008499 177.525192 -22.331701 0.360663
-127.525192 177.525192 -22.331701 0.404456
-114.041885 177.525192 -22.331701 0.449211
-100.558594 177.525192 -22.331701 0.488840
-87.075287 177.525192 -22.331701 0.518335
-73.591980 177.525192 -22.331701 0.537649
-60.108704 177.525192 -22.331701 0.549747
-46.625397 177.525192 -22.331701 0.510767
-33.142090 177.525192 -22.331701 0.472799
-19.658783 177.525192 -22.331701 0.440794
-6.175476 177.525192 -22.331701 0.399877
7.307800 177.525192 -22.331701 0.377716
20.791107 177.525192 -22.331701 0.347128
34.274414 177.525192 -22.331701 0.346940
47.757721 177.525192 -22.331701 0.353482
61.240997 177.525192 -22.331701 0.332734
74.724304 177.525192 -22.331701 0.303183
88.207611 177.525192 -22.331701 0.292609
101.690918 177.525192 -22.331701 0.269452
115.174225 177.525192 -22.331701 0.238129
128.657501 177.525192 -22.331701 0.213268
142.140808 177.525192 -22.331701 0.179974
155.624115 177.525192 -22.331701 0.156599
169.107422 177.525192 -22.331701 0.138843
182.590698 177.525192 -22.331701 0.120370
196.074036 177.525192 -22.331701 0.106042
209.557312 177.525192 -22.331701 0.094816
223.040588 177.525192 -22.331701 0.084965
236.523926 177.525192 -22.331701 0.074240
250.007202 177.525192 -22.331701 0.067328
263.490540 177.525192 -22.331701 0.056703
276.973816 177.525192 -22.331701 0.043614
290.457092 177.525192 -22.331701 0.031888
303.940430 177.525192 -22.331701 0.019879
317.423706 177.525192 -22.331701 0.012890
330.907043 177.525192 -22.331701 0.000000
344.390320 177.525192 -22.331701 0.000000
-343.257996 164.041885 -22.331701 0.000000
-329.774689 164.041885 -22.331701 0.000000
-316.291382 164.041885 -22.331701 0.021895
-302.808105 164.041885 -22.331701 0.028593
-289.324799 164.041885 -22.331701 0.039855
-275.841492 164.041885 -22.331701 0.052525
-262.358185 164.041885 -22.331701 0.064200
-248.874893 164.041885 -22.331701 0.081359
-235.391602 164.041885 -22.331701 0.094598
-221.908295 164.041885 -22.331701 0.120583
-208.424988 164.041885 -22.331701 0.152815
-194.941696 164.041885 -22.331701 0.188183
-181.458389 164.041885 -22.331701 0.230772
-167.975098 164.041885 -22.331701 0.285096
-154.491791 164.041885 -22.331701 0.371684
-141.008499 164.041885 -22.331701 0.442187
-127.525192 164.041885 -22.331701 0.479847
-114.041885 164.041885 -22.331701 0.510129
-100.558594 164.041885 -22.331701 0.564881
-87.075287 164.041885 -22.331701 0.567175
-73.591980 164.041885 -22.331701 0.557752
-60.108704 164.041885 -22.331701 0.573373
-46.625397 164.041885 -22.331701 0.543105
-33.142090 164.041885 -22.331701 0.490639
-19.658783 164.041885 -22.331701 0.452555
-6.175476 164.041885 -22.331701 0.423400
7.307800 164.041885 -22.331701 0.400624
20.791107 164.041885 -22.331701 0.380051
34.274414 164.041885 -22.331701 0.356698
47.757721 164.041885 -22.331701 0.348363
61.240997 164.041885 -22.331701 0.329361
74.724304 164.041885 -22.331701 0.313257
88.207611 164.041885 -22.331701 0.280079
101.690918 164.041885 -22.331701 0.242246
115.174225 164.041885 -22.331701 0.215334
128.657501 164.041885 -22.331701 0.181743
142.140808 164.041885 -22.331701 0.154959
155.624115 164.041885 -22.331701 0.132615
169.107422 164.041885 -22.331701 0.111421
182.590698 164.041885 -22.331701 0.092722
196.074036 164.041885 -22.331701 0.085461
209.557312 164.041885 -22.331701 0.075868
223.040588 164.041885 -22.331701 0.067588
236.523926 164.041885 -22.331701 0.058967
250.007202 164.041885 -22.331701 0.050958
263.490540 164.041885 -22.331701 0.043065
276.973816 164.041885 -22.331701 0.032972
290.457092 164.041885 -22.331701 0.024879
303.940430 164.041885 -22.331701 0.015367
317.423706 164.041885 -22.331701 0.010759
330.907043 164.041885 -22.331701 0.000000
344.390320 164.041885 -22.331701 0.000000
-343.257996 150.558594 -22.331701 0.000000
-329.774689 150.558594 -22.331701 0.000000
-316.291382 150.558594 -22.331701 0.023380
-302.808105 150.558594 -22.331701 0.029741
-289.324799 150.558594 -22.331701 0.040243
-275.841492 150.558594 -22.331701 0.053209
-262.358185 150.558594 -22.331701 0.064259
-248.874893 150.558594 -22.331701 0.080997
-235.391602 150.558594 -22.331701 0.106121
-221.908295 150.558594 -22.331701 0.134772
-208.424988 150.558594 -22.331701 0.165271
-194.941696 150.558594 -22.331701 0.213918
-181.458389 150.558594 -22.331701 0.263589
-167.975098 150.558594 -22.331701 0.329298
-154.491791 150.558594 -22.331701 0.429974
-141.008499 150.558594 -22.331701 0.496888
-127.525192 150.558594 -22.331701 0.535459
-114.041885 150.558594 -22.331701 0.570648
-100.558594 150.558594 -22.331701 0.592031
-87.075287 150.558594 -22.331701 0.574240
-73.591980 150.558594 -22.331701 0.597911
-60.108704 150.558594 -22.331701 0.576239
-46.625397 150.558594 -22.331701 0.560612
-33.142090 150.558594 -22.331701 0.502095
-19.658783 150.558594 -22.331701 0.471414
-6.175476 150.558594 -22.331701 0.434464
7.307800 150.558594 -22.331701 0.391437
20.791107 150.558594 -22.331701 0.373678
34.274414 150.558594 -22.331701 0.343451
47.757721 150.558594 -22.331701 0.347159
61.240997 150.558594 -22.331701 0.320873
74.724304 150.558594 -22.331701 0.291416
88.207611 150.558594 -22.331701 0.258953
101.690918 150.558594 -22.331701 0.231326
115.174225 150.558594 -22.331701 0.197309
128.657501 150.558594 -22.331701 0.158882
142.140808 150.558594 -22.331701 0.134163
155.624115 150.558594 -22.331701 0.113704
169.107422 150.558594 -22.331701 0.087924
182.590698 150.558594 -22.331701 0.074814
196.074036 150.558594 -22.331701 0.069845
209.557312 150.558594 -22.331701 0.061660
223.040588 150.558594 -22.331701 0.053689
236.523926 150.558594 -22.331701 0.042606
250.007202 150.558594 -22.331701 0.038794
263.490540 150.558594 -22.331701 0.032973
276.973816 150.558594 -22.331701 0.025062
290.457092 150.558594 -22.331701 0.018812
303.940430 150.558594 -22.331701 0.012502
317.423706 150.558594 -22.331701 0.009372
330.907043 150.558594 -22.331701 0.000000
344.390320 150.558594 -22.331701 0.000000
-343.257996 137.075287 -22.331701 0.000000
-329.774689 137.075287 -22.331701 0.000000
-316.291382 137.075287 -22.331701 0.026953
-302.808105 137.075287 -22.331701 0.033456
-289.324799 137.075287 -22.331701 0.043672
-275.841492 137.075287 -22.331701 0.060174
-262.358185 137.075287 -22.331701 0.074047
-248.874893 137.075287 -22.331701 0.093264
-235.391602 137.075287 -22.331701 0.118848
-221.908295 137.075287 -22.331701 0.163534
-208.424988 137.075287 -22.331701 0.197286
-194.941696 137.075287 -22.331701 0.250741
-181.458389 137.075287 -22.331701 0.316651
-167.975098 137.075287 -22.331701 0.419839
-154.491791 137.075287 -22.331701 0.488370
-141.008499 137.075287 -22.331701 0.554184
-127.525192 137.075287 -22.331701 0.591657
-114.041885 137.075287 -22.331701 0.640546
-100.558594 137.075287 -22.331701 0.655884
-87.075287 137.075287 -22.331701 0.636457
-73.591980 137.075287 -22.331701 0.615584
-60.108704 137.075287 -22.331701 0.591283
-46.625397 137.075287 -22.331701 0.542059
-33.142090 137.075287 -22.331701 0.506541
-19.658783 137.075287 -22.331701 0.455156
-6.175476 137.075287 -22.331701 0.403322
7.307800 137.075287 -22.331701 0.361908
20.791107 137.075287 -22.331701 0.341918
34.274414 137.075287 -22.331701 0.339066
47.757721 137.075287 -22.331701 0.329128
61.240997 137.075287 -22.331701 0.298716
74.724304 137.075287 -22.331701 0.263858
88.207611 137.075287 -22.331701 0.231125
101.690918 137.075287 -22.331701 0.195710
115.174225 137.075287 -22.331701 0.169789
128.657501 137.075287 -22.331701 0.139696
142.140808 137.075287 -22.331701 0.115472
155.624115 137.075287 -22.331701 0.097477
169.107422 137.075287 -22.331701 0.079603
182.590698 137.075287 -22.331701 0.064590
196.074036 137.075287 -22.331701 0.056038
209.557312 137.075287 -22.331701 0.048944
223.040588 137.075287 -22.331701 0.041512
236.523926 137.075287 -22.331701 0.034683
250.007202 137.075287 -22.331701 0.029718
263.490540 137.075287 -22.331701 0.024687
276.973816 137.075287 -22.331701 0.019558
290.457092 137.075287 -22.331701 0.014560
303.940430 137.075287 -22.331701 0.010068
317.423706 137.075287 -22.331701 0.007915
330.907043 137.075287 -22.331701 0.000000
344.390320 137.075287 -22.331701 0.000000
-343.257996 123.591980 -22.331701 0.000000
-329.774689 123.591980 -22.331701 0.000000
-316.291382 123.591980 -22.331701 0.031265
-302.808105 123.591980 -22.331701 0.037619
-289.324799 123.591980 -22.331701 0.050246
-275.841492 123.591980 -22.331701 0.064980
-262.358185 123.591980 -22.331701 0.084880
-248.874893 123.591980 -22.331701 0.105715
-235.391602 123.591980 -22.331701 0.145727
-221.908295 123.591980 -22.331701 0.191169
-208.424988 123.591980 -22.331701 0.240056
-194.941696 123.591980 -22.331701 0.301786
-181.458389 123.591980 -22.331701 0.387980
-167.975098 123.591980 -22.331701 0.485637
-154.491791 123.591980 -22.331701 0.536232
-141.008499 123.591980 -22.331701 0.587424
-127.525192 123.591980 -22.331701 0.646524
-114.041885 123.591980 -22.331701 0.691610
-100.558594 123.591980 -22.331701 0.716944
-87.075287 123.591980 -22.331701 0.649436
-73.591980 123.591980 -22.331701 0.628446
-60.108704 123.591980 -22.331701 0.616079
-46.625397 123.591980 -22.331701 0.546673
-33.142090 123.591980 -22.331701 0.482776
-19.658783 123.591980 -22.331701 0.429222
-6.175476 123.591980 -22.331701 0.395248
7.307800 123.591980 -22.331701 0.362803
20.791107 123.591980 -22.331701 0.340916
34.274414 123.591980 -22.331701 0.313909
47.757721 123.591980 -22.331701 0.310479
61.240997 123.591980 -22.331701 0.268468
74.724304 123.591980 -22.331701 0.236122
88.207611 123.591980 -22.331701 0.197772
101.690918 123.591980 -22.331701 0.167416
115.174225 123.591980 -22.331701 0.137941
128.657501 123.591980 -22.331701 0.117657
142.140808 123.591980 -22.331701 0.093621
155.624115 123.591980 -22.331701 0.078591
169.107422 123.591980 -22.331701 0.068079
182.590698 123.591980 -22.331701 0.055784
196.074036 123.591980 -22.331701 0.045401
209.557312 123.591980 -22.331701 0.037285
223.040588 123.591980 -22.331701 0.031648
236.523926 123.591980 -22.331701 0.026204
250.007202 123.591980 -22.331701 0.022108
263.490540 123.591980 -22.331701 0.018081
276.973816 123.591980 -22.331701 0.014306
290.457092 123.591980 -22.331701 0.011098
303.940430 123.591980 -22.331701 0.008108
317.423706 123.591980 -22.331701 0.006887
330.907043 123.591980 -22.331701 0.000000
344.390320 123.591980 -22.331701 0.000000
-343.257996 110.108704 -22.331701 0.000000
-329.774689 110.108704 -22.331701 0.000000
-316.291382 110.108704 -22.331701 0.035248
-302.808105 110.108704 -22.331701 0.041907
-289.324799 110.108704 -22.331701 0.053617
-275.841492 110.108704 -22.331701 0.071391
-262.358185 110.108704 -22.331701 0.092931
-248.874893 110.108704 -22.331701 0.122303
-235.391602 110.108704 -22.331701 0.160327
-221.908295 110.108704 -22.331701 0.207231
-208.424988 110.108704 -22.331701 0.274395
-194.941696 110.108704 -22.331701 0.351539
-181.458389 110.108704 -22.331701 0.444936
-167.975098 110.108704 -22.331701 0.515551
-154.491791 110.108704 -22.331701 0.587863
-141.008499 110.108704 -22.331701 0.650167
-127.525192 110.108704 -22.331701 0.711047
-114.041885 110.108704 -22.331701 0.704994
-100.558594 110.108704 -22.331701 0.707266
-87.075287 110.108704 -22.331701 0.711191
-73.591980 110.108704 -22.331701 0.681383
-60.108704 110.108704 -22.331701 0.605095
-46.625397 110.108704 -22.331701 0.554000
-33.142090 110.108704 -22.331701 0.469275
-19.658783 110.108704 -22.331701 0.405628
-6.175476 110.108704 -22.331701 0.384632
7.307800 110.108704 -22.331701 0.347729
20.791107 110.108704 -22.331701 0.311759
34.274414 110.108704 -22.331701 0.309376
47.757721 110.108704 -22.331701 0.281633
61.240997 110.108704 -22.331701 0.251479
74.724304 110.108704 -22.331701 0.211440
88.207611 110.108704 -22.331701 0.172222
101.690918 110.108704 -22.331701 0.142011
115.174225 110.108704 -22.331701 0.122200
128.657501 110.108704 -22.331701 0.099199
142.140808 110.108704 -22.331701 0.083182
155.624115 110.108704 -22.331701 0.068634
169.107422 110.108704 -22.331701 0.056836
182.590698 110.108704 -22.331701 0.045925
196.074036 110.108704 -22.331701 0.036896
209.557312 110.108704 -22.331701 0.029951
223.040588 110.108704 -22.331701 0.024523
236.523926 110.108704 -22.331701 0.019796
250.007202 110.108704 -22.331701 0.016287
263.490540 110.108704 -22.331701 0.013087
276.973816 110.108704 -22.331701 0.010302
290.457092 110.108704 -22.331701 0.008071
303.940430 110.108704 -22.331701 0.006565
317.423706 110.108704 -22.331701 0.005946
330.907043 110.108704 -22.331701 0.000000
344.390320 110.108704 -22.331701 0.000000
-343.257996 96.625397 -22.331701 0.000000
-329.774689 96.625397 -22.331701 0.000000
-316.291382 96.625397 -22.331701 0.038537
-302.808105 96.625397 -22.331701 0.044938
-289.324799 96.625397 -22.331701 0.057323
-275.841492 96.625397 -22.331701 0.079642
-262.358185 96.625397 -22.331701 0.103207
-248.874893 96.625397 -22.331701 0.133633
-235.391602 96.625397 -22.331701 0.167127
-221.908295 96.625397 -22.331701 0.228135
-208.424988 96.625397 -22.331701 0.293416
-194.941696 96.625397 -22.331701 0.402977
-181.458389 96.625397 -22.331701 0.464098
-167.975098 96.625397 -22.331701 0.561815
-154.491791 96.625397 -22.331701 0.669723
-141.008499 96.625397 -22.331701 0.698561
-127.525192 96.625397 -22.331701 0.731174
-114.041885 96.625397 -22.331701 0.742068
-100.558594 96.625397 -22.331701 0.736622
-87.075287 96.625397 -22.331701 0.702162
-73.591980 96.625397 -22.331701 0.662178
-60.108704 96.625397 -22.331701 0.619940
-46.625397 96.625397 -22.331701 0.550012
-33.142090 96.625397 -22.331701 0.482938
-19.658783 96.625397 -22.331701 0.444107
-6.175476 96.625397 -22.331701 0.403950
7.307800 96.625397 -22.331701 0.358297
20.791107 96.625397 -22.331701 0.328194
34.274414 96.625397 -22.331701 0.307990
47.757721 96.625397 -22.331701 0.273992
61.240997 96.625397 -22.331701 0.214431
74.724304 96.625397 -22.331701 0.173916
88.207611 96.625397 -22.331701 0.153901
101.690918 96.625397 -22.331701 0.126477
115.174225 96.625397 -22.331701 0.110193
128.657501 96.625397 -22.331701 0.092407
142.140808 96.625397 -22.331701 0.074971
155.624115 96.625397 -22.331701 0.059372
169.107422 96.625397 -22.331701 0.049478
182.590698 96.625397 -22.331701 0.038617
196.074036 96.625397 -22.331701 0.029872
209.557312 96.625397 -22.331701 0.024144
223.040588 96.625397 -22.331701 0.018221
236.523926 96.625397 -22.331701 0.014242
250.007202 96.625397 -22.331701 0.011892
263.490540 96.625397 -22.331701 0.009758
276.973816 96.625397 -22.331701 0.007770
290.457092 96.625397 -22.331701 0.006314
303.940430 96.625397 -22.331701 0.005431
317.423706 96.625397 -22.331701 0.005149
330.907043 96.625397 -22.331701 0.000000
344.390320 96.625397 -22.331701 0.000000
-343.257996 83.142090 -22.331701 0.000000
-329.774689 83.142090 -22.331701 0.000000
-316.291382 83.142090 -22.331701 0.042309
-302.808105 83.142090 -22.331701 0.048419
-289.324799 83.142090 -22.331701 0.063971
-275.841492 83.142090 -22.331701 0.085883
-262.358185 83.142090 -22.331701 0.110709
-248.874893 83.142090 -22.331701 0.143839
-235.391602 83.142090 -22.331701 0.192805
-221.908295 83.142090 -22.331701 0.258813
-208.424988 83.142090 -22.331701 0.323776
-194.941696 83.142090 -22.331701 0.427861
-181.458389 83.142090 -22.331701 0.513113
-167.975098 83.142090 -22.331701 0.596778
-154.491791 83.142090 -22.331701 0.674746
-141.008499 83.142090 -22.331701 0.725946
-127.525192 83.142090 -22.331701 0.767463
-114.041885 83.142090 -22.331701 0.753083
-100.558594 83.142090 -22.331701 0.728252
-87.075287 83.142090 -22.331701 0.705169
-73.591980 83.142090 -22.331701 0.653205
-60.108704 83.142090 -22.331701 0.601798
-46.625397 83.142090 -22.331701 0.517507
-33.142090 83.142090 -22.331701 0.497895
-19.658783 83.142090 -22.331701 0.465154
-6.175476 83.142090 -22.331701 0.404964
7.307800 83.142090 -22.331701 0.370480
20.791107 83.142090 -22.331701 0.357905
34.274414 83.142090 -22.331701 0.321333
47.757721 83.142090 -22.331701 0.271568
61.240997 83.142090 -22.331701 0.223202
74.724304 83.142090 -22.331701 0.171678
88.207611 83.142090 -22.331701 0.139520
101.690918 83.142090 -22.331701 0.118436
115.174225 83.142090 -22.331701 0.102061
128.657501 83.142090 -22.331701 0.081749
142.140808 83.142090 -22.331701 0.066613
155.624115 83.142090 -22.331701 0.050626
169.107422 83.142090 -22.331701 0.042403
182.590698 83.142090 -22.331701 0.034270
196.074036 83.142090 -22.331701 0.025901
209.557312 83.142090 -22.331701 0.019275
223.040588 83.142090 -22.331701 0.014140
236.523926 83.142090 -22.331701 0.011082
250.007202 83.142090 -22.331701 0.009794
263.490540 83.142090 -22.331701 0.008066
276.973816 83.142090 -22.331701 0.006673
290.457092 83.142090 -22.331701 0.005611
303.940430 83.142090 -22.331701 0.005106
317.423706 83.142090 -22.331701 0.004892
330.907043 83.142090 -22.331701 0.000000
344.390320 83.142090 -22.331701 0.000000
-343.257996 69.658783 -22.331701 0.000000
-329.774689 69.658783 -22.331701 0.000000
-316.291382 69.658783 -22.331701 0.046059
-302.808105 69.658783 -22.331701 0.054067
-289.324799 69.658783 -22.331701 0.073666
-275.841492 69.658783 -22.331701 0.099066
-262.358185 69.658783 -22.331701 0.127008
-248.874893 69.658783 -22.331701 0.157867
-235.391602 69.658783 -22.331701 0.206516
-221.908295 69.658783 -22.331701 0.281799
-208.424988 69.658783 -22.331701 0.382940
-194.941696 69.658783 -22.331701 0.457365
-181.458389 69.658783 -22.331701 0.563671
-167.975098 69.658783 -22.331701 0.652857
-154.491791 69.658783 -22.331701 0.729338
-141.008499 69.658783 -22.331701 0.765650
-127.525192 69.658783 -22.331701 0.795729
-114.041885 69.658783 -22.331701 0.779286
-100.558594 69.658783 -22.331701 0.734549
-87.075287 69.658783 -22.331701 0.684825
-73.591980 69.658783 -22.331701 0.618678
-60.108704 69.658783 -22.331701 0.590396
-46.625397 69.658783 -22.331701 0.527221
-33.142090 69.658783 -22.331701 0.492798
-19.658783 69.658783 -22.331701 0.448413
-6.175476 69.658783 -22.331701 0.426558
7.307800 69.658783 -22.331701 0.400233
20.791107 69.658783 -22.331701 0.392377
34.274414 69.658783 -22.331701 0.347350
47.757721 69.658783 -22.331701 0.295953
61.240997 69.658783 -22.331701 0.243412
74.724304 69.658783 -22.331701 0.190169
88.207611 69.658783 -22.331701 0.139943
101.690918 69.658783 -22.331701 0.115490
115.174225 69.658783 -22.331701 0.097199
128.657501 69.658783 -22.331701 0.076428
142.140808 69.658783 -22.331701 0.062139
155.624115 69.658783 -22.331701 0.051593
169.107422 69.658783 -22.331701 0.041990
182.590698 69.658783 -22.331701 0.034090
196.074036 69.658783 -22.331701 0.024114
209.557312 69.658783 -22.331701 0.017964
223.040588 69.658783 -22.331701 0.013486
236.523926 69.658783 -22.331701 0.010665
250.007202 69.658783 -22.331701 0.008604
263.490540 69.658783 -22.331701 0.007465
276.973816 69.658783 -22.331701 0.006284
290.457092 69.658783 -22.331701 0.005249
303.940430 69.658783 -22.331701 0.004794
317.423706 69.658783 -22.331701 0.005006
330.907043 69.658783 -22.331701 0.000000
344.390320 69.658783 -22.331701 0.000000
-343.257996 56.175476 -22.331701 0.000000
-329.774689 56.175476 -22.331701 0.000000
-316.291382 56.175476 -22.331701 0.050722
-302.808105 56.175476 -22.331701 0.059454
-289.324799 56.175476 -22.331701 0.081658
-275.841492 56.175476 -22.331701 0.109983
-262.358185 56.175476 -22.331701 0.139883
-248.874893 56.175476 -22.331701 0.176875
-235.391602 56.175476 -22.331701 0.244351
-221.908295 56.175476 -22.331701 0.327736
-208.424988 56.175476 -22.331701 0.414858
-194.941696 56.175476 -22.331701 0.508962
-181.458389 56.175476 -22.331701 0.629891
-167.975098 56.175476 -22.331701 0.713061
-154.491791 56.175476 -22.331701 0.792517
-141.008499 56.175476 -22.331701 0.819482
-127.525192 56.175476 -22.331701 0.799044
-114.041885 56.175476 -22.331701 0.722875
-100.558594 56.175476 -22.331701 0.693125
-87.075287 56.175476 -22.331701 0.614330
-73.591980 56.175476 -22.331701 0.578653
-60.108704 56.175476 -22.331701 0.538891
-46.625397 56.175476 -22.331701 0.501192
-33.142090 56.175476 -22.331701 0.478669
-19.658783 56.175476 -22.331701 0.441960
-6.175476 56.175476 -22.331701 0.441035
7.307800 56.175476 -22.331701 0.427932
20.791107 56.175476 -22.331701 0.430806
34.274414 56.175476 -22.331701 0.393308
47.757721 56.175476 -22.331701 0.318493
61.240997 56.175476 -22.331701 0.260634
74.724304 56.175476 -22.331701 0.207127
88.207611 56.175476 -22.331701 0.164647
101.690918 56.175476 -22.331701 0.135594
115.174225 56.175476 -22.331701 0.104040
128.657501 56.175476 -22.331701 0.089109
142.140808 56.175476 -22.331701 0.076803
155.624115 56.175476 -22.331701 0.065305
169.107422 56.175476 -22.331701 0.052423
182.590698 56.175476 -22.331701 0.038759
196.074036 56.175476 -22.331701 0.027411
209.557312 56.175476 -22.331701 0.020497
223.040588 56.175476 -22.331701 0.015623
236.523926 56.175476 -22.331701 0.011864
250.007202 56.175476 -22.331701 0.009079
263.490540 56.175476 -22.331701 0.007690
276.973816 56.175476 -22.331701 0.006757
290.457092 56.175476 -22.331701 0.005631
303.940430 56.175476 -22.331701 0.005241
317.423706 56.175476 -22.331701 0.005300
330.907043 56.175476 -22.331701 0.000000
344.390320 56.175476 -22.331701 0.000000
-343.257996 42.692200 -22.331701 0.000000
-329.774689 42.692200 -22.331701 0.000000
-316.291382 42.692200 -22.331701 0.054281
-302.808105 42.692200 -22.331701 0.067938
-289.324799 42.692200 -22.331701 0.087542
-275.841492 42.692200 -22.331701 0.119366
-262.358185 42.692200 -22.331701 0.149811
-248.874893 42.692200 -22.331701 0.197280
-235.391602 42.692200 -22.331701 0.275484
-221.908295 42.692200 -22.331701 0.346874
-208.424988 42.692200 -22.331701 0.457855
-194.941696 42.692200 -22.331701 0.566031
-181.458389 42.692200 -22.331701 0.689344
-167.975098 42.692200 -22.331701 0.772197
-154.491791 42.692200 -22.331701 0.822936
-141.008499 42.692200 -22.331701 0.815076
-127.525192 42.692200 -22.331701 0.747802
-114.041885 42.692200 -22.331701 0.676396
-100.558594 42.692200 -22.331701 0.634510
-87.075287 42.692200 -22.331701 0.565506
-73.591980 42.692200 -22.331701 0.548001
-60.108704 42.692200 -22.331701 0.534606
-46.625397 42.692200 -22.331701 0.498732
-33.142090 42.692200 -22.331701 0.472235
-19.658783 42.692200 -22.331701 0.429050
-6.175476 42.692200 -22.331701 0.420717
7.307800 42.692200 -22.331701 0.436601
20.791107 42.692200 -22.331701 0.431026
34.274414 42.692200 -22.331701 0.420766
47.757721 42.692200 -22.331701 0.359299
61.240997 42.692200 -22.331701 0.294115
74.724304 42.692200 -22.331701 0.235564
88.207611 42.692200 -22.331701 0.201899
101.690918 42.692200 -22.331701 0.166714
115.174225 42.692200 -22.331701 0.138419
128.657501 42.692200 -22.331701 0.110757
142.140808 42.692200 -22.331701 0.098040
155.624115 42.692200 -22.331701 0.084230
169.107422 42.692200 -22.331701 0.065396
182.590698 42.692200 -22.331701 0.050712
196.074036 42.692200 -22.331701 0.035843
209.557312 42.692200 -22.331701 0.025959
223.040588 42.692200 -22.331701 0.018548
236.523926 42.692200 -22.331701 0.013713
250.007202 42.692200 -22.331701 0.010264
263.490540 42.692200 -22.331701 0.008612
276.973816 42.692200 -22.331701 0.007092
290.457092 42.692200 -22.331701 0.005938
303.940430 42.692200 -22.331701 0.005773
317.423706 42.692200 -22.331701 0.005873
330.907043 42.692200 -22.331701 0.000000
344.390320 42.692200 -22.331701 0.000000
-343.257996 29.208893 -22.331701 0.000000
-329.774689 29.208893 -22.331701 0.000000
-316.291382 29.208893 -22.331701 0.059682
-302.808105 29.208893 -22.331701 0.072062
-289.324799 29.208893 -22.331701 0.094230
-275.841492 29.208893 -22.331701 0.127875
-262.358185 29.208893 -22.331701 0.164957
-248.874893 29.208893 -22.331701 0.229036
-235.391602 29.208893 -22.331701 0.302965
-221.908295 29.208893 -22.331701 0.399237
-208.424988 29.208893 -22.331701 0.520505
-194.941696 29.208893 -22.331701 0.642699
-181.458389 29.208893 -22.331701 0.733811
-167.975098 29.208893 -22.331701 0.800697
-154.491791 29.208893 -22.331701 0.801664
-141.008499 29.208893 -22.331701 0.753543
-127.525192 29.208893 -22.331701 0.682923
-114.041885 29.208893 -22.331701 0.613731
-100.558594 29.208893 -22.331701 0.564704
-87.075287 29.208893 -22.331701 0.512461
-73.591980 29.208893 -22.331701 0.511338
-60.108704 29.208893 -22.331701 0.513999
-46.625397 29.208893 -22.331701 0.481983
-33.142090 29.208893 -22.331701 0.469413
-19.658783 29.208893 -22.331701 0.427172
-6.175476 29.208893 -22.331701 0.419984
7.307800 29.208893 -22.331701 0.428679
20.791107 29.208893 -22.331701 0.427730
34.274414 29.208893 -22.331701 0.400139
47.757721 29.208893 -22.331701 0.373976
61.240997 29.208893 -22.331701 0.322321
74.724304 29.208893 -22.331701 0.269178
88.207611 29.208893 -22.331701 0.230468
101.690918 29.208893 -22.331701 0.198908
115.174225 29.208893 -22.331701 0.175142
128.657501 29.208893 -22.331701 0.148398
142.140808 29.208893 -22.331701 0.129729
155.624115 29.208893 -22.331701 0.116859
169.107422 29.208893 -22.331701 0.089163
182.590698 29.208893 -22.331701 0.068248
196.074036 29.208893 -22.331701 0.048995
209.557312 29.208893 -22.331701 0.032591
223.040588 29.208893 -22.331701 0.023595
236.523926 29.208893 -22.331701 0.017018
250.007202 29.208893 -22.331701 0.012472
263.490540 29.208893 -22.331701 0.009673
276.973816 29.208893 -22.331701 0.007399
290.457092 29.208893 -22.331701 0.006137
303.940430 29.208893 -22.331701 0.005779
317.423706 29.208893 -22.331701 0.006124
330.907043 29.208893 -22.331701 0.000000
344.390320 29.208893 -22.331701 0.000000
-343.257996 15.725586 -22.331701 0.000000
-329.774689 15.725586 -22.331701 0.000000
-316.291382 15.725586 -22.331701 0.061450
-302.808105 15.725586 -22.331701 0.075508
-289.324799 15.725586 -22.331701 0.102742
-275.841492 15.725586 -22.331701 0.136526
-262.358185 15.725586 -22.331701 0.178921
-248.874893 15.725586 -22.331701 0.253982
-235.391602 15.725586 -22.331701 0.332797
-221.908295 15.725586 -22.331701 0.456775
-208.424988 15.725586 -22.331701 0.561810
-194.941696 15.725586 -22.331701 0.663230
-181.458389 15.725586 -22.331701 0.745500
-167.975098 15.725586 -22.331701 0.801606
-154.491791 15.725586 -22.331701 0.796970
-141.008499 15.725586 -22.331701 0.719096
-127.525192 15.725586 -22.331701 0.652988
-114.041885 15.725586 -22.331701 0.570970
-100.558594 15.725586 -22.331701 0.510228
-87.075287 15.725586 -22.331701 0.471732
-73.591980 15.725586 -22.331701 0.451389
-60.108704 15.725586 -22.331701 0.463215
-46.625397 15.725586 -22.331701 0.481398
-33.142090 15.725586 -22.331701 0.426220
-19.658783 15.725586 -22.331701 0.399168
-6.175476 15.725586 -22.331701 0.409971
7.307800 15.725586 -22.331701 0.422047
20.791107 15.725586 -22.331701 0.407705
34.274414 15.725586 -22.331701 0.389157
47.757721 15.725586 -22.331701 0.366551
61.240997 15.725586 -22.331701 0.321794
74.724304 15.725586 -22.331701 0.280035
88.207611 15.725586 -22.331701 0.240229
101.690918 15.725586 -22.331701 0.215301
115.174225 15.725586 -22.331701 0.198866
128.657501 15.725586 -22.331701 0.175076
142.140808 15.725586 -22.331701 0.167265
155.624115 15.725586 -22.331701 0.147137
169.107422 15.725586 -22.331701 0.119071
182.590698 15.725586 -22.331701 0.089906
196.074036 15.725586 -22.331701 0.065732
209.557312 15.725586 -22.331701 0.043769
223.040588 15.725586 -22.331701 0.030930
236.523926 15.725586 -22.331701 0.021086
250.007202 15.725586 -22.331701 0.015490
263.490540 15.725586 -22.331701 0.011922
276.973816 15.725586 -22.331701 0.008880
290.457092 15.725586 -22.331701 0.006870
303.940430 15.725586 -22.331701 0.005922
317.423706 15.725586 -22.331701 0.005993
330.907043 15.725586 -22.331701 0.000000
344.390320 15.725586 -22.331701 0.000000
-343.257996 2.242279 -22.331701 0.000000
-329.774689 2.242279 -22.331701 0.000000
-316.291382 2.242279 -22.331701 0.064974
-302.808105 2.242279 -22.331701 0.083201
-289.324799 2.242279 -22.331701 0.108172
-275.841492 2.242279 -22.331701 0.150787
-262.358185 2.242279 -22.331701 0.197556
-248.874893 2.242279 -22.331701 0.274712
-235.391602 2.242279 -22.331701 0.352620
-221.908295 2.242279 -22.331701 0.448873
-208.424988 2.242279 -22.331701 0.573674
-194.941696 2.242279 -22.331701 0.685945
-181.458389 2.242279 -22.331701 0.763139
-167.975098 2.242279 -22.331701 0.748169
-154.491791 2.242279 -22.331701 0.733069
-141.008499 2.242279 -22.331701 0.684978
-127.525192 2.242279 -22.331701 0.618196
-114.041885 2.242279 -22.331701 0.584594
-100.558594 2.242279 -22.331701 0.479821
-87.075287 2.242279 -22.331701 0.439649
-73.591980 2.242279 -22.331701 0.417803
-60.108704 2.242279 -22.331701 0.401429
-46.625397 2.242279 -22.331701 0.424200
-33.142090 2.242279 -22.331701 0.407121
-19.658783 2.242279 -22.331701 0.387765
-6.175476 2.242279 -22.331701 0.396023
7.307800 2.242279 -22.331701 0.395764
20.791107 2.242279 -22.331701 0.397281
34.274414 2.242279 -22.331701 0.373849
47.757721 2.242279 -22.331701 0.345979
61.240997 2.242279 -22.331701 0.306824
74.724304 2.242279 -22.331701 0.272235
88.207611 2.242279 -22.331701 0.249190
101.690918 2.242279 -22.331701 0.211821
115.174225 2.242279 -22.331701 0.200971
128.657501 2.242279 -22.331701 0.187334
142.140808 2.242279 -22.331701 0.176386
155.624115 2.242279 -22.331701 0.172194
169.107422 2.242279 -22.331701 0.143384
182.590698 2.242279 -22.331701 0.113664
196.074036 2.242279 -22.331701 0.083491
209.557312 2.242279 -22.331701 0.057535
223.040588 2.242279 -22.331701 0.037922
236.523926 2.242279 -22.331701 0.026036
250.007202 2.242279 -22.331701 0.018396
263.490540 2.242279 -22.331701 0.013211
276.973816 2.242279 -22.331701 0.009794
290.457092 2.242279 -22.331701 0.007439
303.940430 2.242279 -22.331701 0.006014
317.423706 2.242279 -22.331701 0.005717
330.907043 2.242279 -22.331701 0.000000
344.390320 2.242279 -22.331701 0.000000
-343.257996 -11.240997 -22.331701 0.000000
-329.774689 -11.240997 -22.331701 0.000000
-316.291382 -11.240997 -22.331701 0.069831
-302.808105 -11.240997 -22.331701 0.084747
-289.324799 -11.240997 -22.331701 0.107238
-275.841492 -11.240997 -22.331701 0.151239
-262.358185 -11.240997 -22.331701 0.202983
-248.874893 -11.240997 -22.331701 0.284811
-235.391602 -11.240997 -22.331701 0.375237
-221.908295 -11.240997 -22.331701 0.484374
-208.424988 -11.240997 -22.331701 0.608081
-194.941696 -11.240997 -22.331701 0.735230
-181.458389 -11.240997 -22.331701 0.750354
-167.975098 -11.240997 -22.331701 0.744974
-154.491791 -11.240997 -22.331701 0.702710
-141.008499 -11.240997 -22.331701 0.648239
-127.525192 -11.240997 -22.331701 0.594039
-114.041885 -11.240997 -22.331701 0.530024
-100.558594 -11.240997 -22.331701 0.458903
-87.075287 -11.240997 -22.331701 0.394738
-73.591980 -11.240997 -22.331701 0.370528
-60.108704 -11.240997 -22.331701 0.363151
-46.625397 -11.240997 -22.331701 0.366518
-33.142090 -11.240997 -22.331701 0.374553
-19.658783 -11.240997 -22.331701 0.377892
-6.175476 -11.240997 -22.331701 0.362551
7.307800 -11.240997 -22.331701 0.362616
20.791107 -11.240997 -22.331701 0.371149
34.274414 -11.240997 -22.331701 0.347501
47.757721 -11.240997 -22.331701 0.305524
61.240997 -11.240997 -22.331701 0.271856
74.724304 -11.240997 -22.331701 0.247572
88.207611 -11.240997 -22.331701 0.213538
101.690918 -11.240997 -22.331701 0.193772
115.174225 -11.240997 -22.331701 0.184947
128.657501 -11.240997 -22.331701 0.186827
142.140808 -11.240997 -22.331701 0.177105
155.624115 -11.240997 -22.331701 0.170771
169.107422 -11.240997 -22.331701 0.164757
182.590698 -11.240997 -22.331701 0.140162
196.074036 -11.240997 -22.331701 0.108371
209.557312 -11.240997 -22.331701 0.073892
223.040588 -11.240997 -22.331701 0.048248
236.523926 -11.240997 -22.331701 0.030275
250.007202 -11.240997 -22.331701 0.021264
263.490540 -11.240997 -22.331701 0.014724
276.973816 -11.240997 -22.331701 0.010491
290.457092 -11.240997 -22.331701 0.008018
303.940430 -11.240997 -22.331701 0.006598
317.423706 -11.240997 -22.331701 0.006081
330.907043 -11.240997 -22.331701 0.000000
344.390320 -11.240997 -22.331701 0.000000
-343.257996 -24.724304 -22.331701 0.000000
-329.774689 -24.724304 -22.331701 0.000000
-316.291382 -24.724304 -22.331701 0.074923
-302.808105 -24.724304 -22.331701 0.085158
-289.324799 -24.724304 -22.331701 0.110002
-275.841492 -24.724304 -22.331701 0.156604
-262.358185 -24.724304 -22.331701 0.211187
-248.874893 -24.724304 -22.331701 0.291454
-235.391602 -24.724304 -22.331701 0.397872
-221.908295 -24.724304 -22.331701 0.513833
-208.424988 -24.724304 -22.331701 0.614275
-194.941696 -24.724304 -22.331701 0.726060
-181.458389 -24.724304 -22.331701 0.752144
-167.975098 -24.724304 -22.331701 0.702264
-154.491791 -24.724304 -22.331701 0.685566
-141.008499 -24.724304 -22.331701 0.640385
-127.525192 -24.724304 -22.331701 0.584364
-114.041885 -24.724304 -22.331701 0.520843
-100.558594 -24.724304 -22.331701 0.468497
-87.075287 -24.724304 -22.331701 0.407167
-73.591980 -24.724304 -22.331701 0.377740
-60.108704 -24.724304 -22.331701 0.346245
-46.625397 -24.724304 -22.331701 0.000000
-33.142090 -24.724304 -22.331701 0.341547
-19.658783 -24.724304 -22.331701 0.334023
-6.175476 -24.724304 -22.331701 0.329273
7.307800 -24.724304 -22.331701 0.326929
20.791107 -24.724304 -22.331701 0.321970
34.274414 -24.724304 -22.331701 0.304725
47.757721 -24.724304 -22.331701 0.263944
61.240997 -24.724304 -22.331701 0.212003
74.724304 -24.724304 -22.331701 0.195075
88.207611 -24.724304 -22.331701 0.170525
101.690918 -24.724304 -22.331701 0.163726
115.174225 -24.724304 -22.331701 0.153837
128.657501 -24.724304 -22.331701 0.165259
142.140808 -24.724304 -22.331701 0.170723
155.624115 -24.724304 -22.331701 0.180892
169.107422 -24.724304 -22.331701 0.176198
182.590698 -24.724304 -22.331701 0.158169
196.074036 -24.724304 -22.331701 0.126196
209.557312 -24.724304 -22.331701 0.086505
223.040588 -24.724304 -22.331701 0.059357
236.523926 -24.724304 -22.331701 0.037871
250.007202 -24.724304 -22.331701 0.023640
263.490540 -24.724304 -22.331701 0.016262
276.973816 -24.724304 -22.331701 0.012021
290.457092 -24.724304 -22.331701 0.008889
303.940430 -24.724304 -22.331701 0.007298
317.423706 -24.724304 -22.331701 0.006471
330.907043 -24.724304 -22.331701 0.000000
344.390320 -24.724304 -22.331701 0.000000
-343.257996 -38.207611 -22.331701 0.000000
-329.774689 -38.207611 -22.331701 0.000000
-316.291382 -38.207611 -22.331701 0.078103
-302.808105 -38.207611 -22.331701 0.098131
-289.324799 -38.207611 -22.331701 0.131530
-275.841492 -38.207611 -22.331701 0.171816
-262.358185 -38.207611 -22.331701 0.243529
-248.874893 -38.207611 -22.331701 0.340142
-235.391602 -38.207611 -22.331701 0.469504
-221.908295 -38.207611 -22.331701 0.582765
-208.424988 -38.207611 -22.331701 0.636662
-194.941696 -38.207611 -22.331701 0.724343
-181.458389 -38.207611 -22.331701 0.743202
-167.975098 -38.207611 -22.331701 0.719702
-154.491791 -38.207611 -22.331701 0.669765
-141.008499 -38.207611 -22.331701 0.630965
-127.525192 -38.207611 -22.331701 0.592229
-114.041885 -38.207611 -22.331701 0.549256
-100.558594 -38.207611 -22.331701 0.490434
-87.075287 -38.207611 -22.331701 0.446162
-73.591980 -38.207611 -22.331701 0.417938
-60.108704 -38.207611 -22.331701 0.375141
-46.625397 -38.207611 -22.331701 0.344283
-33.142090 -38.207611 -22.331701 0.346771
-19.658783 -38.207611 -22.331701 0.339270
-6.175476 -38.207611 -22.331701 0.317767
7.307800 -38.207611 -22.331701 0.289309
20.791107 -38.207611 -22.331701 0.278890
34.274414 -38.207611 -22.331701 0.259566
47.757721 -38.207611 -22.331701 0.215774
61.240997 -38.207611 -22.331701 0.171847
74.724304 -38.207611 -22.331701 0.146293
88.207611 -38.207611 -22.331701 0.137519
101.690918 -38.207611 -22.331701 0.125380
115.174225 -38.207611 -22.331701 0.131122
128.657501 -38.207611 -22.331701 0.146452
142.140808 -38.207611 -22.331701 0.160588
155.624115 -38.207611 -22.331701 0.182915
169.107422 -38.207611 -22.331701 0.193615
182.590698 -38.207611 -22.331701 0.179082
196.074036 -38.207611 -22.331701 0.143710
209.557312 -38.207611 -22.331701 0.104477
223.040588 -38.207611 -22.331701 0.069375
236.523926 -38.207611 -22.331701 0.043578
250.007202 -38.207611 -22.331701 0.026155
263.490540 -38.207611 -22.331701 0.018498
276.973816 -38.207611 -22.331701 0.013355
290.457092 -38.207611 -22.331701 0.010025
303.940430 -38.207611 -22.331701 0.008115
317.423706 -38.207611 -22.331701 0.007691
330.907043 -38.207611 -22.331701 0.000000
344.390320 -38.207611 -22.331701 0.000000
-343.257996 -51.690918 -22.331701 0.000000
-329.774689 -51.690918 -22.331701 0.000000
-316.291382 -51.690918 -22.331701 0.000000
-302.808105 -51.690918 -22.331701 0.107923
-289.324799 -51.690918 -22.331701 0.145253
-275.841492 -51.690918 -22.331701 0.196676
-262.358185 -51.690918 -22.331701 0.266080
-248.874893 -51.690918 -22.331701 0.357805
-235.391602 -51.690918 -22.331701 0.485385
-221.908295 -51.690918 -22.331701 0.583332
-208.424988 -51.690918 -22.331701 0.666570
-194.941696 -51.690918 -22.331701 0.733361
-181.458389 -51.690918 -22.331701 0.763859
-167.975098 -51.690918 -22.331701 0.736282
-154.491791 -51.690918 -22.331701 0.643061
-141.008499 -51.690918 -22.331701 0.608625
-127.525192 -51.690918 -22.331701 0.602649
-114.041885 -51.690918 -22.331701 0.570383
-100.558594 -51.690918 -22.331701 0.503844
-87.075287 -51.690918 -22.331701 0.443681
-73.591980 -51.690918 -22.331701 0.412973
-60.108704 -51.690918 -22.331701 0.377594
-46.625397 -51.690918 -22.331701 0.346305
-33.142090 -51.690918 -22.331701 0.347572
-19.658783 -51.690918 -22.331701 0.327509
-6.175476 -51.690918 -22.331701 0.301741
7.307800 -51.690918 -22.331701 0.278512
20.791107 -51.690918 -22.331701 0.244501
34.274414 -51.690918 -22.331701 0.225002
47.757721 -51.690918 -22.331701 0.176994
61.240997 -51.690918 -22.331701 0.143195
74.724304 -51.690918 -22.331701 0.126561
88.207611 -51.690918 -22.331701 0.112207
101.690918 -51.690918 -22.331701 0.108031
115.174225 -51.690918 -22.331701 0.114183
128.657501 -51.690918 -22.331701 0.127048
142.140808 -51.690918 -22.331701 0.148423
155.624115 -51.690918 -22.331701 0.173722
169.107422 -51.690918 -22.331701 0.194043
182.590698 -51.690918 -22.331701 0.197522
196.074036 -51.690918 -22.331701 0.160350
209.557312 -51.690918 -22.331701 0.119453
223.040588 -51.690918 -22.331701 0.077528
236.523926 -51.690918 -22.331701 0.051517
250.007202 -51.690918 -22.331701 0.030739
263.490540 -51.690918 -22.331701 0.019674
276.973816 -51.690918 -22.331701 0.014882
290.457092 -51.690918 -22.331701 0.011585
303.940430 -51.690918 -22.331701 0.009299
317.423706 -51.690918 -22.331701 0.009254
330.907043 -51.690918 -22.331701 0.000000
344.390320 -51.690918 -22.331701 0.000000
-343.257996 -65.174225 -22.331701 0.000000
-329.774689 -65.174225 -22.331701 0.000000
-316.291382 -65.174225 -22.331701 0.000000
-302.808105 -65.174225 -22.331701 0.000000
-289.324799 -65.174225 -22.331701 0.165900
-275.841492 -65.174225 -22.331701 0.000000
-262.358185 -65.174225 -22.331701 0.000000
-248.874893 -65.174225 -22.331701 0.000000
-235.391602 -65.174225 -22.331701 0.000000
-221.908295 -65.174225 -22.331701 0.585379
-208.424988 -65.174225 -22.331701 0.678905
-194.941696 -65.174225 -22.331701 0.741829
-181.458389 -65.174225 -22.331701 0.759484
-167.975098 -65.174225 -22.331701 0.737572
-154.491791 -65.174225 -22.331701 0.691198
-141.008499 -65.174225 -22.331701 0.625374
-127.525192 -65.174225 -22.331701 0.641186
-114.041885 -65.174225 -22.331701 0.603810
-100.558594 -65.174225 -22.331701 0.550806
-87.075287 -65.174225 -22.331701 0.496451
-73.591980 -65.174225 -22.331701 0.430495
-60.108704 -65.174225 -22.331701 0.365076
-46.625397 -65.174225 -22.331701 0.361258
-33.142090 -65.174225 -22.331701 0.359248
-19.658783 -65.174225 -22.331701 0.343302
-6.175476 -65.174225 -22.331701 0.289411
7.307800 -65.174225 -22.331701 0.270345
20.791107 -65.174225 -22.331701 0.242808
34.274414 -65.174225 -22.331701 0.197230
47.757721 -65.174225 -22.331701 0.156912
61.240997 -65.174225 -22.331701 0.120775
74.724304 -65.174225 -22.331701 0.103130
88.207611 -65.174225 -22.331701 0.097545
101.690918 -65.174225 -22.331701 0.095256
115.174225 -65.174225 -22.331701 0.093924
128.657501 -65.174225 -22.331701 0.109585
142.140808 -65.174225 -22.331701 0.133932
155.624115 -65.174225 -22.331701 0.165768
169.107422 -65.174225 -22.331701 0.188698
182.590698 -65.174225 -22.331701 0.195015
196.074036 -65.174225 -22.331701 0.176542
209.557312 -65.174225 -22.331701 0.140898
223.040588 -65.174225 -22.331701 0.091602
236.523926 -65.174225 -22.331701 0.057672
250.007202 -65.174225 -22.331701 0.034601
263.490540 -65.174225 -22.331701 0.022356
276.973816 -65.174225 -22.331701 0.016364
290.457092 -65.174225 -22.331701 0.012695
303.940430 -65.174225 -22.331701 0.010204
317.423706 -65.174225 -22.331701 0.012630
330.907043 -65.174225 -22.331701 0.000000
344.390320 -65.174225 -22.331701 0.000000
-343.257996 -78.657501 -22.331701 0.000000
-329.774689 -78.657501 -22.331701 0.000000
-316.291382 -78.657501 -22.331701 0.000000
-302.808105 -78.657501 -22.331701 0.000000
-289.324799 -78.657501 -22.331701 0.000000
-275.841492 -78.657501 -22.331701 0.000000
-262.358185 -78.657501 -22.331701 0.000000
-248.874893 -78.657501 -22.331701 0.000000
-235.391602 -78.657501 -22.331701 0.000000
-221.908295 -78.657501 -22.331701 0.000000
-208.424988 -78.657501 -22.331701 0.628466
-194.941696 -78.657501 -22.331701 0.706753
-181.458389 -78.657501 -22.331701 0.746340
-167.975098 -78.657501 -22.331701 0.720861
-154.491791 -78.657501 -22.331701 0.711377
-141.008499 -78.657501 -22.331701 0.709531
-127.525192 -78.657501 -22.331701 0.000000
-114.041885 -78.657501 -22.331701 0.621669
-100.558594 -78.657501 -22.331701 0.558513
-87.075287 -78.657501 -22.331701 0.478887
-73.591980 -78.657501 -22.331701 0.412224
-60.108704 -78.657501 -22.331701 0.364366
-46.625397 -78.657501 -22.331701 0.365737
-33.142090 -78.657501 -22.331701 0.353828
-19.658783 -78.657501 -22.331701 0.316029
-6.175476 -78.657501 -22.331701 0.258261
7.307800 -78.657501 -22.331701 0.240735
20.791107 -78.657501 -22.331701 0.213806
34.274414 -78.657501 -22.331701 0.173311
47.757721 -78.657501 -22.331701 0.128094
61.240997 -78.657501 -22.331701 0.101500
74.724304 -78.657501 -22.331701 0.092183
88.207611 -78.657501 -22.331701 0.087500
101.690918 -78.657501 -22.331701 0.083535
115.174225 -78.657501 -22.331701 0.085367
128.657501 -78.657501 -22.331701 0.103388
142.140808 -78.657501 -22.331701 0.124434
155.624115 -78.657501 -22.331701 0.161985
169.107422 -78.657501 -22.331701 0.187664
182.590698 -78.657501 -22.331701 0.198832
196.074036 -78.657501 -22.331701 0.189855
209.557312 -78.657501 -22.331701 0.153191
223.040588 -78.657501 -22.331701 0.104825
236.523926 -78.657501 -22.331701 0.066170
250.007202 -78.657501 -22.331701 0.038079
263.490540 -78.657501 -22.331701 0.026655
276.973816 -78.657501 -22.331701 0.019687
290.457092 -78.657501 -22.331701 0.015344
303.940430 -78.657501 -22.331701 0.012086
317.423706 -78.657501 -22.331701 0.012869
330.907043 -78.657501 -22.331701 0.000000
344.390320 -78.657501 -22.331701 0.000000
-343.257996 -92.140808 -22.331701 0.000000
-329.774689 -92.140808 -22.331701 0.000000
-316.291382 -92.140808 -22.331701 0.000000
-302.808105 -92.140808 -22.331701 0.000000
-289.324799 -92.140808 -22.331701 0.000000
-275.841492 -92.140808 -22.331701 0.000000
-262.358185 -92.140808 -22.331701 0.000000
-248.874893 -92.140808 -22.331701 0.000000
-235.391602 -92.140808 -22.331701 0.000000
-221.908295 -92.140808 -22.331701 0.000000
-208.424988 -92.140808 -22.331701 0.000000
-194.941696 -92.140808 -22.331701 0.676238
-181.458389 -92.140808 -22.331701 0.000000
-167.975098 -92.140808 -22.331701 0.000000
-154.491791 -92.140808 -22.331701 0.000000
-141.008499 -92.140808 -22.331701 0.753774
-127.525192 -92.140808 -22.331701 0.000000
-114.041885 -92.140808 -22.331701 0.646722
-100.558594 -92.140808 -22.331701 0.605133
-87.075287 -92.140808 -22.331701 0.530422
-73.591980 -92.140808 -22.331701 0.412756
-60.108704 -92.140808 -22.331701 0.352492
-46.625397 -92.140808 -22.331701 0.320619
-33.142090 -92.140808 -22.331701 0.308256
-19.658783 -92.140808 -22.331701 0.283235
-6.175476 -92.140808 -22.331701 0.252370
7.307800 -92.140808 -22.331701 0.235205
20.791107 -92.140808 -22.331701 0.190817
34.274414 -92.140808 -22.331701 0.144588
47.757721 -92.140808 -22.331701 0.112254
61.240997 -92.140808 -22.331701 0.090965
74.724304 -92.140808 -22.331701 0.082273
88.207611 -92.140808 -22.331701 0.078702
101.690918 -92.140808 -22.331701 0.081049
115.174225 -92.140808 -22.331701 0.081901
128.657501 -92.140808 -22.331701 0.097321
142.140808 -92.140808 -22.331701 0.114710
155.624115 -92.140808 -22.331701 0.144557
169.107422 -92.140808 -22.331701 0.177126
182.590698 -92.140808 -22.331701 0.201395
196.074036 -92.140808 -22.331701 0.195124
209.557312 -92.140808 -22.331701 0.164887
223.040588 -92.140808 -22.331701 0.119385
236.523926 -92.140808 -22.331701 0.077874
250.007202 -92.140808 -22.331701 0.044624
263.490540 -92.140808 -22.331701 0.030953
276.973816 -92.140808 -22.331701 0.024410
290.457092 -92.140808 -22.331701 0.019201
303.940430 -92.140808 -22.331701 0.016951
317.423706 -92.140808 -22.331701 0.014766
330.907043 -92.140808 -22.331701 0.000000
344.390320 -92.140808 -22.331701 0.000000
-343.257996 -105.624115 -22.331701 0.000000
-329.774689 -105.624115 -22.331701 0.000000
-316.291382 -105.624115 -22.331701 0.000000
-302.808105 -105.624115 -22.331701 0.000000
-289.324799 -105.624115 -22.331701 0.000000
-275.841492 -105.624115 -22.331701 0.000000
-262.358185 -105.624115 -22.331701 0.000000
-248.874893 -105.624115 -22.331701 0.000000
-235.391602 -105.624115 -22.331701 0.000000
-221.908295 -105.624115 -22.331701 0.000000
-208.424988 -105.624115 -22.331701 0.000000
-194.941696 -105.624115 -22.331701 0.688194
-181.458389 -105.624115 -22.331701 0.000000
-167.975098 -105.624115 -22.331701 0.000000
-154.491791 -105.624115 -22.331701 0.000000
-141.008499 -105.624115 -22.331701 0.765999
-127.525192 -105.624115 -22.331701 0.000000
-114.041885 -105.624115 -22.331701 0.000000
-100.558594 -105.624115 -22.331701 0.611752
-87.075287 -105.624115 -22.331701 0.000000
-73.591980 -105.624115 -22.331701 0.000000
-60.108704 -105.624115 -22.331701 0.000000
-46.625397 -105.624115 -22.331701 0.303052
-33.142090 -105.624115 -22.331701 0.291310
-19.658783 -105.624115 -22.331701 0.269007
-6.175476 -105.624115 -22.331701 0.231321
7.307800 -105.624115 -22.331701 0.206743
20.791107 -105.624115 -22.331701 0.172157
34.274414 -105.624115 -22.331701 0.129507
47.757721 -105.624115 -22.331701 0.099644
61.240997 -105.624115 -22.331701 0.092618
74.724304 -105.624115 -22.331701 0.081649
88.207611 -105.624115 -22.331701 0.076684
101.690918 -105.624115 -22.331701 0.083488
115.174225 -105.624115 -22.331701 0.089619
128.657501 -105.624115 -22.331701 0.093625
142.140808 -105.624115 -22.331701 0.108881
155.624115 -105.624115 -22.331701 0.135682
169.107422 -105.624115 -22.331701 0.164755
182.590698 -105.624115 -22.331701 0.195215
196.074036 -105.624115 -22.331701 0.199998
209.557312 -105.624115 -22.331701 0.181039
223.040588 -105.624115 -22.331701 0.133902
236.523926 -105.624115 -22.331701 0.085983
250.007202 -105.624115 -22.331701 0.055108
263.490540 -105.624115 -22.331701 0.039184
276.973816 -105.624115 -22.331701 0.030256
290.457092 -105.624115 -22.331701 0.024274
303.940430 -105.624115 -22.331701 0.021427
317.423706 -105.624115 -22.331701 0.024069
330.907043 -105.624115 -22.331701 0.000000
344.390320 -105.624115 -22.331701 0.000000
-343.257996 -119.107422 -22.331701 0.000000
-329.774689 -119.107422 -22.331701 0.000000
-316.291382 -119.107422 -22.331701 0.000000
-302.808105 -119.107422 -22.331701 0.000000
-289.324799 -119.107422 -22.331701 0.000000
-275.841492 -119.107422 -22.331701 0.000000
-262.358185 -119.107422 -22.331701 0.000000
-248.874893 -119.107422 -22.331701 0.000000
-235.391602 -119.107422 -22.331701 0.000000
-221.908295 -119.107422 -22.331701 0.000000
-208.424988 -119.107422 -22.331701 0.000000
-194.941696 -119.107422 -22.331701 0.000000
-181.458389 -119.107422 -22.331701 0.000000
-167.975098 -119.107422 -22.331701 0.000000
-154.491791 -119.107422 -22.331701 0.784829
-141.008499 -119.107422 -22.331701 0.758431
-127.525192 -119.107422 -22.331701 0.000000
-114.041885 -119.107422 -22.331701 0.000000
-100.558594 -119.107422 -22.331701 0.600066
-87.075287 -119.107422 -22.331701 0.000000
-73.591980 -119.107422 -22.331701 0.454894
-60.108704 -119.107422 -22.331701 0.000000
-46.625397 -119.107422 -22.331701 0.321623
-33.142090 -119.107422 -22.331701 0.269880
-19.658783 -119.107422 -22.331701 0.249077
-6.175476 -119.107422 -22.331701 0.218017
7.307800 -119.107422 -22.331701 0.185611
20.791107 -119.107422 -22.331701 0.157420
34.274414 -119.107422 -22.331701 0.130048
47.757721 -119.107422 -22.331701 0.105652
61.240997 -119.107422 -22.331701 0.099669
74.724304 -119.107422 -22.331701 0.091716
88.207611 -119.107422 -22.331701 0.088861
101.690918 -119.107422 -22.331701 0.093116
115.174225 -119.107422 -22.331701 0.093889
128.657501 -119.107422 -22.331701 0.099759
142.140808 -119.107422 -22.331701 0.109373
155.624115 -119.107422 -22.331701 0.132940
169.107422 -119.107422 -22.331701 0.163812
182.590698 -119.107422 -22.331701 0.194218
196.074036 -119.107422 -22.331701 0.213556
209.557312 -119.107422 -22.331701 0.201731
223.040588 -119.107422 -22.331701 0.157634
236.523926 -119.107422 -22.331701 0.102574
250.007202 -119.107422 -22.331701 0.070933
263.490540 -119.107422 -22.331701 0.050963
276.973816 -119.107422 -22.331701 0.039908
290.457092 -119.107422 -22.331701 0.032142
303.940430 -119.107422 -22.331701 0.030151
317.423706 -119.107422 -22.331701 0.033812
330.907043 -119.107422 -22.331701 0.000000
344.390320 -119.107422 -22.331701 0.000000
-343.257996 -132.590698 -22.331701 0.000000
-329.774689 -132.590698 -22.331701 0.000000
-316.291382 -132.590698 -22.331701 0.000000
-302.808105 -132.590698 -22.331701 0.000000
-289.324799 -132.590698 -22.331701 0.000000
-275.841492 -132.590698 -22.331701 0.000000
-262.358185 -132.590698 -22.331701 0.000000
-248.874893 -132.590698 -22.331701 0.000000
-235.391602 -132.590698 -22.331701 0.000000
-221.908295 -132.590698 -22.331701 0.000000
-208.424988 -132.590698 -22.331701 0.000000
-194.941696 -132.590698 -22.331701 0.000000
-181.458389 -132.590698 -22.331701 0.760100
-167.975098 -132.590698 -22.331701 0.800426
-154.491791 -132.590698 -22.331701 0.832489
-141.008499 -132.590698 -22.331701 0.838016
-127.525192 -132.590698 -22.331701 0.762215
-114.041885 -132.590698 -22.331701 0.691291
-100.558594 -132.590698 -22.331701 0.635488
-87.075287 -132.590698 -22.331701 0.552588
-73.591980 -132.590698 -22.331701 0.483022
-60.108704 -132.590698 -22.331701 0.000000
-46.625397 -132.590698 -22.331701 0.000000
-33.142090 -132.590698 -22.331701 0.000000
-19.658783 -132.590698 -22.331701 0.250854
-6.175476 -132.590698 -22.331701 0.000000
7.307800 -132.590698 -22.331701 0.000000
20.791107 -132.590698 -22.331701 0.169493
34.274414 -132.590698 -22.331701 0.000000
47.757721 -132.590698 -22.331701 0.129341
61.240997 -132.590698 -22.331701 0.119533
74.724304 -132.590698 -22.331701 0.116037
88.207611 -132.590698 -22.331701 0.112521
101.690918 -132.590698 -22.331701 0.115041
115.174225 -132.590698 -22.331701 0.106767
128.657501 -132.590698 -22.331701 0.109524
142.140808 -132.590698 -22.331701 0.122860
155.624115 -132.590698 -22.331701 0.149114
169.107422 -132.590698 -22.331701 0.171071
182.590698 -132.590698 -22.331701 0.204884
196.074036 -132.590698 -22.331701 0.235032
209.557312 -132.590698 -22.331701 0.220902
223.040588 -132.590698 -22.331701 0.189291
236.523926 -132.590698 -22.331701 0.132398
250.007202 -132.590698 -22.331701 0.088657
263.490540 -132.590698 -22.331701 0.068344
276.973816 -132.590698 -22.331701 0.053395
290.457092 -132.590698 -22.331701 0.053363
303.940430 -132.590698 -22.331701 0.000000
317.423706 -132.590698 -22.331701 0.000000
330.907043 -132.590698 -22.331701 0.000000
344.390320 -132.590698 -22.331701 0.000000
-343.257996 -146.074036 -22.331701 0.000000
-329.774689 -146.074036 -22.331701 0.000000
-316.291382 -146.074036 -22.331701 0.000000
-302.808105 -146.074036 -22.331701 0.000000
-289.324799 -146.074036 -22.331701 0.000000
-275.841492 -146.074036 -22.331701 0.000000
-262.358185 -146.074036 -22.331701 0.000000
-248.874893 -146.074036 -22.331701 0.000000
-235.391602 -146.074036 -22.331701 0.000000
-221.908295 -146.074036 -22.331701 0.000000
-208.424988 -146.074036 -22.331701 0.000000
-194.941696 -146.074036 -22.331701 0.000000
-181.458389 -146.074036 -22.331701 0.000000
-167.975098 -146.074036 -22.331701 0.000000
-154.491791 -146.074036 -22.331701 0.000000
-141.008499 -146.074036 -22.331701 0.000000
-127.525192 -146.074036 -22.331701 0.000000
-114.041885 -146.074036 -22.331701 0.000000
-100.558594 -146.074036 -22.331701 0.000000
-87.075287 -146.074036 -22.331701 0.000000
-73.591980 -146.074036 -22.331701 0.000000
-60.108704 -146.074036 -22.331701 0.000000
-46.625397 -146.074036 -22.331701 0.000000
-33.142090 -146.074036 -22.331701 0.000000
-19.658783 -146.074036 -22.331701 0.000000
-6.175476 -146.074036 -22.331701 0.000000
7.307800 -146.074036 -22.331701 0.000000
20.791107 -146.074036 -22.331701 0.000000
34.274414 -146.074036 -22.331701 0.000000
47.757721 -146.074036 -22.331701 0.000000
61.240997 -146.074036 -22.331701 0.000000
74.724304 -146.074036 -22.331701 0.000000
88.207611 -146.074036 -22.331701 0.000000
101.690918 -146.074036 -22.331701 0.000000
115.174225 -146.074036 -22.331701 0.000000
128.657501 -146.074036 -22.331701 0.134028
142.140808 -146.074036 -22.331701 0.147101
155.624115 -146.074036 -22.331701 0.164832
169.107422 -146.074036 -22.331701 0.200422
182.590698 -146.074036 -22.331701 0.228856
196.074036 -146.074036 -22.331701 0.246147
209.557312 -146.074036 -22.331701 0.238327
223.040588 -146.074036 -22.331701 0.223122
236.523926 -146.074036 -22.331701 0.000000
250.007202 -146.074036 -22.331701 0.130434
263.490540 -146.074036 -22.331701 0.105531
276.973816 -146.074036 -22.331701 0.000000
290.457092 -146.074036 -22.331701 0.000000
303.940430 -146.074036 -22.331701 0.000000
317.423706 -146.074036 -22.331701 0.000000
330.907043 -146.074036 -22.331701 0.000000
344.390320 -146.074036 -22.331701 0.000000
-343.257996 -159.557312 -22.331701 0.000000
-329.774689 -159.557312 -22.331701 0.000000
-316.291382 -159.557312 -22.331701 0.000000
-302.808105 -159.557312 -22.331701 0.000000
-289.324799 -159.557312 -22.331701 0.000000
-275.841492 -159.557312 -22.331701 0.000000
-262.358185 -159.557312 -22.331701 0.000000
-248.874893 -159.557312 -22.331701 0.000000
-235.391602 -159.557312 -22.331701 0.000000
-221.908295 -159.557312 -22.331701 0.000000
-208.424988 -159.557312 -22.331701 0.000000
-194.941696 -159.557312 -22.331701 0.000000
-181.458389 -159.557312 -22.331701 0.000000
-167.975098 -159.557312 -22.331701 0.000000
-154.491791 -159.557312 -22.331701 0.000000
-141.008499 -159.557312 -22.331701 0.000000
-127.525192 -159.557312 -22.331701 0.000000
-114.041885 -159.557312 -22.331701 0.000000
-100.558594 -159.557312 -22.331701 0.000000
-87.075287 -159.557312 -22.331701 0.000000
-73.591980 -159.557312 -22.331701 0.000000
-60.108704 -159.557312 -22.331701 0.000000
-46.625397 -159.557312 -22.331701 0.000000
-33.142090 -159.557312 -22.331701 0.000000
-19.658783 -159.557312 -22.331701 0.000000
-6.175476 -159.557312 -22.331701 0.000000
7.307800 -159.557312 -22.331701 0.000000
20.791107 -159.557312 -22.331701 0.000000
34.274414 -159.557312 -22.331701 0.000000
47.757721 -159.557312 -22.331701 0.000000
61.240997 -159.557312 -22.331701 0.000000
74.724304 -159.557312 -22.331701 0.000000
88.207611 -159.557312 -22.331701 0.000000
101.690918 -159.557312 -22.331701 0.000000
115.174225 -159.557312 -22.331701 0.000000
128.657501 -159.557312 -22.331701 0.000000
142.140808 -159.557312 -22.331701 0.000000
155.624115 -159.557312 -22.331701 0.000000
169.107422 -159.557312 -22.331701 0.000000
182.590698 -159.557312 -22.331701 0.000000
196.074036 -159.557312 -22.331701 0.000000
209.557312 -159.557312 -22.331701 0.000000
223.040588 -159.557312 -22.331701 0.000000
236.523926 -159.557312 -22.331701 0.000000
250.007202 -159.557312 -22.331701 0.000000
263.490540 -159.557312 -22.331701 0.000000
276.973816 -159.557312 -22.331701 0.000000
290.457092 -159.557312 -22.331701 0.000000
303.940430 -159.557312 -22.331701 0.000000
317.423706 -159.557312 -22.331701 0.000000
330.907043 -159.557312 -22.331701 0.000000
344.390320 -159.557312 -22.331701 0.000000
-343.257996 -173.040588 -22.331701 0.000000
-329.774689 -173.040588 -22.331701 0.000000
-316.291382 -173.040588 -22.331701 0.000000
-302.808105 -173.040588 -22.331701 0.000000
-289.324799 -173.040588 -22.331701 0.000000
-275.841492 -173.040588 -22.331701 0.000000
-262.358185 -173.040588 -22.331701 0.000000
-248.874893 -173.040588 -22.331701 0.000000
-235.391602 -173.040588 -22.331701 0.000000
-221.908295 -173.040588 -22.331701 0.000000
-208.424988 -173.040588 -22.331701 0.000000
-194.941696 -173.040588 -22.331701 0.000000
-181.458389 -173.040588 -22.331701 0.000000
-167.975098 -173.040588 -22.331701 0.000000
-154.491791 -173.040588 -22.331701 0.000000
-141.008499 -173.040588 -22.331701 0.000000
-127.525192 -173.040588 -22.331701 0.000000
-114.041885 -173.040588 -22.331701 0.000000
-100.558594 -173.040588 -22.331701 0.000000
-87.075287 -173.040588 -22.331701 0.000000
-73.591980 -173.040588 -22.331701 0.000000
-60.108704 -173.040588 -22.331701 0.000000
-46.625397 -173.040588 -22.331701 0.000000
-33.142090 -173.040588 -22.331701 0.000000
-19.658783 -173.040588 -22.331701 0.000000
-6.175476 -173.040588 -22.331701 0.000000
7.307800 -173.040588 -22.331701 0.000000
20.791107 -173.040588 -22.331701 0.000000
34.274414 -173.040588 -22.331701 0.000000
47.757721 -173.040588 -22.331701 0.000000
61.240997 -173.040588 -22.331701 0.000000
74.724304 -173.040588 -22.331701 0.000000
88.207611 -173.040588 -22.331701 0.000000
101.690918 -173.040588 -22.331701 0.000000
115.174225 -173.040588 -22.331701 0.000000
128.657501 -173.040588 -22.331701 0.000000
142.140808 -173.040588 -22.331701 0.000000
155.624115 -173.040588 -22.331701 0.000000
169.107422 -173.040588 -22.331701 0.000000
182.590698 -173.040588 -22.331701 0.000000
196.074036 -173.040588 -22.331701 0.000000
209.557312 -173.040588 -22.331701 0.000000
223.040588 -173.040588 -22.331701 0.000000
236.523926 -173.040588 -22.331701 0.000000
250.007202 -173.040588 -22.331701 0.000000
263.490540 -173.040588 -22.331701 0.000000
276.973816 -173.040588 -22.331701 0.000000
290.457092 -173.040588 -22.331701 0.000000
303.940430 -173.040588 -22.331701 0.000000
317.423706 -173.040588 -22.331701 0.000000
330.907043 -173.040588 -22.331701 0.000000
344.390320 -173.040588 -22.331701 0.000000
-343.257996 -186.523926 -22.331701 0.000000
-329.774689 -186.523926 -22.331701 0.000000
-316.291382 -186.523926 -22.331701 0.000000
-302.808105 -186.523926 -22.331701 0.000000
-289.324799 -186.523926 -22.331701 0.000000
-275.841492 -186.523926 -22.331701 0.000000
-262.358185 -186.523926 -22.331701 0.000000
-248.874893 -186.523926 -22.331701 0.000000
-235.391602 -186.523926 -22.331701 0.000000
-221.908295 -186.523926 -22.331701 0.000000
-208.424988 -186.523926 -22.331701 0.000000
-194.941696 -186.523926 -22.331701 0.000000
-181.458389 -186.523926 -22.331701 0.000000
-167.975098 -186.523926 -22.331701 0.000000
-154.491791 -186.523926 -22.331701 0.000000
-141.008499 -186.523926 -22.331701 0.000000
-127.525192 -186.523926 -22.331701 0.000000
-114.041885 -186.523926 -22.331701 0.000000
-100.558594 -186.523926 -22.331701 0.000000
-87.075287 -186.523926 -22.331701 0.000000
-73.591980 -186.523926 -22.331701 0.000000
-60.108704 -186.523926 -22.331701 0.000000
-46.625397 -186.523926 -22.331701 0.000000
-33.142090 -186.523926 -22.331701 0.000000
-19.658783 -186.523926 -22.331701 0.000000
-6.175476 -186.523926 -22.331701 0.000000
7.307800 -186.523926 -22.331701 0.000000
20.791107 -186.523926 -22.331701 0.000000
34.274414 -186.523926 -22.331701 0.000000
47.757721 -186.523926 -22.331701 0.000000
61.240997 -186.523926 -22.331701 0.000000
74.724304 -186.523926 -22.331701 0.000000
88.207611 -186.523926 -22.331701 0.000000
101.690918 -186.523926 -22.331701 0.000000
115.174225 -186.523926 -22.331701 0.000000
128.657501 -186.523926 -22.331701 0.000000
142.140808 -186.523926 -22.331701 0.000000
155.624115 -186.523926 -22.331701 0.000000
169.107422 -186.523926 -22.331701 0.000000
182.590698 -186.523926 -22.331701 0.000000
196.074036 -186.523926 -22.331701 0.000000
209.557312 -186.523926 -22.331701 0.000000
223.040588 -186.523926 -22.331701 0.000000
236.523926 -186.523926 -22.331701 0.000000
250.007202 -186.523926 -22.331701 0.000000
263.490540 -186.523926 -22.331701 0.000000
276.973816 -186.523926 -22.331701 0.000000
290.457092 -186.523926 -22.331701 0.000000
303.940430 -186.523926 -22.331701 0.000000
317.423706 -186.523926 -22.331701 0.000000
330.907043 -186.523926 -22.331701 0.000000
344.390320 -186.523926 -22.331701 0.000000
-343.257996 -200.007202 -22.331701 0.000000
-329.774689 -200.007202 -22.331701 0.000000
-316.291382 -200.007202 -22.331701 0.000000
-302.808105 -200.007202 -22.331701 0.000000
-289.324799 -200.007202 -22.331701 0.000000
-275.841492 -200.007202 -22.331701 0.000000
-262.358185 -200.007202 -22.331701 0.000000
-248.874893 -200.007202 -22.331701 0.000000
-235.391602 -200.007202 -22.331701 0.000000
-221.908295 -200.007202 -22.331701 0.000000
-208.424988 -200.007202 -22.331701 0.000000
-194.941696 -200.007202 -22.331701 0.000000
-181.458389 -200.007202 -22.331701 0.000000
-167.975098 -200.007202 -22.331701 0.000000
-154.491791 -200.007202 -22.331701 0.000000
-141.008499 -200.007202 -22.331701 0.000000
-127.525192 -200.007202 -22.331701 0.000000
-114.041885 -200.007202 -22.331701 0.000000
-100.558594 -200.007202 -22.331701 0.000000
-87.075287 -200.007202 -22.331701 0.000000
-73.591980 -200.007202 -22.331701 0.000000
-60.108704 -200.007202 -22.331701 0.000000
-46.625397 -200.007202 -22.331701 0.000000
-33.142090 -200.007202 -22.331701 0.000000
-19.658783 -200.007202 -22.331701 0.000000
-6.175476 -200.007202 -22.331701 0.000000
7.307800 -200.007202 -22.331701 0.000000
20.791107 -200.007202 -22.331701 0.000000
34.274414 -200.007202 -22.331701 0.000000
47.757721 -200.007202 -22.331701 0.000000
61.240997 -200.007202 -22.331701 0.000000
74.724304 -200.007202 -22.331701 0.000000
88.207611 -200.007202 -22.331701 0.000000
101.690918 -200.007202 -22.331701 0.000000
115.174225 -200.007202 -22.331701 0.000000
128.657501 -200.007202 -22.331701 0.000000
142.140808 -200.007202 -22.331701 0.000000
155.624115 -200.007202 -22.331701 0.000000
169.107422 -200.007202 -22.331701 0.000000
182.590698 -200.007202 -22.331701 0.000000
196.074036 -200.007202 -22.331701 0.000000
209.557312 -200.007202 -22.331701 0.000000
223.040588 -200.007202 -22.331701 0.000000
236.523926 -200.007202 -22.331701 0.000000
250.007202 -200.007202 -22.331701 0.000000
263.490540 -200.007202 -22.331701 0.000000
276.973816 -200.007202 -22.331701 0.000000
290.457092 -200.007202 -22.331701 0.000000
303.940430 -200.007202 -22.331701 0.000000
317.423706 -200.007202 -22.331701 0.000000
330.907043 -200.007202 -22.331701 0.000000
344.390320 -200.007202 -22.331701 0.000000
-343.257996 393.257996 -8.848400 0.000000
-329.774689 393.257996 -8.848400 0.000000
-316.291382 393.257996 -8.848400 0.000000
-302.808105 393.257996 -8.848400 0.000000
-289.324799 393.257996 -8.848400 0.000000
-275.841492 393.257996 -8.848400 0.000000
-262.358185 393.257996 -8.848400 0.000000
-248.874893 393.257996 -8.848400 0.000000
-235.391602 393.257996 -8.848400 0.000000
-221.908295 393.257996 -8.848400 0.000000
-208.424988 393.257996 -8.848400 0.000000
-194.941696 393.257996 -8.848400 0.000000
-181.458389 393.257996 -8.848400 0.000000
-167.975098 393.257996 -8.848400 0.000000
-154.491791 393.257996 -8.848400 0.000000
-141.008499 393.257996 -8.848400 0.000000
-127.525192 393.257996 -8.848400 0.000000
-114.041885 393.257996 -8.848400 0.000000
-100.558594 393.257996 -8.848400 0.000000
-87.075287 393.257996 -8.848400 0.000000
-73.591980 393.257996 -8.848400 0.000000
-60.108704 393.257996 -8.848400 0.000000
-46.625397 393.257996 -8.848400 0.000000
-33.142090 393.257996 -8.848400 0.000000
-19.658783 393.257996 -8.848400 0.000000
-6.175476 393.257996 -8.848400 0.000000
7.307800 393.257996 -8.848400 0.000000
20.791107 393.257996 -8.848400 0.000000
34.274414 393.257996 -8.848400 0.000000
47.757721 393.257996 -8.848400 0.000000
61.240997 393.257996 -8.848400 0.000000
74.724304 393.257996 -8.848400 0.000000
88.207611 393.257996 -8.848400 0.000000
101.690918 393.257996 -8.848400 0.000000
115.174225 393.257996 -8.848400 0.000000
128.657501 393.257996 -8.848400 0.000000
142.140808 393.257996 -8.848400 0.000000
155.624115 393.257996 -8.848400 0.000000
169.107422 393.257996 -8.848400 0.000000
182.590698 393.257996 -8.848400 0.000000
196.074036 393.257996 -8.848400 0.000000
209.557312 393.257996 -8.848400 0.000000
223.040588 393.257996 -8.848400 0.000000
236.523926 393.257996 -8.848400 0.000000
250.007202 393.257996 -8.848400 0.000000
263.490540 393.257996 -8.848400 0.000000
276.973816 393.257996 -8.848400 0.000000
290.457092 393.257996 -8.848400 0.000000
303.940430 393.257996 -8.848400 0.000000
317.423706 393.257996 -8.848400 0.000000
330.907043 393.257996 -8.848400 0.000000
344.390320 393.257996 -8.848400 0.000000
-343.257996 379.774689 -8.848400 0.000000
-329.774689 379.774689 -8.848400 0.000000
-316.291382 379.774689 -8.848400 0.000000
-302.808105 379.774689 -8.848400 0.000000
-289.324799 379.774689 -8.848400 0.000000
-275.841492 379.774689 -8.848400 0.000000
-262.358185 379.774689 -8.848400 0.000000
-248.874893 379.774689 -8.848400 0.000000
-235.391602 379.774689 -8.848400 0.000000
-221.908295 379.774689 -8.848400 0.000000
-208.424988 379.774689 -8.848400 0.000000
-194.941696 379.774689 -8.848400 0.000000
-181.458389 379.774689 -8.848400 0.000000
-167.975098 379.774689 -8.848400 0.000000
-154.491791 379.774689 -8.848400 0.000000
-141.008499 379.774689 -8.848400 0.000000
-127.525192 379.774689 -8.848400 0.000000
-114.041885 379.774689 -8.848400 0.000000
-100.558594 379.774689 -8.848400 0.000000
-87.075287 379.774689 -8.848400 0.000000
-73.591980 379.774689 -8.848400 0.000000
-60.108704 379.774689 -8.848400 0.000000
-46.625397 379.774689 -8.848400 0.000000
-33.142090 379.774689 -8.848400 0.000000
-19.658783 379.774689 -8.848400 0.000000
-6.175476 379.774689 -8.848400 0.000000
7.307800 379.774689 -8.848400 0.000000
20.791107 379.774689 -8.848400 0.000000
34.274414 379.774689 -8.848400 0.000000
47.757721 379.774689 -8.848400 0.000000
61.240997 379.774689 -8.848400 0.000000
74.724304 379.774689 -8.848400 0.000000
88.207611 379.774689 -8.848400 0.000000
101.690918 379.774689 -8.848400 0.000000
115.174225 379.774689 -8.848400 0.000000
128.657501 379.774689 -8.848400 0.000000
142.140808 379.774689 -8.848400 0.000000
155.624115 379.774689 -8.848400 0.000000
169.107422 379.774689 -8.848400 0.000000
182.590698 379.774689 -8.848400 0.000000
196.074036 379.774689 -8.848400 0.000000
209.557312 379.774689 -8.848400 0.000000
223.040588 379.774689 -8.848400 0.000000
236.523926 379.774689 -8.848400 0.000000
250.007202 379.774689 -8.848400 0.000000
263.490540 379.774689 -8.848400 0.000000
276.973816 379.774689 -8.848400 0.000000
290.457092 379.774689 -8.848400 0.000000
303.940430 379.774689 -8.848400 0.000000
317.423706 379.774689 -8.848400 0.000000
330.907043 379.774689 -8.848400 0.000000
344.390320 379.774689 -8.848400 0.000000
-343.257996 366.291382 -8.848400 0.000000
-329.774689 366.291382 -8.848400 0.000000
-316.291382 366.291382 -8.848400 0.000000
-302.808105 366.291382 -8.848400 0.000000
-289.324799 366.291382 -8.848400 0.000000
-275.841492 366.291382 -8.848400 0.000000
-262.358185 366.291382 -8.848400 0.000000
-248.874893 366.291382 -8.848400 0.000000
-235.391602 366.291382 -8.848400 0.000000
-221.908295 366.291382 -8.848400 0.000000
-208.424988 366.291382 -8.848400 0.000000
-194.941696 366.291382 -8.848400 0.000000
-181.458389 366.291382 -8.848400 0.000000
-167.975098 366.291382 -8.848400 0.000000
-154.491791 366.291382 -8.848400 0.000000
-141.008499 366.291382 -8.848400 0.000000
-127.525192 366.291382 -8.848400 0.000000
-114.041885 366.291382 -8.848400 0.000000
-100.558594 366.291382 -8.848400 0.000000
-87.075287 366.291382 -8.848400 0.000000
-73.591980 366.291382 -8.848400 0.000000
-60.108704 366.291382 -8.848400 0.000000
-46.625397 366.291382 -8.848400 0.000000
-33.142090 366.291382 -8.848400 0.000000
-19.658783 366.291382 -8.848400 0.000000
-6.175476 366.291382 -8.848400 0.000000
7.307800 366.291382 -8.848400 0.000000
20.791107 366.291382 -8.848400 0.000000
34.274414 366.291382 -8.848400 0.000000
47.757721 366.291382 -8.848400 0.000000
61.240997 366.291382 -8.848400 0.000000
74.724304 366.291382 -8.848400 0.000000
88.207611 366.291382 -8.848400 0.000000
101.690918 366.291382 -8.848400 0.000000
115.174225 366.291382 -8.848400 0.000000
128.657501 366.291382 -8.848400 0.000000
142.140808 366.291382 -8.848400 0.000000
155.624115 366.291382 -8.848400 0.000000
169.107422 366.291382 -8.848400 0.000000
182.590698 366.291382 -8.848400 0.000000
196.074036 366.291382 -8.848400 0.000000
209.557312 366.291382 -8.848400 0.000000
223.040588 366.291382 -8.848400 0.000000
236.523926 366.291382 -8.848400 0.000000
250.007202 366.291382 -8.848400 0.000000
263.490540 366.291382 -8.848400 0.000000
276.973816 366.291382 -8.848400 0.000000
290.457092 366.291382 -8.848400 0.000000
303.940430 366.291382 -8.848400 0.000000
317.423706 366.291382 -8.848400 0.000000
330.907043 366.291382 -8.848400 0.000000
344.390320 366.291382 -8.848400 0.000000
-343.257996 352.808105 -8.848400 0.000000
-329.774689 352.808105 -8.848400 0.000000
-316.291382 352.808105 -8.848400 0.000000
-302.808105 352.808105 -8.848400 0.000000
-289.324799 352.808105 -8.848400 0.000000
-275.841492 352.808105 -8.848400 0.000000
-262.358185 352.808105 -8.848400 0.000000
-248.874893 352.808105 -8.848400 0.000000
-235.391602 352.808105 -8.848400 0.000000
-221.908295 352.808105 -8.848400 0.000000
-208.424988 352.808105 -8.848400 0.000000
-194.941696 352.808105 -8.848400 0.000000
-181.458389 352.808105 -8.848400 0.000000
-167.975098 352.808105 -8.848400 0.000000
-154.491791 352.808105 -8.848400 0.000000
-141.008499 352.808105 -8.848400 0.000000
-127.525192 352.808105 -8.848400 0.000000
-114.041885 352.808105 -8.848400 0.000000
-100.558594 352.808105 -8.848400 0.000000
-87.075287 352.808105 -8.848400 0.000000
-73.591980 352.808105 -8.848400 0.000000
-60.108704 352.808105 -8.848400 0.000000
-46.625397 352.808105 -8.848400 0.000000
-33.142090 352.808105 -8.848400 0.000000
-19.658783 352.808105 -8.848400 0.000000
-6.175476 352.808105 -8.848400 0.000000
7.307800 352.808105 -8.848400 0.000000
20.791107 352.808105 -8.848400 0.000000
34.274414 352.808105 -8.848400 0.000000
47.757721 352.808105 -8.848400 0.000000
61.240997 352.808105 -8.848400 0.000000
74.724304 352.808105 -8.848400 0.000000
88.207611 352.808105 -8.848400 0.000000
101.690918 352.808105 -8.848400 0.000000
115.174225 352.808105 -8.848400 0.000000
128.657501 352.808105 -8.848400 0.000000
142.140808 352.808105 -8.848400 0.000000
155.624115 352.808105 -8.848400 0.000000
169.107422 352.808105 -8.848400 0.000000
182.590698 352.808105 -8.848400 0.000000
196.074036 352.808105 -8.848400 0.000000
209.557312 352.808105 -8.848400 0.000000
223.040588 352.808105 -8.848400 0.000000
236.523926 352.808105 -8.848400 0.000000
250.007202 352.808105 -8.848400 0.000000
263.490540 352.808105 -8.848400 0.000000
276.973816 352.808105 -8.848400 0.000000
290.457092 352.808105 -8.848400 0.000000
303.940430 352.808105 -8.848400 0.000000
317.423706 352.808105 -8.848400 0.000000
330.907043 352.808105 -8.848400 0.000000
344.390320 352.808105 -8.848400 0.000000
-343.257996 339.324799 -8.848400 0.000000
-329.774689 339.324799 -8.848400 0.000000
-316.291382 339.324799 -8.848400 0.000000
-302.808105 339.324799 -8.848400 0.000000
-289.324799 339.324799 -8.848400 0.000000
-275.841492 339.324799 -8.848400 0.000000
-262.358185 339.324799 -8.848400 0.000000
-248.874893 339.324799 -8.848400 0.000000
-235.391602 339.324799 -8.848400 0.000000
-221.908295 339.324799 -8.848400 0.000000
-208.424988 339.324799 -8.848400 0.000000
-194.941696 339.324799 -8.848400 0.000000
-181.458389 339.324799 -8.848400 0.000000
-167.975098 339.324799 -8.848400 0.000000
-154.491791 339.324799 -8.848400 0.000000
-141.008499 339.324799 -8.848400 0.000000
-127.525192 339.324799 -8.848400 0.000000
-114.041885 339.324799 -8.848400 0.000000
-100.558594 339.324799 -8.848400 0.000000
-87.075287 339.324799 -8.848400 0.000000
-73.591980 339.324799 -8.848400 0.000000
-60.108704 339.324799 -8.848400 0.000000
-46.625397 339.324799 -8.848400 0.294039
-33.142090 339.324799 -8.848400 0.295063
-19.658783 339.324799 -8.848400 0.284934
-6.175476 339.324799 -8.848400 0.290060
7.307800 339.324799 -8.848400 0.267023
20.791107 339.324799 -8.848400 0.000000
34.274414 339.324799 -8.848400 0.000000
47.757721 339.324799 -8.848400 0.000000
61.240997 339.324799 -8.848400 0.000000
74.724304 339.324799 -8.848400 0.000000
88.207611 339.324799 -8.848400 0.000000
101.690918 339.324799 -8.848400 0.000000
115.174225 339.324799 -8.848400 0.000000
128.657501 339.324799 -8.848400 0.000000
142.140808 339.324799 -8.848400 0.000000
155.624115 339.324799 -8.848400 0.000000
169.107422 339.324799 -8.848400 0.000000
182.590698 339.324799 -8.848400 0.000000
196.074036 339.324799 -8.848400 0.000000
209.557312 339.324799 -8.848400 0.000000
223.040588 339.324799 -8.848400 0.000000
236.523926 339.324799 -8.848400 0.000000
250.007202 339.324799 -8.848400 0.000000
263.490540 339.324799 -8.848400 0.000000
276.973816 339.324799 -8.848400 0.000000
290.457092 339.324799 -8.848400 0.000000
303.940430 339.324799 -8.848400 0.000000
317.423706 339.324799 -8.848400 0.000000
330.907043 339.324799 -8.848400 0.000000
344.390320 339.324799 -8.848400 0.000000
-343.257996 325.841492 -8.848400 0.000000
-329.774689 325.841492 -8.848400 0.000000
-316.291382 325.841492 -8.848400 0.000000
-302.808105 325.841492 -8.848400 0.000000
-289.324799 325.841492 -8.848400 0.000000
-275.841492 325.841492 -8.848400 0.000000
-262.358185 325.841492 -8.848400 0.000000
-248.874893 325.841492 -8.848400 0.000000
-235.391602 325.841492 -8.848400 0.000000
-221.908295 325.841492 -8.848400 0.000000
-208.424988 325.841492 -8.848400 0.000000
-194.941696 325.841492 -8.848400 0.000000
-181.458389 325.841492 -8.848400 0.000000
-167.975098 325.841492 -8.848400 0.000000
-154.491791 325.841492 -8.848400 0.000000
-141.008499 325.841492 -8.848400 0.000000
-127.525192 325.841492 -8.848400 0.000000
-114.041885 325.841492 -8.848400 0.000000
-100.558594 325.841492 -8.848400 0.234256
-87.075287 325.841492 -8.848400 0.255299
-73.591980 325.841492 -8.848400 0.278599
-60.108704 325.841492 -8.848400 0.292677
-46.625397 325.841492 -8.848400 0.317259
-33.142090 325.841492 -8.848400 0.293513
-19.658783 325.841492 -8.848400 0.290343
-6.175476 325.841492 -8.848400 0.288870
7.307800 325.841492 -8.848400 0.266534
20.791107 325.841492 -8.848400 0.245092
34.274414 325.841492 -8.848400 0.000000
47.757721 325.841492 -8.848400 0.000000
61.240997 325.841492 -8.848400 0.000000
74.724304 325.841492 -8.848400 0.000000
88.207611 325.841492 -8.848400 0.000000
101.690918 325.841492 -8.848400 0.000000
115.174225 325.841492 -8.848400 0.000000
128.657501 325.841492 -8.848400 0.000000
142.140808 325.841492 -8.848400 0.000000
155.624115 325.841492 -8.848400 0.000000
169.107422 325.841492 -8.848400 0.000000
182.590698 325.841492 -8.848400 0.000000
196.074036 325.841492 -8.848400 0.000000
209.557312 325.841492 -8.848400 0.000000
223.040588 325.841492 -8.848400 0.000000
236.523926 325.841492 -8.848400 0.000000
250.007202 325.841492 -8.848400 0.000000
263.490540 325.841492 -8.848400 0.000000
276.973816 325.841492 -8.848400 0.000000
290.457092 325.841492 -8.848400 0.000000
303.940430 325.841492 -8.848400 0.000000
317.423706 325.841492 -8.848400 0.000000
330.907043 325.841492 -8.848400 0.000000
344.390320 325.841492 -8.848400 0.000000
-343.257996 312.358185 -8.848400 0.000000
-329.774689 312.358185 -8.848400 0.000000
-316.291382 312.358185 -8.848400 0.000000
-302.808105 312.358185 -8.848400 0.000000
-289.324799 312.358185 -8.848400 0.000000
-275.841492 312.358185 -8.848400 0.000000
-262.358185 312.358185 -8.848400 0.000000
-248.874893 312.358185 -8.848400 0.000000
-235.391602 312.358185 -8.848400 0.000000
-221.908295 312.358185 -8.848400 0.000000
-208.424988 312.358185 -8.848400 0.000000
-194.941696 312.358185 -8.848400 0.000000
-181.458389 312.358185 -8.848400 0.000000
-167.975098 312.358185 -8.848400 0.000000
-154.491791 312.358185 -8.848400 0.000000
-141.008499 312.358185 -8.848400 0.000000
-127.525192 312.358185 -8.848400 0.000000
-114.041885 312.358185 -8.848400 0.213337
-100.558594 312.358185 -8.848400 0.232065
-87.075287 312.358185 -8.848400 0.256707
-73.591980 312.358185 -8.848400 0.291051
-60.108704 312.358185 -8.848400 0.326824
-46.625397 312.358185 -8.848400 0.346985
-33.142090 312.358185 -8.848400 0.324407
-19.658783 312.358185 -8.848400 0.318436
-6.175476 312.358185 -8.848400 0.305891
7.307800 312.358185 -8.848400 0.287697
20.791107 312.358185 -8.848400 0.281175
34.274414 312.358185 -8.848400 0.283130
47.757721 312.358185 -8.848400 0.000000
61.240997 312.358185 -8.848400 0.000000
74.724304 312.358185 -8.848400 0.000000
88.207611 312.358185 -8.848400 0.000000
101.690918 312.358185 -8.848400 0.000000
115.174225 312.358185 -8.848400 0.000000
128.657501 312.358185 -8.848400 0.000000
142.140808 312.358185 -8.848400 0.000000
155.624115 312.358185 -8.848400 0.000000
169.107422 312.358185 -8.848400 0.000000
182.590698 312.358185 -8.848400 0.000000
196.074036 312.358185 -8.848400 0.000000
209.557312 312.358185 -8.848400 0.000000
223.040588 312.358185 -8.848400 0.000000
236.523926 312.358185 -8.848400 0.000000
250.007202 312.358185 -8.848400 0.000000
263.490540 312.358185 -8.848400 0.000000
276.973816 312.358185 -8.848400 0.000000
290.457092 312.358185 -8.848400 0.000000
303.940430 312.358185 -8.848400 0.000000
317.423706 312.358185 -8.848400 0.000000
330.907043 312.358185 -8.848400 0.000000
344.390320 312.358185 -8.848400 0.000000
-343.257996 298.874878 -8.848400 0.000000
-329.774689 298.874878 -8.848400 0.000000
-316.291382 298.874878 -8.848400 0.000000
-302.808105 298.874878 -8.848400 0.000000
-289.324799 298.874878 -8.848400 0.000000
-275.841492 298.874878 -8.848400 0.000000
-262.358185 298.874878 -8.848400 0.000000
-248.874893 298.874878 -8.848400 0.000000
-235.391602 298.874878 -8.848400 0.000000
-221.908295 298.874878 -8.848400 0.000000
-208.424988 298.874878 -8.848400 0.000000
-194.941696 298.874878 -8.848400 0.000000
-181.458389 298.874878 -8.848400 0.000000
-167.975098 298.874878 -8.848400 0.000000
-154.491791 298.874878 -8.848400 0.000000
-141.008499 298.874878 -8.848400 0.000000
-127.525192 298.874878 -8.848400 0.000000
-114.041885 298.874878 -8.848400 0.197733
-100.558594 298.874878 -8.848400 0.215930
-87.075287 298.874878 -8.848400 0.245473
-73.591980 298.874878 -8.848400 0.274297
-60.108704 298.874878 -8.848400 0.321323
-46.625397 298.874878 -8.848400 0.342526
-33.142090 298.874878 -8.848400 0.338078
-19.658783 298.874878 -8.848400 0.336774
-6.175476 298.874878 -8.848400 0.328680
7.307800 298.874878 -8.848400 0.310867
20.791107 298.874878 -8.848400 0.315746
34.274414 298.874878 -8.848400 0.307426
47.757721 298.874878 -8.848400 0.302893
61.240997 298.874878 -8.848400 0.000000
74.724304 298.874878 -8.848400 0.000000
88.207611 298.874878 -8.848400 0.000000
101.690918 298.874878 -8.848400 0.000000
115.174225 298.874878 -8.848400 0.000000
128.657501 298.874878 -8.848400 0.000000
142.140808 298.874878 -8.848400 0.000000
155.624115 298.874878 -8.848400 0.000000
169.107422 298.874878 -8.848400 0.000000
182.590698 298.874878 -8.848400 0.000000
196.074036 298.874878 -8.848400 0.000000
209.557312 298.874878 -8.848400 0.000000
223.040588 298.874878 -8.848400 0.000000
236.523926 298.874878 -8.848400 0.000000
250.007202 298.874878 -8.848400 0.000000
263.490540 298.874878 -8.848400 0.000000
276.973816 298.874878 -8.848400 0.000000
290.457092 298.874878 -8.848400 0.000000
303.940430 298.874878 -8.848400 0.000000
317.423706 298.874878 -8.848400 0.000000
330.907043 298.874878 -8.848400 0.000000
344.390320 298.874878 -8.848400 0.000000
-343.257996 285.391602 -8.848400 0.000000
-329.774689 285.391602 -8.848400 0.000000
-316.291382 285.391602 -8.848400 0.000000
-302.808105 285.391602 -8.848400 0.000000
-289.324799 285.391602 -8.848400 0.000000
-275.841492 285.391602 -8.848400 0.000000
-262.358185 285.391602 -8.848400 0.000000
-248.874893 285.391602 -8.848400 0.000000
-235.391602 285.391602 -8.848400 0.000000
-221.908295 285.391602 -8.848400 0.000000
-208.424988 285.391602 -8.848400 0.000000
-194.941696 285.391602 -8.848400 0.000000
-181.458389 285.391602 -8.848400 0.000000
-167.975098 285.391602 -8.848400 0.000000
-154.491791 285.391602 -8.848400 0.000000
-141.008499 285.391602 -8.848400 0.000000
-127.525192 285.391602 -8.848400 0.000000
-114.041885 285.391602 -8.848400 0.202418
-100.558594 285.391602 -8.848400 0.224233
-87.075287 285.391602 -8.848400 0.243568
-73.591980 285.391602 -8.848400 0.282441
-60.108704 285.391602 -8.848400 0.305978
-46.625397 285.391602 -8.848400 0.338287
-33.142090 285.391602 -8.848400 0.366084
-19.658783 285.391602 -8.848400 0.359828
-6.175476 285.391602 -8.848400 0.353159
7.307800 285.391602 -8.848400 0.334782
20.791107 285.391602 -8.848400 0.331534
34.274414 285.391602 -8.848400 0.319086
47.757721 285.391602 -8.848400 0.322600
61.240997 285.391602 -8.848400 0.000000
74.724304 285.391602 -8.848400 0.000000
88.207611 285.391602 -8.848400 0.000000
101.690918 285.391602 -8.848400 0.283190
115.174225 285.391602 -8.848400 0.279994
128.657501 285.391602 -8.848400 0.259463
142.140808 285.391602 -8.848400 0.244067
155.624115 285.391602 -8.848400 0.216796
169.107422 285.391602 -8.848400 0.214420
182.590698 285.391602 -8.848400 0.000000
196.074036 285.391602 -8.848400 0.000000
209.557312 285.391602 -8.848400 0.000000
223.040588 285.391602 -8.848400 0.000000
236.523926 285.391602 -8.848400 0.000000
250.007202 285.391602 -8.848400 0.000000
263.490540 285.391602 -8.848400 0.000000
276.973816 285.391602 -8.848400 0.000000
290.457092 285.391602 -8.848400 0.000000
303.940430 285.391602 -8.848400 0.000000
317.423706 285.391602 -8.848400 0.000000
330.907043 285.391602 -8.848400 0.000000
344.390320 285.391602 -8.848400 0.000000
-343.257996 271.908295 -8.848400 0.000000
-329.774689 271.908295 -8.848400 0.000000
-316.291382 271.908295 -8.848400 0.000000
-302.808105 271.908295 -8.848400 0.000000
-289.324799 271.908295 -8.848400 0.000000
-275.841492 271.908295 -8.848400 0.000000
-262.358185 271.908295 -8.848400 0.000000
-248.874893 271.908295 -8.848400 0.000000
-235.391602 271.908295 -8.848400 0.000000
-221.908295 271.908295 -8.848400 0.000000
-208.424988 271.908295 -8.848400 0.000000
-194.941696 271.908295 -8.848400 0.000000
-181.458389 271.908295 -8.848400 0.000000
-167.975098 271.908295 -8.848400 0.000000
-154.491791 271.908295 -8.848400 0.000000
-141.008499 271.908295 -8.848400 0.000000
-127.525192 271.908295 -8.848400 0.000000
-114.041885 271.908295 -8.848400 0.210896
-100.558594 271.908295 -8.848400 0.235120
-87.075287 271.908295 -8.848400 0.277054
-73.591980 271.908295 -8.848400 0.311560
-60.108704 271.908295 -8.848400 0.337429
-46.625397 271.908295 -8.848400 0.361007
-33.142090 271.908295 -8.848400 0.372900
-19.658783 271.908295 -8.848400 0.378424
-6.175476 271.908295 -8.848400 0.352167
7.307800 271.908295 -8.848400 0.331069
20.791107 271.908295 -8.848400 0.339722
34.274414 271.908295 -8.848400 0.332182
47.757721 271.908295 -8.848400 0.339461
61.240997 271.908295 -8.848400 0.000000
74.724304 271.908295 -8.848400 0.000000
88.207611 271.908295 -8.848400 0.301898
101.690918 271.908295 -8.848400 0.287147
115.174225 271.908295 -8.848400 0.264695
128.657501 271.908295 -8.848400 0.242700
142.140808 271.908295 -8.848400 0.000000
155.624115 271.908295 -8.848400 0.214849
169.107422 271.908295 -8.848400 0.208346
182.590698 271.908295 -8.848400 0.000000
196.074036 271.908295 -8.848400 0.000000
209.557312 271.908295 -8.848400 0.000000
223.040588 271.908295 -8.848400 0.000000
236.523926 271.908295 -8.848400 0.000000
250.007202 271.908295 -8.848400 0.000000
263.490540 271.908295 -8.848400 0.000000
276.973816 271.908295 -8.848400 0.000000
290.457092 271.908295 -8.848400 0.000000
303.940430 271.908295 -8.848400 0.000000
317.423706 271.908295 -8.848400 0.000000
330.907043 271.908295 -8.848400 0.000000
344.390320 271.908295 -8.848400 0.000000
-343.257996 258.424988 -8.848400 0.000000
-329.774689 258.424988 -8.848400 0.000000
-316.291382 258.424988 -8.848400 0.000000
-302.808105 258.424988 -8.848400 0.000000
-289.324799 258.424988 -8.848400 0.000000
-275.841492 258.424988 -8.848400 0.000000
-262.358185 258.424988 -8.848400 0.000000
-248.874893 258.424988 -8.848400 0.000000
-235.391602 258.424988 -8.848400 0.000000
-221.908295 258.424988 -8.848400 0.000000
-208.424988 258.424988 -8.848400 0.000000
-194.941696 258.424988 -8.848400 0.000000
-181.458389 258.424988 -8.848400 0.000000
-167.975098 258.424988 -8.848400 0.000000
-154.491791 258.424988 -8.848400 0.000000
-141.008499 258.424988 -8.848400 0.000000
-127.525192 258.424988 -8.848400 0.195976
-114.041885 258.424988 -8.848400 0.213794
-100.558594 258.424988 -8.848400 0.257500
-87.075287 258.424988 -8.848400 0.299685
-73.591980 258.424988 -8.848400 0.326849
-60.108704 258.424988 -8.848400 0.366792
-46.625397 258.424988 -8.848400 0.374956
-33.142090 258.424988 -8.848400 0.388887
-19.658783 258.424988 -8.848400 0.388840
-6.175476 258.424988 -8.848400 0.372452
7.307800 258.424988 -8.848400 0.364435
20.791107 258.424988 -8.848400 0.330851
34.274414 258.424988 -8.848400 0.000000
47.757721 258.424988 -8.848400 0.000000
61.240997 258.424988 -8.848400 0.000000
74.724304 258.424988 -8.848400 0.000000
88.207611 258.424988 -8.848400 0.287844
101.690918 258.424988 -8.848400 0.286464
115.174225 258.424988 -8.848400 0.266545
128.657501 258.424988 -8.848400 0.251986
142.140808 258.424988 -8.848400 0.239032
155.624115 258.424988 -8.848400 0.224300
169.107422 258.424988 -8.848400 0.208650
182.590698 258.424988 -8.848400 0.199398
196.074036 258.424988 -8.848400 0.000000
209.557312 258.424988 -8.848400 0.000000
223.040588 258.424988 -8.848400 0.000000
236.523926 258.424988 -8.848400 0.000000
250.007202 258.424988 -8.848400 0.000000
263.490540 258.424988 -8.848400 0.000000
276.973816 258.424988 -8.848400 0.000000
290.457092 258.424988 -8.848400 0.000000
303.940430 258.424988 -8.848400 0.000000
317.423706 258.424988 -8.848400 0.000000
330.907043 258.424988 -8.848400 0.000000
344.390320 258.424988 -8.848400 0.000000
-343.257996 244.941696 -8.848400 0.000000
-329.774689 244.941696 -8.848400 0.000000
-316.291382 244.941696 -8.848400 0.000000
-302.808105 244.941696 -8.848400 0.000000
-289.324799 244.941696 -8.848400 0.000000
-275.841492 244.941696 -8.848400 0.000000
-262.358185 244.941696 -8.848400 0.000000
-248.874893 244.941696 -8.848400 0.000000
-235.391602 244.941696 -8.848400 0.000000
-221.908295 244.941696 -8.848400 0.000000
-208.424988 244.941696 -8.848400 0.000000
-194.941696 244.941696 -8.848400 0.000000
-181.458389 244.941696 -8.848400 0.000000
-167.975098 244.941696 -8.848400 0.000000
-154.491791 244.941696 -8.848400 0.000000
-141.008499 244.941696 -8.848400 0.000000
-127.525192 244.941696 -8.848400 0.201095
-114.041885 244.941696 -8.848400 0.229410
-100.558594 244.941696 -8.848400 0.269648
-87.075287 244.941696 -8.848400 0.329714
-73.591980 244.941696 -8.848400 0.373747
-60.108704 244.941696 -8.848400 0.386791
-46.625397 244.941696 -8.848400 0.397805
-33.142090 244.941696 -8.848400 0.394711
-19.658783 244.941696 -8.848400 0.420855
-6.175476 244.941696 -8.848400 0.396125
7.307800 244.941696 -8.848400 0.361417
20.791107 244.941696 -8.848400 0.326736
34.274414 244.941696 -8.848400 0.338773
47.757721 244.941696 -8.848400 0.000000
61.240997 244.941696 -8.848400 0.000000
74.724304 244.941696 -8.848400 0.000000
88.207611 244.941696 -8.848400 0.278603
101.690918 244.941696 -8.848400 0.268440
115.174225 244.941696 -8.848400 0.000000
128.657501 244.941696 -8.848400 0.000000
142.140808 244.941696 -8.848400 0.000000
155.624115 244.941696 -8.848400 0.000000
169.107422 244.941696 -8.848400 0.208097
182.590698 244.941696 -8.848400 0.191606
196.074036 244.941696 -8.848400 0.187958
209.557312 244.941696 -8.848400 0.000000
223.040588 244.941696 -8.848400 0.000000
236.523926 244.941696 -8.848400 0.000000
250.007202 244.941696 -8.848400 0.000000
263.490540 244.941696 -8.848400 0.000000
276.973816 244.941696 -8.848400 0.000000
290.457092 244.941696 -8.848400 0.000000
303.940430 244.941696 -8.848400 0.000000
317.423706 244.941696 -8.848400 0.000000
330.907043 244.941696 -8.848400 0.000000
344.390320 244.941696 -8.848400 0.000000
-343.257996 231.458389 -8.848400 0.000000
-329.774689 231.458389 -8.848400 0.000000
-316.291382 231.458389 -8.848400 0.000000
-302.808105 231.458389 -8.848400 0.000000
-289.324799 231.458389 -8.848400 0.000000
-275.841492 231.458389 -8.848400 0.000000
-262.358185 231.458389 -8.848400 0.000000
-248.874893 231.458389 -8.848400 0.000000
-235.391602 231.458389 -8.848400 0.000000
-221.908295 231.458389 -8.848400 0.000000
-208.424988 231.458389 -8.848400 0.000000
-194.941696 231.458389 -8.848400 0.000000
-181.458389 231.458389 -8.848400 0.000000
-167.975098 231.458389 -8.848400 0.000000
-154.491791 231.458389 -8.848400 0.000000
-141.008499 231.458389 -8.848400 0.000000
-127.525192 231.458389 -8.848400 0.215218
-114.041885 231.458389 -8.848400 0.253567
-100.558594 231.458389 -8.848400 0.300069
-87.075287 231.458389 -8.848400 0.339922
-73.591980 231.458389 -8.848400 0.399413
-60.108704 231.458389 -8.848400 0.397063
-46.625397 231.458389 -8.848400 0.398278
-33.142090 231.458389 -8.848400 0.417181
-19.658783 231.458389 -8.848400 0.422759
-6.175476 231.458389 -8.848400 0.403582
7.307800 231.458389 -8.848400 0.376577
20.791107 231.458389 -8.848400 0.366442
34.274414 231.458389 -8.848400 0.343748
47.757721 231.458389 -8.848400 0.000000
61.240997 231.458389 -8.848400 0.000000
74.724304 231.458389 -8.848400 0.314141
88.207611 231.458389 -8.848400 0.296968
101.690918 231.458389 -8.848400 0.279253
115.174225 231.458389 -8.848400 0.000000
128.657501 231.458389 -8.848400 0.000000
142.140808 231.458389 -8.848400 0.247991
155.624115 231.458389 -8.848400 0.234210
169.107422 231.458389 -8.848400 0.229553
182.590698 231.458389 -8.848400 0.201443
196.074036 231.458389 -8.848400 0.187791
209.557312 231.458389 -8.848400 0.000000
223.040588 231.458389 -8.848400 0.000000
236.523926 231.458389 -8.848400 0.000000
250.007202 231.458389 -8.848400 0.000000
263.490540 231.458389 -8.848400 0.000000
276.973816 231.458389 -8.848400 0.000000
290.457092 231.458389 -8.848400 0.000000
303.940430 231.458389 -8.848400 0.000000
317.423706 231.458389 -8.848400 0.000000
330.907043 231.458389 -8.848400 0.000000
344.390320 231.458389 -8.848400 0.000000
-343.257996 217.975098 -8.848400 0.000000
-329.774689 217.975098 -8.848400 0.000000
-316.291382 217.975098 -8.848400 0.000000
-302.808105 217.975098 -8.848400 0.000000
-289.324799 217.975098 -8.848400 0.000000
-275.841492 217.975098 -8.848400 0.000000
-262.358185 217.975098 -8.848400 0.000000
-248.874893 217.975098 -8.848400 0.000000
-235.391602 217.975098 -8.848400 0.000000
-221.908295 217.975098 -8.848400 0.000000
-208.424988 217.975098 -8.848400 0.000000
-194.941696 217.975098 -8.848400 0.000000
-181.458389 217.975098 -8.848400 0.000000
-167.975098 217.975098 -8.848400 0.000000
-154.491791 217.975098 -8.848400 0.000000
-141.008499 217.975098 -8.848400 0.207464
-127.525192 217.975098 -8.848400 0.251633
-114.041885 217.975098 -8.848400 0.293868
-100.558594 217.975098 -8.848400 0.345434
-87.075287 217.975098 -8.848400 0.379575
-73.591980 217.975098 -8.848400 0.408329
-60.108704 217.975098 -8.848400 0.412509
-46.625397 217.975098 -8.848400 0.417698
-33.142090 217.975098 -8.848400 0.436924
-19.658783 217.975098 -8.848400 0.427242
-6.175476 217.975098 -8.848400 0.434459
7.307800 217.975098 -8.848400 0.371973
20.791107 217.975098 -8.848400 0.360755
34.274414 217.975098 -8.848400 0.338730
47.757721 217.975098 -8.848400 0.000000
61.240997 217.975098 -8.848400 0.323045
74.724304 217.975098 -8.848400 0.302131
88.207611 217.975098 -8.848400 0.299916
101.690918 217.975098 -8.848400 0.295018
115.174225 217.975098 -8.848400 0.000000
128.657501 217.975098 -8.848400 0.259334
142.140808 217.975098 -8.848400 0.251909
155.624115 217.975098 -8.848400 0.242684
169.107422 217.975098 -8.848400 0.225125
182.590698 217.975098 -8.848400 0.200691
196.074036 217.975098 -8.848400 0.000000
209.557312 217.975098 -8.848400 0.000000
223.040588 217.975098 -8.848400 0.000000
236.523926 217.975098 -8.848400 0.000000
250.007202 217.975098 -8.848400 0.000000
263.490540 217.975098 -8.848400 0.000000
276.973816 217.975098 -8.848400 0.000000
290.457092 217.975098 -8.848400 0.000000
303.940430 217.975098 -8.848400 0.000000
317.423706 217.975098 -8.848400 0.000000
330.907043 217.975098 -8.848400 0.000000
344.390320 217.975098 -8.848400 0.000000
-343.257996 204.491791 -8.848400 0.000000
-329.774689 204.491791 -8.848400 0.000000
-316.291382 204.491791 -8.848400 0.000000
-302.808105 204.491791 -8.848400 0.000000
-289.324799 204.491791 -8.848400 0.000000
-275.841492 204.491791 -8.848400 0.000000
-262.358185 204.491791 -8.848400 0.000000
-248.874893 204.491791 -8.848400 0.000000
-235.391602 204.491791 -8.848400 0.000000
-221.908295 204.491791 -8.848400 0.000000
-208.424988 204.491791 -8.848400 0.000000
-194.941696 204.491791 -8.848400 0.000000
-181.458389 204.491791 -8.848400 0.000000
-167.975098 204.491791 -8.848400 0.000000
-154.491791 204.491791 -8.848400 0.000000
-141.008499 204.491791 -8.848400 0.255403
-127.525192 204.491791 -8.848400 0.279152
-114.041885 204.491791 -8.848400 0.312626
-100.558594 204.491791 -8.848400 0.372817
-87.075287 204.491791 -8.848400 0.431880
-73.591980 204.491791 -8.848400 0.440749
-60.108704 204.491791 -8.848400 0.458791
-46.625397 204.491791 -8.848400 0.465650
-33.142090 204.491791 -8.848400 0.468985
-19.658783 204.491791 -8.848400 0.435640
-6.175476 204.491791 -8.848400 0.424018
7.307800 204.491791 -8.848400 0.393662
20.791107 204.491791 -8.848400 0.345166
34.274414 204.491791 -8.848400 0.325061
47.757721 204.491791 -8.848400 0.311620
61.240997 204.491791 -8.848400 0.315279
74.724304 204.491791 -8.848400 0.289166
88.207611 204.491791 -8.848400 0.283885
101.690918 204.491791 -8.848400 0.287799
115.174225 204.491791 -8.848400 0.276126
128.657501 204.491791 -8.848400 0.254360
142.140808 204.491791 -8.848400 0.242814
155.624115 204.491791 -8.848400 0.226677
169.107422 204.491791 -8.848400 0.209149
182.590698 204.491791 -8.848400 0.000000
196.074036 204.491791 -8.848400 0.000000
209.557312 204.491791 -8.848400 0.000000
223.040588 204.491791 -8.848400 0.000000
236.523926 204.491791 -8.848400 0.000000
250.007202 204.491791 -8.848400 0.000000
263.490540 204.491791 -8.848400 0.000000
276.973816 204.491791 -8.848400 0.000000
290.457092 204.491791 -8.848400 0.000000
303.940430 204.491791 -8.848400 0.000000
317.423706 204.491791 -8.848400 0.000000
330.907043 204.491791 -8.848400 0.000000
344.390320 204.491791 -8.848400 0.000000
-343.257996 191.008499 -8.848400 0.000000
-329.774689 191.008499 -8.848400 0.000000
-316.291382 191.008499 -8.848400 0.000000
-302.808105 191.008499 -8.848400 0.000000
-289.324799 191.008499 -8.848400 0.000000
-275.841492 191.008499 -8.848400 0.000000
-262.358185 191.008499 -8.848400 0.000000
-248.874893 191.008499 -8.848400 0.000000
-235.391602 191.008499 -8.848400 0.000000
-221.908295 191.008499 -8.848400 0.000000
-208.424988 191.008499 -8.848400 0.000000
-194.941696 191.008499 -8.848400 0.000000
-181.458389 191.008499 -8.848400 0.000000
-167.975098 191.008499 -8.848400 0.000000
-154.491791 191.008499 -8.848400 0.000000
-141.008499 191.008499 -8.848400 0.316555
-127.525192 191.008499 -8.848400 0.347910
-114.041885 191.008499 -8.848400 0.374546
-100.558594 191.008499 -8.848400 0.418876
-87.075287 191.008499 -8.848400 0.489227
-73.591980 191.008499 -8.848400 0.505028
-60.108704 191.008499 -8.848400 0.519895
-46.625397 191.008499 -8.848400 0.495393
-33.142090 191.008499 -8.848400 0.453981
-19.658783 191.008499 -8.848400 0.447229
-6.175476 191.008499 -8.848400 0.409192
7.307800 191.008499 -8.848400 0.373516
20.791107 191.008499 -8.848400 0.336387
34.274414 191.008499 -8.848400 0.328279
47.757721 191.008499 -8.848400 0.327002
61.240997 191.008499 -8.848400 0.306806
74.724304 191.008499 -8.848400 0.300173
88.207611 191.008499 -8.848400 0.283030
101.690918 191.008499 -8.848400 0.265568
115.174225 191.008499 -8.848400 0.254716
128.657501 191.008499 -8.848400 0.244091
142.140808 191.008499 -8.848400 0.217891
155.624115 191.008499 -8.848400 0.196270
169.107422 191.008499 -8.848400 0.168417
182.590698 191.008499 -8.848400 0.000000
196.074036 191.008499 -8.848400 0.000000
209.557312 191.008499 -8.848400 0.000000
223.040588 191.008499 -8.848400 0.000000
236.523926 191.008499 -8.848400 0.000000
250.007202 191.008499 -8.848400 0.000000
263.490540 191.008499 -8.848400 0.000000
276.973816 191.008499 -8.848400 0.000000
290.457092 191.008499 -8.848400 0.000000
303.940430 191.008499 -8.848400 0.000000
317.423706 191.008499 -8.848400 0.000000
330.907043 191.008499 -8.848400 0.000000
344.390320 191.008499 -8.848400 0.000000
-343.257996 177.525192 -8.848400 0.000000
-329.774689 177.525192 -8.848400 0.000000
-316.291382 177.525192 -8.848400 0.000000
-302.808105 177.525192 -8.848400 0.000000
-289.324799 177.525192 -8.848400 0.000000
-275.841492 177.525192 -8.848400 0.000000
-262.358185 177.525192 -8.848400 0.000000
-248.874893 177.525192 -8.848400 0.000000
-235.391602 177.525192 -8.848400 0.000000
-221.908295 177.525192 -8.848400 0.000000
-208.424988 177.525192 -8.848400 0.000000
-194.941696 177.525192 -8.848400 0.000000
-181.458389 177.525192 -8.848400 0.000000
-167.975098 177.525192 -8.848400 0.000000
-154.491791 177.525192 -8.848400 0.000000
-141.008499 177.525192 -8.848400 0.366371
-127.525192 177.525192 -8.848400 0.405891
-114.041885 177.525192 -8.848400 0.447240
-100.558594 177.525192 -8.848400 0.481897
-87.075287 177.525192 -8.848400 0.515317
-73.591980 177.525192 -8.848400 0.531494
-60.108704 177.525192 -8.848400 0.559274
-46.625397 177.525192 -8.848400 0.513724
-33.142090 177.525192 -8.848400 0.468922
-19.658783 177.525192 -8.848400 0.441530
-6.175476 177.525192 -8.848400 0.411119
7.307800 177.525192 -8.848400 0.370432
20.791107 177.525192 -8.848400 0.346361
34.274414 177.525192 -8.848400 0.355727
47.757721 177.525192 -8.848400 0.352146
61.240997 177.525192 -8.848400 0.338401
74.724304 177.525192 -8.848400 0.298889
88.207611 177.525192 -8.848400 0.289116
101.690918 177.525192 -8.848400 0.264355
115.174225 177.525192 -8.848400 0.234422
128.657501 177.525192 -8.848400 0.202432
142.140808 177.525192 -8.848400 0.181811
155.624115 177.525192 -8.848400 0.157560
169.107422 177.525192 -8.848400 0.000000
182.590698 177.525192 -8.848400 0.000000
196.074036 177.525192 -8.848400 0.000000
209.557312 177.525192 -8.848400 0.000000
223.040588 177.525192 -8.848400 0.000000
236.523926 177.525192 -8.848400 0.000000
250.007202 177.525192 -8.848400 0.000000
263.490540 177.525192 -8.848400 0.000000
276.973816 177.525192 -8.848400 0.000000
290.457092 177.525192 -8.848400 0.000000
303.940430 177.525192 -8.848400 0.000000
317.423706 177.525192 -8.848400 0.000000
330.907043 177.525192 -8.848400 0.000000
344.390320 177.525192 -8.848400 0.000000
-343.257996 164.041885 -8.848400 0.000000
-329.774689 164.041885 -8.848400 0.000000
-316.291382 164.041885 -8.848400 0.000000
-302.808105 164.041885 -8.848400 0.000000
-289.324799 164.041885 -8.848400 0.000000
-275.841492 164.041885 -8.848400 0.000000
-262.358185 164.041885 -8.848400 0.000000
-248.874893 164.041885 -8.848400 0.000000
-235.391602 164.041885 -8.848400 0.000000
-221.908295 164.041885 -8.848400 0.000000
-208.424988 164.041885 -8.848400 0.000000
-194.941696 164.041885 -8.848400 0.000000
-181.458389 164.041885 -8.848400 0.000000
-167.975098 164.041885 -8.848400 0.000000
-154.491791 164.041885 -8.848400 0.000000
-141.008499 164.041885 -8.848400 0.450001
-127.525192 164.041885 -8.848400 0.488138
-114.041885 164.041885 -8.848400 0.510628
-100.558594 164.041885 -8.848400 0.564337
-87.075287 164.041885 -8.848400 0.569154
-73.591980 164.041885 -8.848400 0.570386
-60.108704 164.041885 -8.848400 0.575358
-46.625397 164.041885 -8.848400 0.535053
-33.142090 164.041885 -8.848400 0.497765
-19.658783 164.041885 -8.848400 0.461704
-6.175476 164.041885 -8.848400 0.435982
7.307800 164.041885 -8.848400 0.406889
20.791107 164.041885 -8.848400 0.388666
34.274414 164.041885 -8.848400 0.366874
47.757721 164.041885 -8.848400 0.354059
61.240997 164.041885 -8.848400 0.320844
74.724304 164.041885 -8.848400 0.309943
88.207611 164.041885 -8.848400 0.279948
101.690918 164.041885 -8.848400 0.244088
115.174225 164.041885 -8.848400 0.210963
128.657501 164.041885 -8.848400 0.187385
142.140808 164.041885 -8.848400 0.000000
155.624115 164.041885 -8.848400 0.000000
169.107422 164.041885 -8.848400 0.000000
182.590698 164.041885 -8.848400 0.000000
196.074036 164.041885 -8.848400 0.000000
209.557312 164.041885 -8.848400 0.000000
223.040588 164.041885 -8.848400 0.000000
236.523926 164.041885 -8.848400 0.000000
250.007202 164.041885 -8.848400 0.000000
263.490540 164.041885 -8.848400 0.000000
276.973816 164.041885 -8.848400 0.000000
290.457092 164.041885 -8.848400 0.000000
303.940430 164.041885 -8.848400 0.000000
317.423706 164.041885 -8.848400 0.000000
330.907043 164.041885 -8.848400 0.000000
344.390320 164.041885 -8.848400 0.000000
-343.257996 150.558594 -8.848400 0.000000
-329.774689 150.558594 -8.848400 0.000000
-316.291382 150.558594 -8.848400 0.000000
-302.808105 150.558594 -8.848400 0.000000
-289.324799 150.558594 -8.848400 0.000000
-275.841492 150.558594 -8.848400 0.000000
-262.358185 150.558594 -8.848400 0.000000
-248.874893 150.558594 -8.848400 0.000000
-235.391602 150.558594 -8.848400 0.000000
-221.908295 150.558594 -8.848400 0.000000
-208.424988 150.558594 -8.848400 0.000000
-194.941696 150.558594 -8.848400 0.000000
-181.458389 150.558594 -8.848400 0.000000
-167.975098 150.558594 -8.848400 0.000000
-154.491791 150.558594 -8.848400 0.000000
-141.008499 150.558594 -8.848400 0.514277
-127.525192 150.558594 -8.848400 0.540266
-114.041885 150.558594 -8.848400 0.577289
-100.558594 150.558594 -8.848400 0.595566
-87.075287 150.558594 -8.848400 0.575787
-73.591980 150.558594 -8.848400 0.596413
-60.108704 150.558594 -8.848400 0.579981
-46.625397 150.558594 -8.848400 0.569510
-33.142090 150.558594 -8.848400 0.506072
-19.658783 150.558594 -8.848400 0.476360
-6.175476 150.558594 -8.848400 0.437210
7.307800 150.558594 -8.848400 0.400176
20.791107 150.558594 -8.848400 0.375803
34.274414 150.558594 -8.848400 0.351217
47.757721 150.558594 -8.848400 0.354222
61.240997 150.558594 -8.848400 0.328779
74.724304 150.558594 -8.848400 0.288681
88.207611 150.558594 -8.848400 0.254733
101.690918 150.558594 -8.848400 0.225771
115.174225 150.558594 -8.848400 0.195061
128.657501 150.558594 -8.848400 0.000000
142.140808 150.558594 -8.848400 0.000000
155.624115 150.558594 -8.848400 0.000000
169.107422 150.558594 -8.848400 0.000000
182.590698 150.558594 -8.848400 0.000000
196.074036 150.558594 -8.848400 0.000000
209.557312 150.558594 -8.848400 0.000000
223.040588 150.558594 -8.848400 0.000000
236.523926 150.558594 -8.848400 0.000000
250.007202 150.558594 -8.848400 0.000000
263.490540 150.558594 -8.848400 0.000000
276.973816 150.558594 -8.848400 0.000000
290.457092 150.558594 -8.848400 0.000000
303.940430 150.558594 -8.848400 0.000000
317.423706 150.558594 -8.848400 0.000000
330.907043 150.558594 -8.848400 0.000000
344.390320 150.558594 -8.848400 0.000000
-343.257996 137.075287 -8.848400 0.000000
-329.774689 137.075287 -8.848400 0.000000
-316.291382 137.075287 -8.848400 0.000000
-302.808105 137.075287 -8.848400 0.000000
-289.324799 137.075287 -8.848400 0.000000
-275.841492 137.075287 -8.848400 0.000000
-262.358185 137.075287 -8.848400 0.000000
-248.874893 137.075287 -8.848400 0.000000
-235.391602 137.075287 -8.848400 0.000000
-221.908295 137.075287 -8.848400 0.000000
-208.424988 137.075287 -8.848400 0.000000
-194.941696 137.075287 -8.848400 0.000000
-181.458389 137.075287 -8.848400 0.000000
-167.975098 137.075287 -8.848400 0.000000
-154.491791 137.075287 -8.848400 0.000000
-141.008499 137.075287 -8.848400 0.566411
-127.525192 137.075287 -8.848400 0.599923
-114.041885 137.075287 -8.848400 0.643050
-100.558594 137.075287 -8.848400 0.651244
-87.075287 137.075287 -8.848400 0.632028
-73.591980 137.075287 -8.848400 0.623214
-60.108704 137.075287 -8.848400 0.604091
-46.625397 137.075287 -8.848400 0.546763
-33.142090 137.075287 -8.848400 0.505641
-19.658783 137.075287 -8.848400 0.447200
-6.175476 137.075287 -8.848400 0.399125
7.307800 137.075287 -8.848400 0.356346
20.791107 137.075287 -8.848400 0.350438
34.274414 137.075287 -8.848400 0.344030
47.757721 137.075287 -8.848400 0.319679
61.240997 137.075287 -8.848400 0.295197
74.724304 137.075287 -8.848400 0.257271
88.207611 137.075287 -8.848400 0.232263
101.690918 137.075287 -8.848400 0.000000
115.174225 137.075287 -8.848400 0.000000
128.657501 137.075287 -8.848400 0.000000
142.140808 137.075287 -8.848400 0.000000
155.624115 137.075287 -8.848400 0.000000
169.107422 137.075287 -8.848400 0.000000
182.590698 137.075287 -8.848400 0.000000
196.074036 137.075287 -8.848400 0.000000
209.557312 137.075287 -8.848400 0.000000
223.040588 137.075287 -8.848400 0.000000
236.523926 137.075287 -8.848400 0.000000
250.007202 137.075287 -8.848400 0.000000
263.490540 137.075287 -8.848400 0.000000
276.973816 137.075287 -8.848400 0.000000
290.457092 137.075287 -8.848400 0.000000
303.940430 137.075287 -8.848400 0.000000
317.423706 137.075287 -8.848400 0.000000
330.907043 137.075287 -8.848400 0.000000
344.390320 137.075287 -8.848400 0.000000
-343.257996 123.591980 -8.848400 0.000000
-329.774689 123.591980 -8.848400 0.000000
-316.291382 123.591980 -8.848400 0.000000
-302.808105 123.591980 -8.848400 0.000000
-289.324799 123.591980 -8.848400 0.000000
-275.841492 123.591980 -8.848400 0.000000
-262.358185 123.591980 -8.848400 0.000000
-248.874893 123.591980 -8.848400 0.000000
-235.391602 123.591980 -8.848400 0.000000
-221.908295 123.591980 -8.848400 0.000000
-208.424988 123.591980 -8.848400 0.000000
-194.941696 123.591980 -8.848400 0.000000
-181.458389 123.591980 -8.848400 0.000000
-167.975098 123.591980 -8.848400 0.000000
-154.491791 123.591980 -8.848400 0.000000
-141.008499 123.591980 -8.848400 0.588539
-127.525192 123.591980 -8.848400 0.644349
-114.041885 123.591980 -8.848400 0.676221
-100.558594 123.591980 -8.848400 0.712947
-87.075287 123.591980 -8.848400 0.649589
-73.591980 123.591980 -8.848400 0.634161
-60.108704 123.591980 -8.848400 0.623921
-46.625397 123.591980 -8.848400 0.550429
-33.142090 123.591980 -8.848400 0.493040
-19.658783 123.591980 -8.848400 0.430369
-6.175476 123.591980 -8.848400 0.398664
7.307800 123.591980 -8.848400 0.360533
20.791107 123.591980 -8.848400 0.340333
34.274414 123.591980 -8.848400 0.309561
47.757721 123.591980 -8.848400 0.309765
61.240997 123.591980 -8.848400 0.270651
74.724304 123.591980 -8.848400 0.225005
88.207611 123.591980 -8.848400 0.000000
101.690918 123.591980 -8.848400 0.000000
115.174225 123.591980 -8.848400 0.000000
128.657501 123.591980 -8.848400 0.000000
142.140808 123.591980 -8.848400 0.000000
155.624115 123.591980 -8.848400 0.000000
169.107422 123.591980 -8.848400 0.000000
182.590698 123.591980 -8.848400 0.000000
196.074036 123.591980 -8.848400 0.000000
209.557312 123.591980 -8.848400 0.000000
223.040588 123.591980 -8.848400 0.000000
236.523926 123.591980 -8.848400 0.000000
250.007202 123.591980 -8.848400 0.000000
263.490540 123.591980 -8.848400 0.000000
276.973816 123.591980 -8.848400 0.000000
290.457092 123.591980 -8.848400 0.000000
303.940430 123.591980 -8.848400 0.000000
317.423706 123.591980 -8.848400 0.000000
330.907043 123.591980 -8.848400 0.000000
344.390320 123.591980 -8.848400 0.000000
-343.257996 110.108704 -8.848400 0.000000
-329.774689 110.108704 -8.848400 0.000000
-316.291382 110.108704 -8.848400 0.000000
-302.808105 110.108704 -8.848400 0.000000
-289.324799 110.108704 -8.848400 0.000000
-275.841492 110.108704 -8.848400 0.000000
-262.358185 110.108704 -8.848400 0.000000
-248.874893 110.108704 -8.848400 0.000000
-235.391602 110.108704 -8.848400 0.000000
-221.908295 110.108704 -8.848400 0.000000
-208.424988 110.108704 -8.848400 0.000000
-194.941696 110.108704 -8.848400 0.000000
-181.458389 110.108704 -8.848400 0.000000
-167.975098 110.108704 -8.848400 0.000000
-154.491791 110.108704 -8.848400 0.000000
-141.008499 110.108704 -8.848400 0.648820
-127.525192 110.108704 -8.848400 0.690859
-114.041885 110.108704 -8.848400 0.695391
-100.558594 110.108704 -8.848400 0.696616
-87.075287 110.108704 -8.848400 0.704125
-73.591980 110.108704 -8.848400 0.681332
-60.108704 110.108704 -8.848400 0.612544
-46.625397 110.108704 -8.848400 0.553227
-33.142090 110.108704 -8.848400 0.477194
-19.658783 110.108704 -8.848400 0.402451
-6.175476 110.108704 -8.848400 0.381329
7.307800 110.108704 -8.848400 0.342152
20.791107 110.108704 -8.848400 0.309112
34.274414 110.108704 -8.848400 0.298798
47.757721 110.108704 -8.848400 0.278239
61.240997 110.108704 -8.848400 0.244758
74.724304 110.108704 -8.848400 0.000000
88.207611 110.108704 -8.848400 0.000000
101.690918 110.108704 -8.848400 0.000000
115.174225 110.108704 -8.848400 0.000000
128.657501 110.108704 -8.848400 0.000000
142.140808 110.108704 -8.848400 0.000000
155.624115 110.108704 -8.848400 0.000000
169.107422 110.108704 -8.848400 0.000000
182.590698 110.108704 -8.848400 0.000000
196.074036 110.108704 -8.848400 0.000000
209.557312 110.108704 -8.848400 0.000000
223.040588 110.108704 -8.848400 0.000000
236.523926 110.108704 -8.848400 0.000000
250.007202 110.108704 -8.848400 0.000000
263.490540 110.108704 -8.848400 0.000000
276.973816 110.108704 -8.848400 0.000000
290.457092 110.108704 -8.848400 0.000000
303.940430 110.108704 -8.848400 0.000000
317.423706 110.108704 -8.848400 0.000000
330.907043 110.108704 -8.848400 0.000000
344.390320 110.108704 -8.848400 0.000000
-343.257996 96.625397 -8.848400 0.000000
-329.774689 96.625397 -8.848400 0.000000
-316.291382 96.625397 -8.848400 0.000000
-302.808105 96.625397 -8.848400 0.000000
-289.324799 96.625397 -8.848400 0.000000
-275.841492 96.625397 -8.848400 0.000000
-262.358185 96.625397 -8.848400 0.000000
-248.874893 96.625397 -8.848400 0.000000
-235.391602 96.625397 -8.848400 0.000000
-221.908295 96.625397 -8.848400 0.000000
-208.424988 96.625397 -8.848400 0.000000
-194.941696 96.625397 -8.848400 0.000000
-181.458389 96.625397 -8.848400 0.000000
-167.975098 96.625397 -8.848400 0.000000
-154.491791 96.625397 -8.848400 0.000000
-141.008499 96.625397 -8.848400 0.677226
-127.525192 96.625397 -8.848400 0.713241
-114.041885 96.625397 -8.848400 0.721067
-100.558594 96.625397 -8.848400 0.724699
-87.075287 96.625397 -8.848400 0.699796
-73.591980 96.625397 -8.848400 0.659549
-60.108704 96.625397 -8.848400 0.606616
-46.625397 96.625397 -8.848400 0.534690
-33.142090 96.625397 -8.848400 0.487262
-19.658783 96.625397 -8.848400 0.439740
-6.175476 96.625397 -8.848400 0.397741
7.307800 96.625397 -8.848400 0.362681
20.791107 96.625397 -8.848400 0.324509
34.274414 96.625397 -8.848400 0.300187
47.757721 96.625397 -8.848400 0.275842
61.240997 96.625397 -8.848400 0.216779
74.724304 96.625397 -8.848400 0.000000
88.207611 96.625397 -8.848400 0.000000
101.690918 96.625397 -8.848400 0.000000
115.174225 96.625397 -8.848400 0.000000
128.657501 96.625397 -8.848400 0.000000
142.140808 96.625397 -8.848400 0.000000
155.624115 96.625397 -8.848400 0.000000
169.107422 96.625397 -8.848400 0.000000
182.590698 96.625397 -8.848400 0.000000
196.074036 96.625397 -8.848400 0.000000
209.557312 96.625397 -8.848400 0.000000
223.040588 96.625397 -8.848400 0.000000
236.523926 96.625397 -8.848400 0.000000
250.007202 96.625397 -8.848400 0.000000
263.490540 96.625397 -8.848400 0.000000
276.973816 96.625397 -8.848400 0.000000
290.457092 96.625397 -8.848400 0.000000
303.940430 96.625397 -8.848400 0.000000
317.423706 96.625397 -8.848400 0.000000
330.907043 96.625397 -8.848400 0.000000
344.390320 96.625397 -8.848400 0.000000
-343.257996 83.142090 -8.848400 0.000000
-329.774689 83.142090 -8.848400 0.000000
-316.291382 83.142090 -8.848400 0.000000
-302.808105 83.142090 -8.848400 0.000000
-289.324799 83.142090 -8.848400 0.000000
-275.841492 83.142090 -8.848400 0.000000
-262.358185 83.142090 -8.848400 0.000000
-248.874893 83.142090 -8.848400 0.000000
-235.391602 83.142090 -8.848400 0.000000
-221.908295 83.142090 -8.848400 0.000000
-208.424988 83.142090 -8.848400 0.000000
-194.941696 83.142090 -8.848400 0.000000
-181.458389 83.142090 -8.848400 0.000000
-167.975098 83.142090 -8.848400 0.000000
-154.491791 83.142090 -8.848400 0.000000
-141.008499 83.142090 -8.848400 0.698064
-127.525192 83.142090 -8.848400 0.737544
-114.041885 83.142090 -8.848400 0.720470
-100.558594 83.142090 -8.848400 0.709361
-87.075287 83.142090 -8.848400 0.698496
-73.591980 83.142090 -8.848400 0.656216
-60.108704 83.142090 -8.848400 0.600378
-46.625397 83.142090 -8.848400 0.529788
-33.142090 83.142090 -8.848400 0.490537
-19.658783 83.142090 -8.848400 0.450350
-6.175476 83.142090 -8.848400 0.405161
7.307800 83.142090 -8.848400 0.378327
20.791107 83.142090 -8.848400 0.358468
34.274414 83.142090 -8.848400 0.321898
47.757721 83.142090 -8.848400 0.264985
61.240997 83.142090 -8.848400 0.000000
74.724304 83.142090 -8.848400 0.000000
88.207611 83.142090 -8.848400 0.000000
101.690918 83.142090 -8.848400 0.000000
115.174225 83.142090 -8.848400 0.000000
128.657501 83.142090 -8.848400 0.000000
142.140808 83.142090 -8.848400 0.000000
155.624115 83.142090 -8.848400 0.000000
169.107422 83.142090 -8.848400 0.000000
182.590698 83.142090 -8.848400 0.000000
196.074036 83.142090 -8.848400 0.000000
209.557312 83.142090 -8.848400 0.000000
223.040588 83.142090 -8.848400 0.000000
236.523926 83.142090 -8.848400 0.000000
250.007202 83.142090 -8.848400 0.000000
263.490540 83.142090 -8.848400 0.000000
276.973816 83.142090 -8.848400 0.000000
290.457092 83.142090 -8.848400 0.000000
303.940430 83.142090 -8.848400 0.000000
317.423706 83.142090 -8.848400 0.000000
330.907043 83.142090 -8.848400 0.000000
344.390320 83.142090 -8.848400 0.000000
-343.257996 69.658783 -8.848400 0.000000
-329.774689 69.658783 -8.848400 0.000000
-316.291382 69.658783 -8.848400 0.000000
-302.808105 69.658783 -8.848400 0.000000
-289.324799 69.658783 -8.848400 0.000000
-275.841492 69.658783 -8.848400 0.000000
-262.358185 69.658783 -8.848400 0.000000
-248.874893 69.658783 -8.848400 0.000000
-235.391602 69.658783 -8.848400 0.000000
-221.908295 69.658783 -8.848400 0.000000
-208.424988 69.658783 -8.848400 0.000000
-194.941696 69.658783 -8.848400 0.000000
-181.458389 69.658783 -8.848400 0.000000
-167.975098 69.658783 -8.848400 0.000000
-154.491791 69.658783 -8.848400 0.000000
-141.008499 69.658783 -8.848400 0.732908
-127.525192 69.658783 -8.848400 0.772040
-114.041885 69.658783 -8.848400 0.758856
-100.558594 69.658783 -8.848400 0.715143
-87.075287 69.658783 -8.848400 0.673248
-73.591980 69.658783 -8.848400 0.609347
-60.108704 69.658783 -8.848400 0.592965
-46.625397 69.658783 -8.848400 0.523887
-33.142090 69.658783 -8.848400 0.506668
-19.658783 69.658783 -8.848400 0.453025
-6.175476 69.658783 -8.848400 0.433246
7.307800 69.658783 -8.848400 0.407341
20.791107 69.658783 -8.848400 0.396789
34.274414 69.658783 -8.848400 0.345827
47.757721 69.658783 -8.848400 0.291409
61.240997 69.658783 -8.848400 0.000000
74.724304 69.658783 -8.848400 0.000000
88.207611 69.658783 -8.848400 0.000000
101.690918 69.658783 -8.848400 0.000000
115.174225 69.658783 -8.848400 0.000000
128.657501 69.658783 -8.848400 0.000000
142.140808 69.658783 -8.848400 0.000000
155.624115 69.658783 -8.848400 0.000000
169.107422 69.658783 -8.848400 0.000000
182.590698 69.658783 -8.848400 0.000000
196.074036 69.658783 -8.848400 0.000000
209.557312 69.658783 -8.848400 0.000000
223.040588 69.658783 -8.848400 0.000000
236.523926 69.658783 -8.848400 0.000000
250.007202 69.658783 -8.848400 0.000000
263.490540 69.658783 -8.848400 0.000000
276.973816 69.658783 -8.848400 0.000000
290.457092 69.658783 -8.848400 0.000000
303.940430 69.658783 -8.848400 0.000000
317.423706 69.658783 -8.848400 0.000000
330.907043 69.658783 -8.848400 0.000000
344.390320 69.658783 -8.848400 0.000000
-343.257996 56.175476 -8.848400 0.000000
-329.774689 56.175476 -8.848400 0.000000
-316.291382 56.175476 -8.848400 0.000000
-302.808105 56.175476 -8.848400 0.000000
-289.324799 56.175476 -8.848400 0.000000
-275.841492 56.175476 -8.848400 0.000000
-262.358185 56.175476 -8.848400 0.000000
-248.874893 56.175476 -8.848400 0.000000
-235.391602 56.175476 -8.848400 0.000000
-221.908295 56.175476 -8.848400 0.000000
-208.424988 56.175476 -8.848400 0.000000
-194.941696 56.175476 -8.848400 0.000000
-181.458389 56.175476 -8.848400 0.000000
-167.975098 56.175476 -8.848400 0.000000
-154.491791 56.175476 -8.848400 0.000000
-141.008499 56.175476 -8.848400 0.767103
-127.525192 56.175476 -8.848400 0.757866
-114.041885 56.175476 -8.848400 0.711273
-100.558594 56.175476 -8.848400 0.672304
-87.075287 56.175476 -8.848400 0.608746
-73.591980 56.175476 -8.848400 0.574256
-60.108704 56.175476 -8.848400 0.541640
-46.625397 56.175476 -8.848400 0.510843
-33.142090 56.175476 -8.848400 0.473648
-19.658783 56.175476 -8.848400 0.429243
-6.175476 56.175476 -8.848400 0.448851
7.307800 56.175476 -8.848400 0.432199
20.791107 56.175476 -8.848400 0.435619
34.274414 56.175476 -8.848400 0.398724
47.757721 56.175476 -8.848400 0.326863
61.240997 56.175476 -8.848400 0.000000
74.724304 56.175476 -8.848400 0.000000
88.207611 56.175476 -8.848400 0.000000
101.690918 56.175476 -8.848400 0.000000
115.174225 56.175476 -8.848400 0.000000
128.657501 56.175476 -8.848400 0.000000
142.140808 56.175476 -8.848400 0.000000
155.624115 56.175476 -8.848400 0.000000
169.107422 56.175476 -8.848400 0.000000
182.590698 56.175476 -8.848400 0.000000
196.074036 56.175476 -8.848400 0.000000
209.557312 56.175476 -8.848400 0.000000
223.040588 56.175476 -8.848400 0.000000
236.523926 56.175476 -8.848400 0.000000
250.007202 56.175476 -8.848400 0.000000
263.490540 56.175476 -8.848400 0.000000
276.973816 56.175476 -8.848400 0.000000
290.457092 56.175476 -8.848400 0.000000
303.940430 56.175476 -8.848400 0.000000
317.423706 56.175476 -8.848400 0.000000
330.907043 56.175476 -8.848400 0.000000
344.390320 56.175476 -8.848400 0.000000
-343.257996 42.692200 -8.848400 0.000000
-329.774689 42.692200 -8.848400 0.000000
-316.291382 42.692200 -8.848400 0.000000
-302.808105 42.692200 -8.848400 0.000000
-289.324799 42.692200 -8.848400 0.000000
-275.841492 42.692200 -8.848400 0.000000
-262.358185 42.692200 -8.848400 0.000000
-248.874893 42.692200 -8.848400 0.000000
-235.391602 42.692200 -8.848400 0.000000
-221.908295 42.692200 -8.848400 0.000000
-208.424988 42.692200 -8.848400 0.000000
-194.941696 42.692200 -8.848400 0.000000
-181.458389 42.692200 -8.848400 0.000000
-167.975098 42.692200 -8.848400 0.000000
-154.491791 42.692200 -8.848400 0.000000
-141.008499 42.692200 -8.848400 0.733797
-127.525192 42.692200 -8.848400 0.731940
-114.041885 42.692200 -8.848400 0.667564
-100.558594 42.692200 -8.848400 0.643794
-87.075287 42.692200 -8.848400 0.556921
-73.591980 42.692200 -8.848400 0.541737
-60.108704 42.692200 -8.848400 0.533215
-46.625397 42.692200 -8.848400 0.506386
-33.142090 42.692200 -8.848400 0.476862
-19.658783 42.692200 -8.848400 0.422333
-6.175476 42.692200 -8.848400 0.412918
7.307800 42.692200 -8.848400 0.432112
20.791107 42.692200 -8.848400 0.438505
34.274414 42.692200 -8.848400 0.427650
47.757721 42.692200 -8.848400 0.365096
61.240997 42.692200 -8.848400 0.000000
74.724304 42.692200 -8.848400 0.000000
88.207611 42.692200 -8.848400 0.000000
101.690918 42.692200 -8.848400 0.000000
115.174225 42.692200 -8.848400 0.000000
128.657501 42.692200 -8.848400 0.000000
142.140808 42.692200 -8.848400 0.000000
155.624115 42.692200 -8.848400 0.000000
169.107422 42.692200 -8.848400 0.000000
182.590698 42.692200 -8.848400 0.000000
196.074036 42.692200 -8.848400 0.000000
209.557312 42.692200 -8.848400 0.000000
223.040588 42.692200 -8.848400 0.000000
236.523926 42.692200 -8.848400 0.000000
250.007202 42.692200 -8.848400 0.000000
263.490540 42.692200 -8.848400 0.000000
276.973816 42.692200 -8.848400 0.000000
290.457092 42.692200 -8.848400 0.000000
303.940430 42.692200 -8.848400 0.000000
317.423706 42.692200 -8.848400 0.000000
330.907043 42.692200 -8.848400 0.000000
344.390320 42.692200 -8.848400 0.000000
-343.257996 29.208893 -8.848400 0.000000
-329.774689 29.208893 -8.848400 0.000000
-316.291382 29.208893 -8.848400 0.000000
-302.808105 29.208893 -8.848400 0.000000
-289.324799 29.208893 -8.848400 0.000000
-275.841492 29.208893 -8.848400 0.000000
-262.358185 29.208893 -8.848400 0.000000
-248.874893 29.208893 -8.848400 0.000000
-235.391602 29.208893 -8.848400 0.000000
-221.908295 29.208893 -8.848400 0.000000
-208.424988 29.208893 -8.848400 0.000000
-194.941696 29.208893 -8.848400 0.000000
-181.458389 29.208893 -8.848400 0.000000
-167.975098 29.208893 -8.848400 0.000000
-154.491791 29.208893 -8.848400 0.738214
-141.008499 29.208893 -8.848400 0.708133
-127.525192 29.208893 -8.848400 0.668755
-114.041885 29.208893 -8.848400 0.609493
-100.558594 29.208893 -8.848400 0.555264
-87.075287 29.208893 -8.848400 0.509103
-73.591980 29.208893 -8.848400 0.510175
-60.108704 29.208893 -8.848400 0.506482
-46.625397 29.208893 -8.848400 0.486989
-33.142090 29.208893 -8.848400 0.473634
-19.658783 29.208893 -8.848400 0.440846
-6.175476 29.208893 -8.848400 0.430287
7.307800 29.208893 -8.848400 0.432911
20.791107 29.208893 -8.848400 0.424139
34.274414 29.208893 -8.848400 0.411535
47.757721 29.208893 -8.848400 0.378733
61.240997 29.208893 -8.848400 0.000000
74.724304 29.208893 -8.848400 0.000000
88.207611 29.208893 -8.848400 0.000000
101.690918 29.208893 -8.848400 0.000000
115.174225 29.208893 -8.848400 0.000000
128.657501 29.208893 -8.848400 0.000000
142.140808 29.208893 -8.848400 0.000000
155.624115 29.208893 -8.848400 0.000000
169.107422 29.208893 -8.848400 0.000000
182.590698 29.208893 -8.848400 0.000000
196.074036 29.208893 -8.848400 0.000000
209.557312 29.208893 -8.848400 0.000000
223.040588 29.208893 -8.848400 0.000000
236.523926 29.208893 -8.848400 0.000000
250.007202 29.208893 -8.848400 0.000000
263.490540 29.208893 -8.848400 0.000000
276.973816 29.208893 -8.848400 0.000000
290.457092 29.208893 -8.848400 0.000000
303.940430 29.208893 -8.848400 0.000000
317.423706 29.208893 -8.848400 0.000000
330.907043 29.208893 -8.848400 0.000000
344.390320 29.208893 -8.848400 0.000000
-343.257996 15.725586 -8.848400 0.000000
-329.774689 15.725586 -8.848400 0.000000
-316.291382 15.725586 -8.848400 0.000000
-302.808105 15.725586 -8.848400 0.000000
-289.324799 15.725586 -8.848400 0.000000
-275.841492 15.725586 -8.848400 0.000000
-262.358185 15.725586 -8.848400 0.000000
-248.874893 15.725586 -8.848400 0.000000
-235.391602 15.725586 -8.848400 0.000000
-221.908295 15.725586 -8.848400 0.000000
-208.424988 15.725586 -8.848400 0.000000
-194.941696 15.725586 -8.848400 0.000000
-181.458389 15.725586 -8.848400 0.000000
-167.975098 15.725586 -8.848400 0.000000
-154.491791 15.725586 -8.848400 0.762398
-141.008499 15.725586 -8.848400 0.677736
-127.525192 15.725586 -8.848400 0.624364
-114.041885 15.725586 -8.848400 0.569628
-100.558594 15.725586 -8.848400 0.477731
-87.075287 15.725586 -8.848400 0.477765
-73.591980 15.725586 -8.848400 0.457128
-60.108704 15.725586 -8.848400 0.464138
-46.625397 15.725586 -8.848400 0.484608
-33.142090 15.725586 -8.848400 0.414826
-19.658783 15.725586 -8.848400 0.409876
-6.175476 15.725586 -8.848400 0.415827
7.307800 15.725586 -8.848400 0.420989
20.791107 15.725586 -8.848400 0.415726
34.274414 15.725586 -8.848400 0.389113
47.757721 15.725586 -8.848400 0.362783
61.240997 15.725586 -8.848400 0.313774
74.724304 15.725586 -8.848400 0.000000
88.207611 15.725586 -8.848400 0.000000
101.690918 15.725586 -8.848400 0.000000
115.174225 15.725586 -8.848400 0.000000
128.657501 15.725586 -8.848400 0.000000
142.140808 15.725586 -8.848400 0.000000
155.624115 15.725586 -8.848400 0.000000
169.107422 15.725586 -8.848400 0.000000
182.590698 15.725586 -8.848400 0.000000
196.074036 15.725586 -8.848400 0.000000
209.557312 15.725586 -8.848400 0.000000
223.040588 15.725586 -8.848400 0.000000
236.523926 15.725586 -8.848400 0.000000
250.007202 15.725586 -8.848400 0.000000
263.490540 15.725586 -8.848400 0.000000
276.973816 15.725586 -8.848400 0.000000
290.457092 15.725586 -8.848400 0.000000
303.940430 15.725586 -8.848400 0.000000
317.423706 15.725586 -8.848400 0.000000
330.907043 15.725586 -8.848400 0.000000
344.390320 15.725586 -8.848400 0.000000
-343.257996 2.242279 -8.848400 0.000000
-329.774689 2.242279 -8.848400 0.000000
-316.291382 2.242279 -8.848400 0.000000
-302.808105 2.242279 -8.848400 0.000000
-289.324799 2.242279 -8.848400 0.000000
-275.841492 2.242279 -8.848400 0.000000
-262.358185 2.242279 -8.848400 0.000000
-248.874893 2.242279 -8.848400 0.000000
-235.391602 2.242279 -8.848400 0.000000
-221.908295 2.242279 -8.848400 0.000000
-208.424988 2.242279 -8.848400 0.000000
-194.941696 2.242279 -8.848400 0.000000
-181.458389 2.242279 -8.848400 0.000000
-167.975098 2.242279 -8.848400 0.000000
-154.491791 2.242279 -8.848400 0.710410
-141.008499 2.242279 -8.848400 0.653752
-127.525192 2.242279 -8.848400 0.615901
-114.041885 2.242279 -8.848400 0.576259
-100.558594 2.242279 -8.848400 0.486431
-87.075287 2.242279 -8.848400 0.433293
-73.591980 2.242279 -8.848400 0.428118
-60.108704 2.242279 -8.848400 0.405029
-46.625397 2.242279 -8.848400 0.429815
-33.142090 2.242279 -8.848400 0.415753
-19.658783 2.242279 -8.848400 0.397999
-6.175476 2.242279 -8.848400 0.397718
7.307800 2.242279 -8.848400 0.403298
20.791107 2.242279 -8.848400 0.402853
34.274414 2.242279 -8.848400 0.371954
47.757721 2.242279 -8.848400 0.341842
61.240997 2.242279 -8.848400 0.000000
74.724304 2.242279 -8.848400 0.000000
88.207611 2.242279 -8.848400 0.000000
101.690918 2.242279 -8.848400 0.000000
115.174225 2.242279 -8.848400 0.000000
128.657501 2.242279 -8.848400 0.000000
142.140808 2.242279 -8.848400 0.000000
155.624115 2.242279 -8.848400 0.000000
169.107422 2.242279 -8.848400 0.000000
182.590698 2.242279 -8.848400 0.000000
196.074036 2.242279 -8.848400 0.000000
209.557312 2.242279 -8.848400 0.000000
223.040588 2.242279 -8.848400 0.000000
236.523926 2.242279 -8.848400 0.000000
250.007202 2.242279 -8.848400 0.000000
263.490540 2.242279 -8.848400 0.000000
276.973816 2.242279 -8.848400 0.000000
290.457092 2.242279 -8.848400 0.000000
303.940430 2.242279 -8.848400 0.000000
317.423706 2.242279 -8.848400 0.000000
330.907043 2.242279 -8.848400 0.000000
344.390320 2.242279 -8.848400 0.000000
-343.257996 -11.240997 -8.848400 0.000000
-329.774689 -11.240997 -8.848400 0.000000
-316.291382 -11.240997 -8.848400 0.000000
-302.808105 -11.240997 -8.848400 0.000000
-289.324799 -11.240997 -8.848400 0.000000
-275.841492 -11.240997 -8.848400 0.000000
-262.358185 -11.240997 -8.848400 0.000000
-248.874893 -11.240997 -8.848400 0.000000
-235.391602 -11.240997 -8.848400 0.000000
-221.908295 -11.240997 -8.848400 0.000000
-208.424988 -11.240997 -8.848400 0.000000
-194.941696 -11.240997 -8.848400 0.000000
-181.458389 -11.240997 -8.848400 0.000000
-167.975098 -11.240997 -8.848400 0.700196
-154.491791 -11.240997 -8.848400 0.692633
-141.008499 -11.240997 -8.848400 0.632582
-127.525192 -11.240997 -8.848400 0.584123
-114.041885 -11.240997 -8.848400 0.519504
-100.558594 -11.240997 -8.848400 0.463492
-87.075287 -11.240997 -8.848400 0.398358
-73.591980 -11.240997 -8.848400 0.374234
-60.108704 -11.240997 -8.848400 0.363484
-46.625397 -11.240997 -8.848400 0.000000
-33.142090 -11.240997 -8.848400 0.000000
-19.658783 -11.240997 -8.848400 0.000000
-6.175476 -11.240997 -8.848400 0.000000
7.307800 -11.240997 -8.848400 0.364688
20.791107 -11.240997 -8.848400 0.372202
34.274414 -11.240997 -8.848400 0.341109
47.757721 -11.240997 -8.848400 0.000000
61.240997 -11.240997 -8.848400 0.000000
74.724304 -11.240997 -8.848400 0.000000
88.207611 -11.240997 -8.848400 0.000000
101.690918 -11.240997 -8.848400 0.000000
115.174225 -11.240997 -8.848400 0.000000
128.657501 -11.240997 -8.848400 0.000000
142.140808 -11.240997 -8.848400 0.000000
155.624115 -11.240997 -8.848400 0.000000
169.107422 -11.240997 -8.848400 0.000000
182.590698 -11.240997 -8.848400 0.000000
196.074036 -11.240997 -8.848400 0.000000
209.557312 -11.240997 -8.848400 0.000000
223.040588 -11.240997 -8.848400 0.000000
236.523926 -11.240997 -8.848400 0.000000
250.007202 -11.240997 -8.848400 0.000000
263.490540 -11.240997 -8.848400 0.000000
276.973816 -11.240997 -8.848400 0.000000
290.457092 -11.240997 -8.848400 0.000000
303.940430 -11.240997 -8.848400 0.000000
317.423706 -11.240997 -8.848400 0.000000
330.907043 -11.240997 -8.848400 0.000000
344.390320 -11.240997 -8.848400 0.000000
-343.257996 -24.724304 -8.848400 0.000000
-329.774689 -24.724304 -8.848400 0.000000
-316.291382 -24.724304 -8.848400 0.000000
-302.808105 -24.724304 -8.848400 0.000000
-289.324799 -24.724304 -8.848400 0.000000
-275.841492 -24.724304 -8.848400 0.000000
-262.358185 -24.724304 -8.848400 0.000000
-248.874893 -24.724304 -8.848400 0.000000
-235.391602 -24.724304 -8.848400 0.000000
-221.908295 -24.724304 -8.848400 0.000000
-208.424988 -24.724304 -8.848400 0.000000
-194.941696 -24.724304 -8.848400 0.000000
-181.458389 -24.724304 -8.848400 0.000000
-167.975098 -24.724304 -8.848400 0.000000
-154.491791 -24.724304 -8.848400 0.685196
-141.008499 -24.724304 -8.848400 0.655075
-127.525192 -24.724304 -8.848400 0.582300
-114.041885 -24.724304 -8.848400 0.518931
-100.558594 -24.724304 -8.848400 0.455533
-87.075287 -24.724304 -8.848400 0.403793
-73.591980 -24.724304 -8.848400 0.379732
-60.108704 -24.724304 -8.848400 0.000000
-46.625397 -24.724304 -8.848400 0.000000
-33.142090 -24.724304 -8.848400 0.000000
-19.658783 -24.724304 -8.848400 0.000000
-6.175476 -24.724304 -8.848400 0.000000
7.307800 -24.724304 -8.848400 0.000000
20.791107 -24.724304 -8.848400 0.320879
34.274414 -24.724304 -8.848400 0.288445
47.757721 -24.724304 -8.848400 0.000000
61.240997 -24.724304 -8.848400 0.000000
74.724304 -24.724304 -8.848400 0.000000
88.207611 -24.724304 -8.848400 0.000000
101.690918 -24.724304 -8.848400 0.000000
115.174225 -24.724304 -8.848400 0.000000
128.657501 -24.724304 -8.848400 0.000000
142.140808 -24.724304 -8.848400 0.000000
155.624115 -24.724304 -8.848400 0.000000
169.107422 -24.724304 -8.848400 0.000000
182.590698 -24.724304 -8.848400 0.000000
196.074036 -24.724304 -8.848400 0.000000
209.557312 -24.724304 -8.848400 0.000000
223.040588 -24.724304 -8.848400 0.000000
236.523926 -24.724304 -8.848400 0.000000
250.007202 -24.724304 -8.848400 0.000000
263.490540 -24.724304 -8.848400 0.000000
276.973816 -24.724304 -8.848400 0.000000
290.457092 -24.724304 -8.848400 0.000000
303.940430 -24.724304 -8.848400 0.000000
317.423706 -24.724304 -8.848400 0.000000
330.907043 -24.724304 -8.848400 0.000000
344.390320 -24.724304 -8.848400 0.000000
-343.257996 -38.207611 -8.848400 0.000000
-329.774689 -38.207611 -8.848400 0.000000
-316.291382 -38.207611 -8.848400 0.000000
-302.808105 -38.207611 -8.848400 0.000000
-289.324799 -38.207611 -8.848400 0.000000
-275.841492 -38.207611 -8.848400 0.000000
-262.358185 -38.207611 -8.848400 0.000000
-248.874893 -38.207611 -8.848400 0.000000
-235.391602 -38.207611 -8.848400 0.000000
-221.908295 -38.207611 -8.848400 0.000000
-208.424988 -38.207611 -8.848400 0.000000
-194.941696 -38.207611 -8.848400 0.000000
-181.458389 -38.207611 -8.848400 0.000000
-167.975098 -38.207611 -8.848400 0.700343
-154.491791 -38.207611 -8.848400 0.662644
-141.008499 -38.207611 -8.848400 0.631899
-127.525192 -38.207611 -8.848400 0.604261
-114.041885 -38.207611 -8.848400 0.545538
-100.558594 -38.207611 -8.848400 0.494909
-87.075287 -38.207611 -8.848400 0.445842
-73.591980 -38.207611 -8.848400 0.417281
-60.108704 -38.207611 -8.848400 0.382064
-46.625397 -38.207611 -8.848400 0.352645
-33.142090 -38.207611 -8.848400 0.000000
-19.658783 -38.207611 -8.848400 0.000000
-6.175476 -38.207611 -8.848400 0.323596
7.307800 -38.207611 -8.848400 0.296363
20.791107 -38.207611 -8.848400 0.279200
34.274414 -38.207611 -8.848400 0.000000
47.757721 -38.207611 -8.848400 0.000000
61.240997 -38.207611 -8.848400 0.000000
74.724304 -38.207611 -8.848400 0.000000
88.207611 -38.207611 -8.848400 0.000000
101.690918 -38.207611 -8.848400 0.000000
115.174225 -38.207611 -8.848400 0.000000
128.657501 -38.207611 -8.848400 0.000000
142.140808 -38.207611 -8.848400 0.000000
155.624115 -38.207611 -8.848400 0.000000
169.107422 -38.207611 -8.848400 0.000000
182.590698 -38.207611 -8.848400 0.000000
196.074036 -38.207611 -8.848400 0.000000
209.557312 -38.207611 -8.848400 0.000000
223.040588 -38.207611 -8.848400 0.000000
236.523926 -38.207611 -8.848400 0.000000
250.007202 -38.207611 -8.848400 0.000000
263.490540 -38.207611 -8.848400 0.000000
276.973816 -38.207611 -8.848400 0.000000
290.457092 -38.207611 -8.848400 0.000000
303.940430 -38.207611 -8.848400 0.000000
317.423706 -38.207611 -8.848400 0.000000
330.907043 -38.207611 -8.848400 0.000000
344.390320 -38.207611 -8.848400 0.000000
-343.257996 -51.690918 -8.848400 0.000000
-329.774689 -51.690918 -8.848400 0.000000
-316.291382 -51.690918 -8.848400 0.000000
-302.808105 -51.690918 -8.848400 0.000000
-289.324799 -51.690918 -8.848400 0.000000
-275.841492 -51.690918 -8.848400 0.000000
-262.358185 -51.690918 -8.848400 0.000000
-248.874893 -51.690918 -8.848400 0.000000
-235.391602 -51.690918 -8.848400 0.000000
-221.908295 -51.690918 -8.848400 0.000000
-208.424988 -51.690918 -8.848400 0.000000
-194.941696 -51.690918 -8.848400 0.000000
-181.458389 -51.690918 -8.848400 0.000000
-167.975098 -51.690918 -8.848400 0.000000
-154.491791 -51.690918 -8.848400 0.667138
-141.008499 -51.690918 -8.848400 0.603640
-127.525192 -51.690918 -8.848400 0.000000
-114.041885 -51.690918 -8.848400 0.573845
-100.558594 -51.690918 -8.848400 0.509883
-87.075287 -51.690918 -8.848400 0.000000
-73.591980 -51.690918 -8.848400 0.422270
-60.108704 -51.690918 -8.848400 0.366315
-46.625397 -51.690918 -8.848400 0.346453
-33.142090 -51.690918 -8.848400 0.350149
-19.658783 -51.690918 -8.848400 0.329070
-6.175476 -51.690918 -8.848400 0.297978
7.307800 -51.690918 -8.848400 0.282903
20.791107 -51.690918 -8.848400 0.252068
34.274414 -51.690918 -8.848400 0.000000
47.757721 -51.690918 -8.848400 0.000000
61.240997 -51.690918 -8.848400 0.000000
74.724304 -51.690918 -8.848400 0.000000
88.207611 -51.690918 -8.848400 0.000000
101.690918 -51.690918 -8.848400 0.000000
115.174225 -51.690918 -8.848400 0.000000
128.657501 -51.690918 -8.848400 0.000000
142.140808 -51.690918 -8.848400 0.000000
155.624115 -51.690918 -8.848400 0.000000
169.107422 -51.690918 -8.848400 0.000000
182.590698 -51.690918 -8.848400 0.000000
196.074036 -51.690918 -8.848400 0.000000
209.557312 -51.690918 -8.848400 0.000000
223.040588 -51.690918 -8.848400 0.000000
236.523926 -51.690918 -8.848400 0.000000
250.007202 -51.690918 -8.848400 0.000000
263.490540 -51.690918 -8.848400 0.000000
276.973816 -51.690918 -8.848400 0.000000
290.457092 -51.690918 -8.848400 0.000000
303.940430 -51.690918 -8.848400 0.000000
317.423706 -51.690918 -8.848400 0.000000
330.907043 -51.690918 -8.848400 0.000000
344.390320 -51.690918 -8.848400 0.000000
-343.257996 -65.174225 -8.848400 0.000000
-329.774689 -65.174225 -8.848400 0.000000
-316.291382 -65.174225 -8.848400 0.000000
-302.808105 -65.174225 -8.848400 0.000000
-289.324799 -65.174225 -8.848400 0.000000
-275.841492 -65.174225 -8.848400 0.000000
-262.358185 -65.174225 -8.848400 0.000000
-248.874893 -65.174225 -8.848400 0.000000
-235.391602 -65.174225 -8.848400 0.000000
-221.908295 -65.174225 -8.848400 0.000000
-208.424988 -65.174225 -8.848400 0.000000
-194.941696 -65.174225 -8.848400 0.000000
-181.458389 -65.174225 -8.848400 0.000000
-167.975098 -65.174225 -8.848400 0.000000
-154.491791 -65.174225 -8.848400 0.684170
-141.008499 -65.174225 -8.848400 0.643243
-127.525192 -65.174225 -8.848400 0.639845
-114.041885 -65.174225 -8.848400 0.619925
-100.558594 -65.174225 -8.848400 0.571908
-87.075287 -65.174225 -8.848400 0.506157
-73.591980 -65.174225 -8.848400 0.427813
-60.108704 -65.174225 -8.848400 0.376479
-46.625397 -65.174225 -8.848400 0.353891
-33.142090 -65.174225 -8.848400 0.357239
-19.658783 -65.174225 -8.848400 0.347394
-6.175476 -65.174225 -8.848400 0.294412
7.307800 -65.174225 -8.848400 0.274099
20.791107 -65.174225 -8.848400 0.262152
34.274414 -65.174225 -8.848400 0.000000
47.757721 -65.174225 -8.848400 0.000000
61.240997 -65.174225 -8.848400 0.000000
74.724304 -65.174225 -8.848400 0.000000
88.207611 -65.174225 -8.848400 0.000000
101.690918 -65.174225 -8.848400 0.000000
115.174225 -65.174225 -8.848400 0.000000
128.657501 -65.174225 -8.848400 0.000000
142.140808 -65.174225 -8.848400 0.000000
155.624115 -65.174225 -8.848400 0.000000
169.107422 -65.174225 -8.848400 0.000000
182.590698 -65.174225 -8.848400 0.000000
196.074036 -65.174225 -8.848400 0.000000
209.557312 -65.174225 -8.848400 0.000000
223.040588 -65.174225 -8.848400 0.000000
236.523926 -65.174225 -8.848400 0.000000
250.007202 -65.174225 -8.848400 0.000000
263.490540 -65.174225 -8.848400 0.000000
276.973816 -65.174225 -8.848400 0.000000
290.457092 -65.174225 -8.848400 0.000000
303.940430 -65.174225 -8.848400 0.000000
317.423706 -65.174225 -8.848400 0.000000
330.907043 -65.174225 -8.848400 0.000000
344.390320 -65.174225 -8.848400 0.000000
-343.257996 -78.657501 -8.848400 0.000000
-329.774689 -78.657501 -8.848400 0.000000
-316.291382 -78.657501 -8.848400 0.000000
-302.808105 -78.657501 -8.848400 0.000000
-289.324799 -78.657501 -8.848400 0.000000
-275.841492 -78.657501 -8.848400 0.000000
-262.358185 -78.657501 -8.848400 0.000000
-248.874893 -78.657501 -8.848400 0.000000
-235.391602 -78.657501 -8.848400 0.000000
-221.908295 -78.657501 -8.848400 0.000000
-208.424988 -78.657501 -8.848400 0.000000
-194.941696 -78.657501 -8.848400 0.000000
-181.458389 -78.657501 -8.848400 0.000000
-167.975098 -78.657501 -8.848400 0.000000
-154.491791 -78.657501 -8.848400 0.000000
-141.008499 -78.657501 -8.848400 0.724521
-127.525192 -78.657501 -8.848400 0.000000
-114.041885 -78.657501 -8.848400 0.000000
-100.558594 -78.657501 -8.848400 0.574607
-87.075287 -78.657501 -8.848400 0.483433
-73.591980 -78.657501 -8.848400 0.410725
-60.108704 -78.657501 -8.848400 0.368402
-46.625397 -78.657501 -8.848400 0.362544
-33.142090 -78.657501 -8.848400 0.355223
-19.658783 -78.657501 -8.848400 0.312853
-6.175476 -78.657501 -8.848400 0.263761
7.307800 -78.657501 -8.848400 0.250506
20.791107 -78.657501 -8.848400 0.000000
34.274414 -78.657501 -8.848400 0.000000
47.757721 -78.657501 -8.848400 0.000000
61.240997 -78.657501 -8.848400 0.000000
74.724304 -78.657501 -8.848400 0.000000
88.207611 -78.657501 -8.848400 0.000000
101.690918 -78.657501 -8.848400 0.000000
115.174225 -78.657501 -8.848400 0.000000
128.657501 -78.657501 -8.848400 0.000000
142.140808 -78.657501 -8.848400 0.000000
155.624115 -78.657501 -8.848400 0.000000
169.107422 -78.657501 -8.848400 0.000000
182.590698 -78.657501 -8.848400 0.000000
196.074036 -78.657501 -8.848400 0.000000
209.557312 -78.657501 -8.848400 0.000000
223.040588 -78.657501 -8.848400 0.000000
236.523926 -78.657501 -8.848400 0.000000
250.007202 -78.657501 -8.848400 0.000000
263.490540 -78.657501 -8.848400 0.000000
276.973816 -78.657501 -8.848400 0.000000
290.457092 -78.657501 -8.848400 0.000000
303.940430 -78.657501 -8.848400 0.000000
317.423706 -78.657501 -8.848400 0.000000
330.907043 -78.657501 -8.848400 0.000000
344.390320 -78.657501 -8.848400 0.000000
-343.257996 -92.140808 -8.848400 0.000000
-329.774689 -92.140808 -8.848400 0.000000
-316.291382 -92.140808 -8.848400 0.000000
-302.808105 -92.140808 -8.848400 0.000000
-289.324799 -92.140808 -8.848400 0.000000
-275.841492 -92.140808 -8.848400 0.000000
-262.358185 -92.140808 -8.848400 0.000000
-248.874893 -92.140808 -8.848400 0.000000
-235.391602 -92.140808 -8.848400 0.000000
-221.908295 -92.140808 -8.848400 0.000000
-208.424988 -92.140808 -8.848400 0.000000
-194.941696 -92.140808 -8.848400 0.000000
-181.458389 -92.140808 -8.848400 0.000000
-167.975098 -92.140808 -8.848400 0.000000
-154.491791 -92.140808 -8.848400 0.000000
-141.008499 -92.140808 -8.848400 0.000000
-127.525192 -92.140808 -8.848400 0.000000
-114.041885 -92.140808 -8.848400 0.000000
-100.558594 -92.140808 -8.848400 0.000000
-87.075287 -92.140808 -8.848400 0.539040
-73.591980 -92.140808 -8.848400 0.000000
-60.108704 -92.140808 -8.848400 0.000000
-46.625397 -92.140808 -8.848400 0.000000
-33.142090 -92.140808 -8.848400 0.303570
-19.658783 -92.140808 -8.848400 0.288994
-6.175476 -92.140808 -8.848400 0.000000
7.307800 -92.140808 -8.848400 0.000000
20.791107 -92.140808 -8.848400 0.000000
34.274414 -92.140808 -8.848400 0.000000
47.757721 -92.140808 -8.848400 0.000000
61.240997 -92.140808 -8.848400 0.000000
74.724304 -92.140808 -8.848400 0.000000
88.207611 -92.140808 -8.848400 0.000000
101.690918 -92.140808 -8.848400 0.000000
115.174225 -92.140808 -8.848400 0.000000
128.657501 -92.140808 -8.848400 0.000000
142.140808 -92.140808 -8.848400 0.000000
155.624115 -92.140808 -8.848400 0.000000
169.107422 -92.140808 -8.848400 0.000000
182.590698 -92.140808 -8.848400 0.000000
196.074036 -92.140808 -8.848400 0.000000
209.557312 -92.140808 -8.848400 0.000000
223.040588 -92.140808 -8.848400 0.000000
236.523926 -92.140808 -8.848400 0.000000
250.007202 -92.140808 -8.848400 0.000000
263.490540 -92.140808 -8.848400 0.000000
276.973816 -92.140808 -8.848400 0.000000
290.457092 -92.140808 -8.848400 0.000000
303.940430 -92.140808 -8.848400 0.000000
317.423706 -92.140808 -8.848400 0.000000
330.907043 -92.140808 -8.848400 0.000000
344.390320 -92.140808 -8.848400 0.000000
-343.257996 -105.624115 -8.848400 0.000000
-329.774689 -105.624115 -8.848400 0.000000
-316.291382 -105.624115 -8.848400 0.000000
-302.808105 -105.624115 -8.848400 0.000000
-289.324799 -105.624115 -8.848400 0.000000
-275.841492 -105.624115 -8.848400 0.000000
-262.358185 -105.624115 -8.848400 0.000000
-248.874893 -105.624115 -8.848400 0.000000
-235.391602 -105.624115 -8.848400 0.000000
-221.908295 -105.624115 -8.848400 0.000000
-208.424988 -105.624115 -8.848400 0.000000
-194.941696 -105.624115 -8.848400 0.000000
-181.458389 -105.624115 -8.848400 0.000000
-167.975098 -105.624115 -8.848400 0.000000
-154.491791 -105.624115 -8.848400 0.000000
-141.008499 -105.624115 -8.848400 0.000000
-127.525192 -105.624115 -8.848400 0.000000
-114.041885 -105.624115 -8.848400 0.000000
-100.558594 -105.624115 -8.848400 0.000000
-87.075287 -105.624115 -8.848400 0.000000
-73.591980 -105.624115 -8.848400 0.000000
-60.108704 -105.624115 -8.848400 0.000000
-46.625397 -105.624115 -8.848400 0.000000
-33.142090 -105.624115 -8.848400 0.000000
-19.658783 -105.624115 -8.848400 0.000000
-6.175476 -105.624115 -8.848400 0.000000
7.307800 -105.624115 -8.848400 0.000000
20.791107 -105.624115 -8.848400 0.000000
34.274414 -105.624115 -8.848400 0.000000
47.757721 -105.624115 -8.848400 0.000000
61.240997 -105.624115 -8.848400 0.000000
74.724304 -105.624115 -8.848400 0.000000
88.207611 -105.624115 -8.848400 0.000000
101.690918 -105.624115 -8.848400 0.000000
115.174225 -105.624115 -8.848400 0.000000
128.657501 -105.624115 -8.848400 0.000000
142.140808 -105.624115 -8.848400 0.000000
155.624115 -105.624115 -8.848400 0.000000
169.107422 -105.624115 -8.848400 0.000000
182.590698 -105.624115 -8.848400 0.000000
196.074036 -105.624115 -8.848400 0.000000
209.557312 -105.624115 -8.848400 0.000000
223.040588 -105.624115 -8.848400 0.000000
236.523926 -105.624115 -8.848400 0.000000
250.007202 -105.624115 -8.848400 0.000000
263.490540 -105.624115 -8.848400 0.000000
276.973816 -105.624115 -8.848400 0.000000
290.457092 -105.624115 -8.848400 0.000000
303.940430 -105.624115 -8.848400 0.000000
317.423706 -105.624115 -8.848400 0.000000
330.907043 -105.624115 -8.848400 0.000000
344.390320 -105.624115 -8.848400 0.000000
-343.257996 -119.107422 -8.848400 0.000000
-329.774689 -119.107422 -8.848400 0.000000
-316.291382 -119.107422 -8.848400 0.000000
-302.808105 -119.107422 -8.848400 0.000000
-289.324799 -119.107422 -8.848400 0.000000
-275.841492 -119.107422 -8.848400 0.000000
-262.358185 -119.107422 -8.848400 0.000000
-248.874893 -119.107422 -8.848400 0.000000
-235.391602 -119.107422 -8.848400 0.000000
-221.908295 -119.107422 -8.848400 0.000000
-208.424988 -119.107422 -8.848400 0.000000
-194.941696 -119.107422 -8.848400 0.000000
-181.458389 -119.107422 -8.848400 0.000000
-167.975098 -119.107422 -8.848400 0.000000
-154.491791 -119.107422 -8.848400 0.000000
-141.008499 -119.107422 -8.848400 0.000000
-127.525192 -119.107422 -8.848400 0.000000
-114.041885 -119.107422 -8.848400 0.000000
-100.558594 -119.107422 -8.848400 0.000000
-87.075287 -119.107422 -8.848400 0.000000
-73.591980 -119.107422 -8.848400 0.000000
-60.108704 -119.107422 -8.848400 0.000000
-46.625397 -119.107422 -8.848400 0.000000
-33.142090 -119.107422 -8.848400 0.000000
-19.658783 -119.107422 -8.848400 0.000000
-6.175476 -119.107422 -8.848400 0.000000
7.307800 -119.107422 -8.848400 0.000000
20.791107 -119.107422 -8.848400 0.000000
34.274414 -119.107422 -8.848400 0.000000
47.757721 -119.107422 -8.848400 0.000000
61.240997 -119.107422 -8.848400 0.000000
74.724304 -119.107422 -8.848400 0.000000
88.207611 -119.107422 -8.848400 0.000000
101.690918 -119.107422 -8.848400 0.000000
115.174225 -119.107422 -8.848400 0.000000
128.657501 -119.107422 -8.848400 0.000000
142.140808 -119.107422 -8.848400 0.000000
155.624115 -119.107422 -8.848400 0.000000
169.107422 -119.107422 -8.848400 0.000000
182.590698 -119.107422 -8.848400 0.000000
196.074036 -119.107422 -8.848400 0.000000
209.557312 -119.107422 -8.848400 0.000000
223.040588 -119.107422 -8.848400 0.000000
236.523926 -119.107422 -8.848400 0.000000
250.007202 -119.107422 -8.848400 0.000000
263.490540 -119.107422 -8.848400 0.000000
276.973816 -119.107422 -8.848400 0.000000
290.457092 -119.107422 -8.848400 0.000000
303.940430 -119.107422 -8.848400 0.000000
317.423706 -119.107422 -8.848400 0.000000
330.907043 -119.107422 -8.848400 0.000000
344.390320 -119.107422 -8.848400 0.000000
-343.257996 -132.590698 -8.848400 0.000000
-329.774689 -132.590698 -8.848400 0.000000
-316.291382 -132.590698 -8.848400 0.000000
-302.808105 -132.590698 -8.848400 0.000000
-289.324799 -132.590698 -8.848400 0.000000
-275.841492 -132.590698 -8.848400 0.000000
-262.358185 -132.590698 -8.848400 0.000000
-248.874893 -132.590698 -8.848400 0.000000
-235.391602 -132.590698 -8.848400 0.000000
-221.908295 -132.590698 -8.848400 0.000000
-208.424988 -132.590698 -8.848400 0.000000
-194.941696 -132.590698 -8.848400 0.000000
-181.458389 -132.590698 -8.848400 0.000000
-167.975098 -132.590698 -8.848400 0.000000
-154.491791 -132.590698 -8.848400 0.000000
-141.008499 -132.590698 -8.848400 0.000000
-127.525192 -132.590698 -8.848400 0.000000
-114.041885 -132.590698 -8.848400 0.000000
-100.558594 -132.590698 -8.848400 0.000000
-87.075287 -132.590698 -8.848400 0.000000
-73.591980 -132.590698 -8.848400 0.000000
-60.108704 -132.590698 -8.848400 0.000000
-46.625397 -132.590698 -8.848400 0.000000
-33.142090 -132.590698 -8.848400 0.000000
-19.658783 -132.590698 -8.848400 0.000000
-6.175476 -132.590698 -8.848400 0.000000
7.307800 -132.590698 -8.848400 0.000000
20.791107 -132.590698 -8.848400 0.000000
34.274414 -132.590698 -8.848400 0.000000
47.757721 -132.590698 -8.848400 0.000000
61.240997 -132.590698 -8.848400 0.000000
74.724304 -132.590698 -8.848400 0.000000
88.207611 -132.590698 -8.848400 0.000000
101.690918 -132.590698 -8.848400 0.000000
115.174225 -132.590698 -8.848400 0.000000
128.657501 -132.590698 -8.848400 0.000000
142.140808 -132.590698 -8.848400 0.000000
155.624115 -132.590698 -8.848400 0.000000
169.107422 -132.590698 -8.848400 0.000000
182.590698 -132.590698 -8.848400 0.000000
196.074036 -132.590698 -8.848400 0.000000
209.557312 -132.590698 -8.848400 0.000000
223.040588 -132.590698 -8.848400 0.000000
236.523926 -132.590698 -8.848400 0.000000
250.007202 -132.590698 -8.848400 0.000000
263.490540 -132.590698 -8.848400 0.000000
276.973816 -132.590698 -8.848400 0.000000
290.457092 -132.590698 -8.848400 0.000000
303.940430 -132.590698 -8.848400 0.000000
317.423706 -132.590698 -8.848400 0.000000
330.907043 -132.590698 -8.848400 0.000000
344.390320 -132.590698 -8.848400 0.000000
-343.257996 -146.074036 -8.848400 0.000000
-329.774689 -146.074036 -8.848400 0.000000
-316.291382 -146.074036 -8.848400 0.000000
-302.808105 -146.074036 -8.848400 0.000000
-289.324799 -146.074036 -8.848400 0.000000
-275.841492 -146.074036 -8.848400 0.000000
-262.358185 -146.074036 -8.848400 0.000000
-248.874893 -146.074036 -8.848400 0.000000
-235.391602 -146.074036 -8.848400 0.000000
-221.908295 -146.074036 -8.848400 0.000000
-208.424988 -146.074036 -8.848400 0.000000
-194.941696 -146.074036 -8.848400 0.000000
-181.458389 -146.074036 -8.848400 0.000000
-167.975098 -146.074036 -8.848400 0.000000
-154.491791 -146.074036 -8.848400 0.000000
-141.008499 -146.074036 -8.848400 0.000000
-127.525192 -146.074036 -8.848400 0.000000
-114.041885 -146.074036 -8.848400 0.000000
-100.558594 -146.074036 -8.848400 0.000000
-87.075287 -146.074036 -8.848400 0.000000
-73.591980 -146.074036 -8.848400 0.000000
-60.108704 -146.074036 -8.848400 0.000000
-46.625397 -146.074036 -8.848400 0.000000
-33.142090 -146.074036 -8.848400 0.000000
-19.658783 -146.074036 -8.848400 0.000000
-6.175476 -146.074036 -8.848400 0.000000
7.307800 -146.074036 -8.848400 0.000000
20.791107 -146.074036 -8.848400 0.000000
34.274414 -146.074036 -8.848400 0.000000
47.757721 -146.074036 -8.848400 0.000000
61.240997 -146.074036 -8.848400 0.000000
74.724304 -146.074036 -8.848400 0.000000
88.207611 -146.074036 -8.848400 0.000000
101.690918 -146.074036 -8.848400 0.000000
115.174225 -146.074036 -8.848400 0.000000
128.657501 -146.074036 -8.848400 0.000000
142.140808 -146.074036 -8.848400 0.000000
155.624115 -146.074036 -8.848400 0.000000
169.107422 -146.074036 -8.848400 0.000000
182.590698 -146.074036 -8.848400 0.000000
196.074036 -146.074036 -8.848400 0.000000
209.557312 -146.074036 -8.848400 0.000000
223.040588 -146.074036 -8.848400 0.000000
236.523926 -146.074036 -8.848400 0.000000
250.007202 -146.074036 -8.848400 0.000000
263.490540 -146.074036 -8.848400 0.000000
276.973816 -146.074036 -8.848400 0.000000
290.457092 -146.074036 -8.848400 0.000000
303.940430 -146.074036 -8.848400 0.000000
317.423706 -146.074036 -8.848400 0.000000
330.907043 -146.074036 -8.848400 0.000000
344.390320 -146.074036 -8.848400 0.000000
-343.257996 -159.557312 -8.848400 0.000000
-329.774689 -159.557312 -8.848400 0.000000
-316.291382 -159.557312 -8.848400 0.000000
-302.808105 -159.557312 -8.848400 0.000000
-289.324799 -159.557312 -8.848400 0.000000
-275.841492 -159.557312 -8.848400 0.000000
-262.358185 -159.557312 -8.848400 0.000000
-248.874893 -159.557312 -8.848400 0.000000
-235.391602 -159.557312 -8.848400 0.000000
-221.908295 -159.557312 -8.848400 0.000000
-208.424988 -159.557312 -8.848400 0.000000
-194.941696 -159.557312 -8.848400 0.000000
-181.458389 -159.557312 -8.848400 0.000000
-167.975098 -159.557312 -8.848400 0.000000
-154.491791 -159.557312 -8.848400 0.000000
-141.008499 -159.557312 -8.848400 0.000000
-127.525192 -159.557312 -8.848400 0.000000
-114.041885 -159.557312 -8.848400 0.000000
-100.558594 -159.557312 -8.848400 0.000000
-87.075287 -159.557312 -8.848400 0.000000
-73.591980 -159.557312 -8.848400 0.000000
-60.108704 -159.557312 -8.848400 0.000000
-46.625397 -159.557312 -8.848400 0.000000
-33.142090 -159.557312 -8.848400 0.000000
-19.658783 -159.557312 -8.848400 0.000000
-6.175476 -159.557312 -8.848400 0.000000
7.307800 -159.557312 -8.848400 0.000000
20.791107 -159.557312 -8.848400 0.000000
34.274414 -159.557312 -8.848400 0.000000
47.757721 -159.557312 -8.848400 0.000000
61.240997 -159.557312 -8.848400 0.000000
74.724304 -159.557312 -8.848400 0.000000
88.207611 -159.557312 -8.848400 0.000000
101.690918 -159.557312 -8.848400 0.000000
115.174225 -159.557312 -8.848400 0.000000
128.657501 -159.557312 -8.848400 0.000000
142.140808 -159.557312 -8.848400 0.000000
155.624115 -159.557312 -8.848400 0.000000
169.107422 -159.557312 -8.848400 0.000000
182.590698 -159.557312 -8.848400 0.000000
196.074036 -159.557312 -8.848400 0.000000
209.557312 -159.557312 -8.848400 0.000000
223.040588 -159.557312 -8.848400 0.000000
236.523926 -159.557312 -8.848400 0.000000
250.007202 -159.557312 -8.848400 0.000000
263.490540 -159.557312 -8.848400 0.000000
276.973816 -159.557312 -8.848400 0.000000
290.457092 -159.557312 -8.848400 0.000000
303.940430 -159.557312 -8.848400 0.000000
317.423706 -159.557312 -8.848400 0.000000
330.907043 -159.557312 -8.848400 0.000000
344.390320 -159.557312 -8.848400 0.000000
-343.257996 -173.040588 -8.848400 0.000000
-329.774689 -173.040588 -8.848400 0.000000
-316.291382 -173.040588 -8.848400 0.000000
-302.808105 -173.040588 -8.848400 0.000000
-289.324799 -173.040588 -8.848400 0.000000
-275.841492 -173.040588 -8.848400 0.000000
-262.358185 -173.040588 -8.848400 0.000000
-248.874893 -173.040588 -8.848400 0.000000
-235.391602 -173.040588 -8.848400 0.000000
-221.908295 -173.040588 -8.848400 0.000000
-208.424988 -173.040588 -8.848400 0.000000
-194.941696 -173.040588 -8.848400 0.000000
-181.458389 -173.040588 -8.848400 0.000000
-167.975098 -173.040588 -8.848400 0.000000
-154.491791 -173.040588 -8.848400 0.000000
-141.008499 -173.040588 -8.848400 0.000000
-127.525192 -173.040588 -8.848400 0.000000
-114.041885 -173.040588 -8.848400 0.000000
-100.558594 -173.040588 -8.848400 0.000000
-87.075287 -173.040588 -8.848400 0.000000
-73.591980 -173.040588 -8.848400 0.000000
-60.108704 -173.040588 -8.848400 0.000000
-46.625397 -173.040588 -8.848400 0.000000
-33.142090 -173.040588 -8.848400 0.000000
-19.658783 -173.040588 -8.848400 0.000000
-6.175476 -173.040588 -8.848400 0.000000
7.307800 -173.040588 -8.848400 0.000000
20.791107 -173.040588 -8.848400 0.000000
34.274414 -173.040588 -8.848400 0.000000
47.757721 -173.040588 -8.848400 0.000000
61.240997 -173.040588 -8.848400 0.000000
74.724304 -173.040588 -8.848400 0.000000
88.207611 -173.040588 -8.848400 0.000000
101.690918 -173.040588 -8.848400 0.000000
115.174225 -173.040588 -8.848400 0.000000
128.657501 -173.040588 -8.848400 0.000000
142.140808 -173.040588 -8.848400 0.000000
155.624115 -173.040588 -8.848400 0.000000
169.107422 -173.040588 -8.848400 0.000000
182.590698 -173.040588 -8.848400 0.000000
196.074036 -173.040588 -8.848400 0.000000
209.557312 -173.040588 -8.848400 0.000000
223.040588 -173.040588 -8.848400 0.000000
236.523926 -173.040588 -8.848400 0.000000
250.007202 -173.040588 -8.848400 0.000000
263.490540 -173.040588 -8.848400 0.000000
276.973816 -173.040588 -8.848400 0.000000
290.457092 -173.040588 -8.848400 0.000000
303.940430 -173.040588 -8.848400 0.000000
317.423706 -173.040588 -8.848400 0.000000
330.907043 -173.040588 -8.848400 0.000000
344.390320 -173.040588 -8.848400 0.000000
-343.257996 -186.523926 -8.848400 0.000000
-329.774689 -186.523926 -8.848400 0.000000
-316.291382 -186.523926 -8.848400 0.000000
-302.808105 -186.523926 -8.848400 0.000000
-289.324799 -186.523926 -8.848400 0.000000
-275.841492 -186.523926 -8.848400 0.000000
-262.358185 -186.523926 -8.848400 0.000000
-248.874893 -186.523926 -8.848400 0.000000
-235.391602 -186.523926 -8.848400 0.000000
-221.908295 -186.523926 -8.848400 0.000000
-208.424988 -186.523926 -8.848400 0.000000
-194.941696 -186.523926 -8.848400 0.000000
-181.458389 -186.523926 -8.848400 0.000000
-167.975098 -186.523926 -8.848400 0.000000
-154.491791 -186.523926 -8.848400 0.000000
-141.008499 -186.523926 -8.848400 0.000000
-127.525192 -186.523926 -8.848400 0.000000
-114.041885 -186.523926 -8.848400 0.000000
-100.558594 -186.523926 -8.848400 0.000000
-87.075287 -186.523926 -8.848400 0.000000
-73.591980 -186.523926 -8.848400 0.000000
-60.108704 -186.523926 -8.848400 0.000000
-46.625397 -186.523926 -8.848400 0.000000
-33.142090 -186.523926 -8.848400 0.000000
-19.658783 -186.523926 -8.848400 0.000000
-6.175476 -186.523926 -8.848400 0.000000
7.307800 -186.523926 -8.848400 0.000000
20.791107 -186.523926 -8.848400 0.000000
34.274414 -186.523926 -8.848400 0.000000
47.757721 -186.523926 -8.848400 0.000000
61.240997 -186.523926 -8.848400 0.000000
74.724304 -186.523926 -8.848400 0.000000
88.207611 -186.523926 -8.848400 0.000000
101.690918 -186.523926 -8.848400 0.000000
115.174225 -186.523926 -8.848400 0.000000
128.657501 -186.523926 -8.848400 0.000000
142.140808 -186.523926 -8.848400 0.000000
155.624115 -186.523926 -8.848400 0.000000
169.107422 -186.523926 -8.848400 0.000000
182.590698 -186.523926 -8.848400 0.000000
196.074036 -186.523926 -8.848400 0.000000
209.557312 -186.523926 -8.848400 0.000000
223.040588 -186.523926 -8.848400 0.000000
236.523926 -186.523926 -8.848400 0.000000
250.007202 -186.523926 -8.848400 0.000000
263.490540 -186.523926 -8.848400 0.000000
276.973816 -186.523926 -8.848400 0.000000
290.457092 -186.523926 -8.848400 0.000000
303.940430 -186.523926 -8.848400 0.000000
317.423706 -186.523926 -8.848400 0.000000
330.907043 -186.523926 -8.848400 0.000000
344.390320 -186.523926 -8.848400 0.000000
-343.257996 -200.007202 -8.848400 0.000000
-329.774689 -200.007202 -8.848400 0.000000
-316.291382 -200.007202 -8.848400 0.000000
-302.808105 -200.007202 -8.848400 0.000000
-289.324799 -200.007202 -8.848400 0.000000
-275.841492 -200.007202 -8.848400 0.000000
-262.358185 -200.007202 -8.848400 0.000000
-248.874893 -200.007202 -8.848400 0.000000
-235.391602 -200.007202 -8.848400 0.000000
-221.908295 -200.007202 -8.848400 0.000000
-208.424988 -200.007202 -8.848400 0.000000
-194.941696 -200.007202 -8.848400 0.000000
-181.458389 -200.007202 -8.848400 0.000000
-167.975098 -200.007202 -8.848400 0.000000
-154.491791 -200.007202 -8.848400 0.000000
-141.008499 -200.007202 -8.848400 0.000000
-127.525192 -200.007202 -8.848400 0.000000
-114.041885 -200.007202 -8.848400 0.000000
-100.558594 -200.007202 -8.848400 0.000000
-87.075287 -200.007202 -8.848400 0.000000
-73.591980 -200.007202 -8.848400 0.000000
-60.108704 -200.007202 -8.848400 0.000000
-46.625397 -200.007202 -8.848400 0.000000
-33.142090 -200.007202 -8.848400 0.000000
-19.658783 -200.007202 -8.848400 0.000000
-6.175476 -200.007202 -8.848400 0.000000
7.307800 -200.007202 -8.848400 0.000000
20.791107 -200.007202 -8.848400 0.000000
34.274414 -200.007202 -8.848400 0.000000
47.757721 -200.007202 -8.848400 0.000000
61.240997 -200.007202 -8.848400 0.000000
74.724304 -200.007202 -8.848400 0.000000
88.207611 -200.007202 -8.848400 0.000000
101.690918 -200.007202 -8.848400 0.000000
115.174225 -200.007202 -8.848400 0.000000
128.657501 -200.007202 -8.848400 0.000000
142.140808 -200.007202 -8.848400 0.000000
155.624115 -200.007202 -8.848400 0.000000
169.107422 -200.007202 -8.848400 0.000000
182.590698 -200.007202 -8.848400 0.000000
196.074036 -200.007202 -8.848400 0.000000
209.557312 -200.007202 -8.848400 0.000000
223.040588 -200.007202 -8.848400 0.000000
236.523926 -200.007202 -8.848400 0.000000
250.007202 -200.007202 -8.848400 0.000000
263.490540 -200.007202 -8.848400 0.000000
276.973816 -200.007202 -8.848400 0.000000
290.457092 -200.007202 -8.848400 0.000000
303.940430 -200.007202 -8.848400 0.000000
317.423706 -200.007202 -8.848400 0.000000
330.907043 -200.007202 -8.848400 0.000000
344.390320 -200.007202 -8.848400 0.000000
