TITLE = "B00001"
VARIABLES = "X", "Y", "Z", "Reynold stress XY"
ZONE T="Frame 1" I=52, J=45, K=4, F=POINT
-343.257996 393.257996 -49.298302 0.000000
-329.774689 393.257996 -49.298302 0.000000
-316.291382 393.257996 -49.298302 0.000000
-302.808105 393.257996 -49.298302 0.000000
-289.324799 393.257996 -49.298302 0.000000
-275.841492 393.257996 -49.298302 0.000000
-262.358185 393.257996 -49.298302 0.000000
-248.874893 393.257996 -49.298302 0.000000
-235.391602 393.257996 -49.298302 0.000000
-221.908295 393.257996 -49.298302 0.000000
-208.424988 393.257996 -49.298302 0.000000
-194.941696 393.257996 -49.298302 0.000000
-181.458389 393.257996 -49.298302 0.000000
-167.975098 393.257996 -49.298302 0.000000
-154.491791 393.257996 -49.298302 0.000000
-141.008499 393.257996 -49.298302 0.000000
-127.525192 393.257996 -49.298302 0.000000
-114.041885 393.257996 -49.298302 0.000000
-100.558594 393.257996 -49.298302 0.000000
-87.075287 393.257996 -49.298302 0.000000
-73.591980 393.257996 -49.298302 0.000000
-60.108704 393.257996 -49.298302 0.000000
-46.625397 393.257996 -49.298302 0.000000
-33.142090 393.257996 -49.298302 0.000000
-19.658783 393.257996 -49.298302 0.000000
-6.175476 393.257996 -49.298302 0.000000
7.307800 393.257996 -49.298302 0.000000
20.791107 393.257996 -49.298302 0.000000
34.274414 393.257996 -49.298302 0.000000
47.757721 393.257996 -49.298302 0.000000
61.240997 393.257996 -49.298302 0.000000
74.724304 393.257996 -49.298302 0.000000
88.207611 393.257996 -49.298302 0.000000
101.690918 393.257996 -49.298302 0.000000
115.174225 393.257996 -49.298302 0.000000
128.657501 393.257996 -49.298302 0.000000
142.140808 393.257996 -49.298302 0.000000
155.624115 393.257996 -49.298302 0.000000
169.107422 393.257996 -49.298302 0.000000
182.590698 393.257996 -49.298302 0.000000
196.074036 393.257996 -49.298302 0.000000
209.557312 393.257996 -49.298302 0.000000
223.040588 393.257996 -49.298302 0.000000
236.523926 393.257996 -49.298302 0.000000
250.007202 393.257996 -49.298302 0.000000
263.490540 393.257996 -49.298302 0.000000
276.973816 393.257996 -49.298302 0.000000
290.457092 393.257996 -49.298302 0.000000
303.940430 393.257996 -49.298302 0.000000
317.423706 393.257996 -49.298302 0.000000
330.907043 393.257996 -49.298302 0.000000
344.390320 393.257996 -49.298302 0.000000
-343.257996 379.774689 -49.298302 0.000000
-329.774689 379.774689 -49.298302 0.000000
-316.291382 379.774689 -49.298302 0.000000
-302.808105 379.774689 -49.298302 0.000000
-289.324799 379.774689 -49.298302 0.000000
-275.841492 379.774689 -49.298302 0.000000
-262.358185 379.774689 -49.298302 0.000000
-248.874893 379.774689 -49.298302 0.000000
-235.391602 379.774689 -49.298302 0.000000
-221.908295 379.774689 -49.298302 0.000000
-208.424988 379.774689 -49.298302 0.000000
-194.941696 379.774689 -49.298302 0.000000
-181.458389 379.774689 -49.298302 0.000000
-167.975098 379.774689 -49.298302 0.000000
-154.491791 379.774689 -49.298302 0.000000
-141.008499 379.774689 -49.298302 0.000000
-127.525192 379.774689 -49.298302 0.000000
-114.041885 379.774689 -49.298302 0.000000
-100.558594 379.774689 -49.298302 0.000000
-87.075287 379.774689 -49.298302 0.000000
-73.591980 379.774689 -49.298302 0.000000
-60.108704 379.774689 -49.298302 0.000000
-46.625397 379.774689 -49.298302 0.000000
-33.142090 379.774689 -49.298302 0.000000
-19.658783 379.774689 -49.298302 0.000000
-6.175476 379.774689 -49.298302 0.000000
7.307800 379.774689 -49.298302 0.000000
20.791107 379.774689 -49.298302 0.000000
34.274414 379.774689 -49.298302 0.000000
47.757721 379.774689 -49.298302 0.000000
61.240997 379.774689 -49.298302 0.000000
74.724304 379.774689 -49.298302 0.000000
88.207611 379.774689 -49.298302 0.000000
101.690918 379.774689 -49.298302 0.000000
115.174225 379.774689 -49.298302 0.000000
128.657501 379.774689 -49.298302 0.000000
142.140808 379.774689 -49.298302 0.000000
155.624115 379.774689 -49.298302 0.000000
169.107422 379.774689 -49.298302 0.000000
182.590698 379.774689 -49.298302 0.000000
196.074036 379.774689 -49.298302 0.000000
209.557312 379.774689 -49.298302 0.000000
223.040588 379.774689 -49.298302 0.000000
236.523926 379.774689 -49.298302 0.000000
250.007202 379.774689 -49.298302 0.000000
263.490540 379.774689 -49.298302 0.000000
276.973816 379.774689 -49.298302 0.000000
290.457092 379.774689 -49.298302 0.000000
303.940430 379.774689 -49.298302 0.000000
317.423706 379.774689 -49.298302 0.000000
330.907043 379.774689 -49.298302 0.000000
344.390320 379.774689 -49.298302 0.000000
-343.257996 366.291382 -49.298302 0.000000
-329.774689 366.291382 -49.298302 0.000000
-316.291382 366.291382 -49.298302 0.000000
-302.808105 366.291382 -49.298302 0.000000
-289.324799 366.291382 -49.298302 0.000000
-275.841492 366.291382 -49.298302 0.000000
-262.358185 366.291382 -49.298302 0.000000
-248.874893 366.291382 -49.298302 0.000000
-235.391602 366.291382 -49.298302 0.000000
-221.908295 366.291382 -49.298302 0.000000
-208.424988 366.291382 -49.298302 0.000000
-194.941696 366.291382 -49.298302 0.000000
-181.458389 366.291382 -49.298302 0.000000
-167.975098 366.291382 -49.298302 0.000000
-154.491791 366.291382 -49.298302 0.000000
-141.008499 366.291382 -49.298302 0.000000
-127.525192 366.291382 -49.298302 0.000000
-114.041885 366.291382 -49.298302 0.000000
-100.558594 366.291382 -49.298302 0.000000
-87.075287 366.291382 -49.298302 0.000000
-73.591980 366.291382 -49.298302 0.000000
-60.108704 366.291382 -49.298302 0.000000
-46.625397 366.291382 -49.298302 0.000000
-33.142090 366.291382 -49.298302 0.000000
-19.658783 366.291382 -49.298302 0.000000
-6.175476 366.291382 -49.298302 0.000000
7.307800 366.291382 -49.298302 0.000000
20.791107 366.291382 -49.298302 0.000000
34.274414 366.291382 -49.298302 0.000000
47.757721 366.291382 -49.298302 0.000000
61.240997 366.291382 -49.298302 0.000000
74.724304 366.291382 -49.298302 0.000000
88.207611 366.291382 -49.298302 0.000000
101.690918 366.291382 -49.298302 0.000000
115.174225 366.291382 -49.298302 0.000000
128.657501 366.291382 -49.298302 0.000000
142.140808 366.291382 -49.298302 0.000000
155.624115 366.291382 -49.298302 0.000000
169.107422 366.291382 -49.298302 0.000000
182.590698 366.291382 -49.298302 0.000000
196.074036 366.291382 -49.298302 0.000000
209.557312 366.291382 -49.298302 0.000000
223.040588 366.291382 -49.298302 0.000000
236.523926 366.291382 -49.298302 0.000000
250.007202 366.291382 -49.298302 0.000000
263.490540 366.291382 -49.298302 0.000000
276.973816 366.291382 -49.298302 0.000000
290.457092 366.291382 -49.298302 0.000000
303.940430 366.291382 -49.298302 0.000000
317.423706 366.291382 -49.298302 0.000000
330.907043 366.291382 -49.298302 0.000000
344.390320 366.291382 -49.298302 0.000000
-343.257996 352.808105 -49.298302 0.000000
-329.774689 352.808105 -49.298302 0.000000
-316.291382 352.808105 -49.298302 0.000000
-302.808105 352.808105 -49.298302 0.000000
-289.324799 352.808105 -49.298302 -0.005708
-275.841492 352.808105 -49.298302 -0.007307
-262.358185 352.808105 -49.298302 -0.009319
-248.874893 352.808105 -49.298302 -0.009722
-235.391602 352.808105 -49.298302 -0.014398
-221.908295 352.808105 -49.298302 -0.016490
-208.424988 352.808105 -49.298302 -0.013288
-194.941696 352.808105 -49.298302 -0.008984
-181.458389 352.808105 -49.298302 -0.012265
-167.975098 352.808105 -49.298302 0.000000
-154.491791 352.808105 -49.298302 0.000000
-141.008499 352.808105 -49.298302 0.000000
-127.525192 352.808105 -49.298302 0.000000
-114.041885 352.808105 -49.298302 0.000000
-100.558594 352.808105 -49.298302 0.000000
-87.075287 352.808105 -49.298302 0.000000
-73.591980 352.808105 -49.298302 0.000000
-60.108704 352.808105 -49.298302 0.000000
-46.625397 352.808105 -49.298302 0.000000
-33.142090 352.808105 -49.298302 0.000000
-19.658783 352.808105 -49.298302 0.000000
-6.175476 352.808105 -49.298302 0.000000
7.307800 352.808105 -49.298302 0.000000
20.791107 352.808105 -49.298302 0.018453
34.274414 352.808105 -49.298302 0.009638
47.757721 352.808105 -49.298302 -0.000422
61.240997 352.808105 -49.298302 -0.007081
74.724304 352.808105 -49.298302 0.000000
88.207611 352.808105 -49.298302 0.000000
101.690918 352.808105 -49.298302 0.000000
115.174225 352.808105 -49.298302 0.000000
128.657501 352.808105 -49.298302 0.000000
142.140808 352.808105 -49.298302 0.000000
155.624115 352.808105 -49.298302 0.000000
169.107422 352.808105 -49.298302 0.000000
182.590698 352.808105 -49.298302 0.000000
196.074036 352.808105 -49.298302 0.000000
209.557312 352.808105 -49.298302 0.000000
223.040588 352.808105 -49.298302 0.000000
236.523926 352.808105 -49.298302 0.000000
250.007202 352.808105 -49.298302 0.000000
263.490540 352.808105 -49.298302 0.000000
276.973816 352.808105 -49.298302 0.000000
290.457092 352.808105 -49.298302 0.000000
303.940430 352.808105 -49.298302 0.000000
317.423706 352.808105 -49.298302 0.000000
330.907043 352.808105 -49.298302 0.000000
344.390320 352.808105 -49.298302 0.000000
-343.257996 339.324799 -49.298302 0.000000
-329.774689 339.324799 -49.298302 0.000000
-316.291382 339.324799 -49.298302 0.000000
-302.808105 339.324799 -49.298302 -0.003781
-289.324799 339.324799 -49.298302 -0.005567
-275.841492 339.324799 -49.298302 -0.005614
-262.358185 339.324799 -49.298302 -0.008884
-248.874893 339.324799 -49.298302 -0.009836
-235.391602 339.324799 -49.298302 -0.010630
-221.908295 339.324799 -49.298302 -0.014372
-208.424988 339.324799 -49.298302 -0.011326
-194.941696 339.324799 -49.298302 -0.011153
-181.458389 339.324799 -49.298302 -0.020151
-167.975098 339.324799 -49.298302 -0.014420
-154.491791 339.324799 -49.298302 -0.014864
-141.008499 339.324799 -49.298302 -0.013901
-127.525192 339.324799 -49.298302 -0.004155
-114.041885 339.324799 -49.298302 0.020722
-100.558594 339.324799 -49.298302 0.035543
-87.075287 339.324799 -49.298302 0.058670
-73.591980 339.324799 -49.298302 0.061708
-60.108704 339.324799 -49.298302 0.068842
-46.625397 339.324799 -49.298302 0.086009
-33.142090 339.324799 -49.298302 0.083016
-19.658783 339.324799 -49.298302 0.066268
-6.175476 339.324799 -49.298302 0.059747
7.307800 339.324799 -49.298302 0.035711
20.791107 339.324799 -49.298302 0.024934
34.274414 339.324799 -49.298302 0.015707
47.757721 339.324799 -49.298302 0.001804
61.240997 339.324799 -49.298302 -0.012295
74.724304 339.324799 -49.298302 -0.025159
88.207611 339.324799 -49.298302 -0.041433
101.690918 339.324799 -49.298302 -0.048823
115.174225 339.324799 -49.298302 -0.054590
128.657501 339.324799 -49.298302 -0.048714
142.140808 339.324799 -49.298302 -0.045639
155.624115 339.324799 -49.298302 -0.026801
169.107422 339.324799 -49.298302 -0.013778
182.590698 339.324799 -49.298302 -0.005330
196.074036 339.324799 -49.298302 0.013091
209.557312 339.324799 -49.298302 0.023027
223.040588 339.324799 -49.298302 0.034744
236.523926 339.324799 -49.298302 0.045459
250.007202 339.324799 -49.298302 0.046514
263.490540 339.324799 -49.298302 0.042021
276.973816 339.324799 -49.298302 0.000000
290.457092 339.324799 -49.298302 0.000000
303.940430 339.324799 -49.298302 0.000000
317.423706 339.324799 -49.298302 0.000000
330.907043 339.324799 -49.298302 0.000000
344.390320 339.324799 -49.298302 0.000000
-343.257996 325.841492 -49.298302 0.000000
-329.774689 325.841492 -49.298302 0.000000
-316.291382 325.841492 -49.298302 0.000000
-302.808105 325.841492 -49.298302 -0.003021
-289.324799 325.841492 -49.298302 -0.005343
-275.841492 325.841492 -49.298302 -0.006714
-262.358185 325.841492 -49.298302 -0.007838
-248.874893 325.841492 -49.298302 -0.009791
-235.391602 325.841492 -49.298302 -0.012244
-221.908295 325.841492 -49.298302 -0.014141
-208.424988 325.841492 -49.298302 -0.007704
-194.941696 325.841492 -49.298302 -0.010677
-181.458389 325.841492 -49.298302 -0.018470
-167.975098 325.841492 -49.298302 -0.015385
-154.491791 325.841492 -49.298302 -0.021916
-141.008499 325.841492 -49.298302 -0.019609
-127.525192 325.841492 -49.298302 -0.001345
-114.041885 325.841492 -49.298302 0.016645
-100.558594 325.841492 -49.298302 0.033760
-87.075287 325.841492 -49.298302 0.043496
-73.591980 325.841492 -49.298302 0.060907
-60.108704 325.841492 -49.298302 0.072934
-46.625397 325.841492 -49.298302 0.084921
-33.142090 325.841492 -49.298302 0.077207
-19.658783 325.841492 -49.298302 0.063104
-6.175476 325.841492 -49.298302 0.065870
7.307800 325.841492 -49.298302 0.036613
20.791107 325.841492 -49.298302 0.018772
34.274414 325.841492 -49.298302 0.013947
47.757721 325.841492 -49.298302 0.001468
61.240997 325.841492 -49.298302 -0.012013
74.724304 325.841492 -49.298302 -0.024667
88.207611 325.841492 -49.298302 -0.039522
101.690918 325.841492 -49.298302 -0.052731
115.174225 325.841492 -49.298302 -0.056458
128.657501 325.841492 -49.298302 -0.051970
142.140808 325.841492 -49.298302 -0.035876
155.624115 325.841492 -49.298302 -0.012493
169.107422 325.841492 -49.298302 0.001673
182.590698 325.841492 -49.298302 0.006904
196.074036 325.841492 -49.298302 0.022285
209.557312 325.841492 -49.298302 0.029626
223.040588 325.841492 -49.298302 0.037853
236.523926 325.841492 -49.298302 0.045712
250.007202 325.841492 -49.298302 0.047613
263.490540 325.841492 -49.298302 0.048515
276.973816 325.841492 -49.298302 0.038443
290.457092 325.841492 -49.298302 0.000000
303.940430 325.841492 -49.298302 0.000000
317.423706 325.841492 -49.298302 0.000000
330.907043 325.841492 -49.298302 0.000000
344.390320 325.841492 -49.298302 0.000000
-343.257996 312.358185 -49.298302 0.000000
-329.774689 312.358185 -49.298302 0.000000
-316.291382 312.358185 -49.298302 0.000000
-302.808105 312.358185 -49.298302 -0.003042
-289.324799 312.358185 -49.298302 -0.005450
-275.841492 312.358185 -49.298302 -0.006461
-262.358185 312.358185 -49.298302 -0.008352
-248.874893 312.358185 -49.298302 -0.009269
-235.391602 312.358185 -49.298302 -0.012454
-221.908295 312.358185 -49.298302 -0.013668
-208.424988 312.358185 -49.298302 -0.010915
-194.941696 312.358185 -49.298302 -0.014109
-181.458389 312.358185 -49.298302 -0.014443
-167.975098 312.358185 -49.298302 -0.018484
-154.491791 312.358185 -49.298302 -0.019613
-141.008499 312.358185 -49.298302 -0.013123
-127.525192 312.358185 -49.298302 -0.007757
-114.041885 312.358185 -49.298302 0.018738
-100.558594 312.358185 -49.298302 0.031769
-87.075287 312.358185 -49.298302 0.028124
-73.591980 312.358185 -49.298302 0.047511
-60.108704 312.358185 -49.298302 0.068502
-46.625397 312.358185 -49.298302 0.075347
-33.142090 312.358185 -49.298302 0.073722
-19.658783 312.358185 -49.298302 0.066521
-6.175476 312.358185 -49.298302 0.061357
7.307800 312.358185 -49.298302 0.046673
20.791107 312.358185 -49.298302 0.032115
34.274414 312.358185 -49.298302 0.016731
47.757721 312.358185 -49.298302 0.001400
61.240997 312.358185 -49.298302 -0.016152
74.724304 312.358185 -49.298302 -0.031289
88.207611 312.358185 -49.298302 -0.040614
101.690918 312.358185 -49.298302 -0.052462
115.174225 312.358185 -49.298302 -0.057783
128.657501 312.358185 -49.298302 -0.038209
142.140808 312.358185 -49.298302 -0.015907
155.624115 312.358185 -49.298302 -0.002524
169.107422 312.358185 -49.298302 0.011467
182.590698 312.358185 -49.298302 0.023869
196.074036 312.358185 -49.298302 0.024366
209.557312 312.358185 -49.298302 0.032072
223.040588 312.358185 -49.298302 0.042071
236.523926 312.358185 -49.298302 0.047343
250.007202 312.358185 -49.298302 0.049179
263.490540 312.358185 -49.298302 0.047890
276.973816 312.358185 -49.298302 0.039217
290.457092 312.358185 -49.298302 0.030144
303.940430 312.358185 -49.298302 0.000000
317.423706 312.358185 -49.298302 0.000000
330.907043 312.358185 -49.298302 0.000000
344.390320 312.358185 -49.298302 0.000000
-343.257996 298.874878 -49.298302 0.000000
-329.774689 298.874878 -49.298302 0.000000
-316.291382 298.874878 -49.298302 0.000000
-302.808105 298.874878 -49.298302 -0.002693
-289.324799 298.874878 -49.298302 -0.004381
-275.841492 298.874878 -49.298302 -0.006892
-262.358185 298.874878 -49.298302 -0.008590
-248.874893 298.874878 -49.298302 -0.010821
-235.391602 298.874878 -49.298302 -0.012276
-221.908295 298.874878 -49.298302 -0.015180
-208.424988 298.874878 -49.298302 -0.012678
-194.941696 298.874878 -49.298302 -0.014558
-181.458389 298.874878 -49.298302 -0.011315
-167.975098 298.874878 -49.298302 -0.014507
-154.491791 298.874878 -49.298302 -0.010871
-141.008499 298.874878 -49.298302 -0.010011
-127.525192 298.874878 -49.298302 -0.004694
-114.041885 298.874878 -49.298302 0.008333
-100.558594 298.874878 -49.298302 0.025533
-87.075287 298.874878 -49.298302 0.027050
-73.591980 298.874878 -49.298302 0.034072
-60.108704 298.874878 -49.298302 0.047620
-46.625397 298.874878 -49.298302 0.059201
-33.142090 298.874878 -49.298302 0.067020
-19.658783 298.874878 -49.298302 0.069857
-6.175476 298.874878 -49.298302 0.065028
7.307800 298.874878 -49.298302 0.050933
20.791107 298.874878 -49.298302 0.030554
34.274414 298.874878 -49.298302 0.006370
47.757721 298.874878 -49.298302 -0.004601
61.240997 298.874878 -49.298302 -0.027992
74.724304 298.874878 -49.298302 -0.037908
88.207611 298.874878 -49.298302 -0.041755
101.690918 298.874878 -49.298302 -0.050936
115.174225 298.874878 -49.298302 -0.047889
128.657501 298.874878 -49.298302 -0.035418
142.140808 298.874878 -49.298302 -0.011975
155.624115 298.874878 -49.298302 0.009321
169.107422 298.874878 -49.298302 0.016662
182.590698 298.874878 -49.298302 0.024146
196.074036 298.874878 -49.298302 0.030102
209.557312 298.874878 -49.298302 0.038465
223.040588 298.874878 -49.298302 0.044392
236.523926 298.874878 -49.298302 0.049616
250.007202 298.874878 -49.298302 0.046799
263.490540 298.874878 -49.298302 0.044607
276.973816 298.874878 -49.298302 0.037532
290.457092 298.874878 -49.298302 0.027952
303.940430 298.874878 -49.298302 0.000000
317.423706 298.874878 -49.298302 0.000000
330.907043 298.874878 -49.298302 0.000000
344.390320 298.874878 -49.298302 0.000000
-343.257996 285.391602 -49.298302 0.000000
-329.774689 285.391602 -49.298302 0.000000
-316.291382 285.391602 -49.298302 0.000000
-302.808105 285.391602 -49.298302 -0.002509
-289.324799 285.391602 -49.298302 -0.003426
-275.841492 285.391602 -49.298302 -0.006055
-262.358185 285.391602 -49.298302 -0.008808
-248.874893 285.391602 -49.298302 -0.010700
-235.391602 285.391602 -49.298302 -0.012219
-221.908295 285.391602 -49.298302 -0.017029
-208.424988 285.391602 -49.298302 -0.014978
-194.941696 285.391602 -49.298302 -0.016699
-181.458389 285.391602 -49.298302 -0.015726
-167.975098 285.391602 -49.298302 -0.018458
-154.491791 285.391602 -49.298302 -0.019317
-141.008499 285.391602 -49.298302 -0.008682
-127.525192 285.391602 -49.298302 -0.005730
-114.041885 285.391602 -49.298302 -0.000037
-100.558594 285.391602 -49.298302 0.007144
-87.075287 285.391602 -49.298302 0.016077
-73.591980 285.391602 -49.298302 0.016086
-60.108704 285.391602 -49.298302 0.021998
-46.625397 285.391602 -49.298302 0.036984
-33.142090 285.391602 -49.298302 0.064146
-19.658783 285.391602 -49.298302 0.065212
-6.175476 285.391602 -49.298302 0.056046
7.307800 285.391602 -49.298302 0.045244
20.791107 285.391602 -49.298302 0.029399
34.274414 285.391602 -49.298302 0.005128
47.757721 285.391602 -49.298302 -0.013093
61.240997 285.391602 -49.298302 -0.029248
74.724304 285.391602 -49.298302 -0.034315
88.207611 285.391602 -49.298302 -0.056547
101.690918 285.391602 -49.298302 -0.062011
115.174225 285.391602 -49.298302 -0.052578
128.657501 285.391602 -49.298302 -0.034831
142.140808 285.391602 -49.298302 -0.009300
155.624115 285.391602 -49.298302 0.000513
169.107422 285.391602 -49.298302 0.011176
182.590698 285.391602 -49.298302 0.022121
196.074036 285.391602 -49.298302 0.031131
209.557312 285.391602 -49.298302 0.033208
223.040588 285.391602 -49.298302 0.037066
236.523926 285.391602 -49.298302 0.043313
250.007202 285.391602 -49.298302 0.035826
263.490540 285.391602 -49.298302 0.033398
276.973816 285.391602 -49.298302 0.027485
290.457092 285.391602 -49.298302 0.016145
303.940430 285.391602 -49.298302 0.000000
317.423706 285.391602 -49.298302 0.000000
330.907043 285.391602 -49.298302 0.000000
344.390320 285.391602 -49.298302 0.000000
-343.257996 271.908295 -49.298302 0.000000
-329.774689 271.908295 -49.298302 0.000000
-316.291382 271.908295 -49.298302 0.000000
-302.808105 271.908295 -49.298302 -0.002460
-289.324799 271.908295 -49.298302 -0.003018
-275.841492 271.908295 -49.298302 -0.004923
-262.358185 271.908295 -49.298302 -0.007654
-248.874893 271.908295 -49.298302 -0.009617
-235.391602 271.908295 -49.298302 -0.013511
-221.908295 271.908295 -49.298302 -0.016291
-208.424988 271.908295 -49.298302 -0.016769
-194.941696 271.908295 -49.298302 -0.014008
-181.458389 271.908295 -49.298302 -0.014445
-167.975098 271.908295 -49.298302 -0.017344
-154.491791 271.908295 -49.298302 -0.014192
-141.008499 271.908295 -49.298302 -0.015902
-127.525192 271.908295 -49.298302 -0.011191
-114.041885 271.908295 -49.298302 -0.010014
-100.558594 271.908295 -49.298302 -0.010958
-87.075287 271.908295 -49.298302 -0.002455
-73.591980 271.908295 -49.298302 0.012993
-60.108704 271.908295 -49.298302 0.020232
-46.625397 271.908295 -49.298302 0.042998
-33.142090 271.908295 -49.298302 0.072589
-19.658783 271.908295 -49.298302 0.069199
-6.175476 271.908295 -49.298302 0.061649
7.307800 271.908295 -49.298302 0.038732
20.791107 271.908295 -49.298302 0.024900
34.274414 271.908295 -49.298302 0.002224
47.757721 271.908295 -49.298302 -0.020493
61.240997 271.908295 -49.298302 0.000000
74.724304 271.908295 -49.298302 -0.052596
88.207611 271.908295 -49.298302 -0.055018
101.690918 271.908295 -49.298302 -0.052200
115.174225 271.908295 -49.298302 -0.047153
128.657501 271.908295 -49.298302 -0.037672
142.140808 271.908295 -49.298302 -0.015333
155.624115 271.908295 -49.298302 -0.001813
169.107422 271.908295 -49.298302 0.015445
182.590698 271.908295 -49.298302 0.030476
196.074036 271.908295 -49.298302 0.034825
209.557312 271.908295 -49.298302 0.031597
223.040588 271.908295 -49.298302 0.035683
236.523926 271.908295 -49.298302 0.037943
250.007202 271.908295 -49.298302 0.026732
263.490540 271.908295 -49.298302 0.020688
276.973816 271.908295 -49.298302 0.014421
290.457092 271.908295 -49.298302 0.008975
303.940430 271.908295 -49.298302 0.000000
317.423706 271.908295 -49.298302 0.000000
330.907043 271.908295 -49.298302 0.000000
344.390320 271.908295 -49.298302 0.000000
-343.257996 258.424988 -49.298302 0.000000
-329.774689 258.424988 -49.298302 0.000000
-316.291382 258.424988 -49.298302 0.000000
-302.808105 258.424988 -49.298302 -0.001801
-289.324799 258.424988 -49.298302 -0.002887
-275.841492 258.424988 -49.298302 -0.003812
-262.358185 258.424988 -49.298302 -0.005346
-248.874893 258.424988 -49.298302 -0.010327
-235.391602 258.424988 -49.298302 -0.013270
-221.908295 258.424988 -49.298302 -0.017313
-208.424988 258.424988 -49.298302 -0.016174
-194.941696 258.424988 -49.298302 -0.012509
-181.458389 258.424988 -49.298302 -0.016983
-167.975098 258.424988 -49.298302 -0.015105
-154.491791 258.424988 -49.298302 -0.017182
-141.008499 258.424988 -49.298302 -0.016015
-127.525192 258.424988 -49.298302 -0.019557
-114.041885 258.424988 -49.298302 -0.013700
-100.558594 258.424988 -49.298302 -0.009497
-87.075287 258.424988 -49.298302 -0.008318
-73.591980 258.424988 -49.298302 0.013158
-60.108704 258.424988 -49.298302 0.024728
-46.625397 258.424988 -49.298302 0.034172
-33.142090 258.424988 -49.298302 0.061537
-19.658783 258.424988 -49.298302 0.070416
-6.175476 258.424988 -49.298302 0.059073
7.307800 258.424988 -49.298302 0.054879
20.791107 258.424988 -49.298302 0.021209
34.274414 258.424988 -49.298302 -0.007328
47.757721 258.424988 -49.298302 -0.024307
61.240997 258.424988 -49.298302 0.000000
74.724304 258.424988 -49.298302 -0.059125
88.207611 258.424988 -49.298302 -0.065514
101.690918 258.424988 -49.298302 -0.066318
115.174225 258.424988 -49.298302 -0.051418
128.657501 258.424988 -49.298302 -0.048122
142.140808 258.424988 -49.298302 -0.014276
155.624115 258.424988 -49.298302 0.004246
169.107422 258.424988 -49.298302 0.022031
182.590698 258.424988 -49.298302 0.028800
196.074036 258.424988 -49.298302 0.029174
209.557312 258.424988 -49.298302 0.034100
223.040588 258.424988 -49.298302 0.027690
236.523926 258.424988 -49.298302 0.026485
250.007202 258.424988 -49.298302 0.016259
263.490540 258.424988 -49.298302 0.010326
276.973816 258.424988 -49.298302 0.006134
290.457092 258.424988 -49.298302 0.003157
303.940430 258.424988 -49.298302 0.000468
317.423706 258.424988 -49.298302 0.000000
330.907043 258.424988 -49.298302 0.000000
344.390320 258.424988 -49.298302 0.000000
-343.257996 244.941696 -49.298302 0.000000
-329.774689 244.941696 -49.298302 0.000000
-316.291382 244.941696 -49.298302 0.000000
-302.808105 244.941696 -49.298302 -0.002143
-289.324799 244.941696 -49.298302 -0.002014
-275.841492 244.941696 -49.298302 -0.002724
-262.358185 244.941696 -49.298302 -0.002716
-248.874893 244.941696 -49.298302 -0.005059
-235.391602 244.941696 -49.298302 -0.009213
-221.908295 244.941696 -49.298302 -0.009883
-208.424988 244.941696 -49.298302 -0.009498
-194.941696 244.941696 -49.298302 -0.012160
-181.458389 244.941696 -49.298302 -0.012446
-167.975098 244.941696 -49.298302 -0.014700
-154.491791 244.941696 -49.298302 -0.017400
-141.008499 244.941696 -49.298302 -0.013182
-127.525192 244.941696 -49.298302 -0.015948
-114.041885 244.941696 -49.298302 -0.023144
-100.558594 244.941696 -49.298302 -0.019210
-87.075287 244.941696 -49.298302 -0.020290
-73.591980 244.941696 -49.298302 0.000276
-60.108704 244.941696 -49.298302 0.024160
-46.625397 244.941696 -49.298302 0.028944
-33.142090 244.941696 -49.298302 0.054614
-19.658783 244.941696 -49.298302 0.075498
-6.175476 244.941696 -49.298302 0.061072
7.307800 244.941696 -49.298302 0.041829
20.791107 244.941696 -49.298302 0.007277
34.274414 244.941696 -49.298302 -0.013700
47.757721 244.941696 -49.298302 -0.037669
61.240997 244.941696 -49.298302 -0.052231
74.724304 244.941696 -49.298302 -0.062950
88.207611 244.941696 -49.298302 -0.082876
101.690918 244.941696 -49.298302 -0.077098
115.174225 244.941696 -49.298302 0.000000
128.657501 244.941696 -49.298302 0.000000
142.140808 244.941696 -49.298302 0.000000
155.624115 244.941696 -49.298302 0.002772
169.107422 244.941696 -49.298302 0.022228
182.590698 244.941696 -49.298302 0.023294
196.074036 244.941696 -49.298302 0.033218
209.557312 244.941696 -49.298302 0.030915
223.040588 244.941696 -49.298302 0.021947
236.523926 244.941696 -49.298302 0.010835
250.007202 244.941696 -49.298302 0.007606
263.490540 244.941696 -49.298302 0.007552
276.973816 244.941696 -49.298302 0.001697
290.457092 244.941696 -49.298302 0.000658
303.940430 244.941696 -49.298302 -0.001104
317.423706 244.941696 -49.298302 0.000000
330.907043 244.941696 -49.298302 0.000000
344.390320 244.941696 -49.298302 0.000000
-343.257996 231.458389 -49.298302 0.000000
-329.774689 231.458389 -49.298302 0.000000
-316.291382 231.458389 -49.298302 0.000000
-302.808105 231.458389 -49.298302 -0.000823
-289.324799 231.458389 -49.298302 -0.001044
-275.841492 231.458389 -49.298302 -0.001195
-262.358185 231.458389 -49.298302 -0.000576
-248.874893 231.458389 -49.298302 -0.000461
-235.391602 231.458389 -49.298302 -0.000970
-221.908295 231.458389 -49.298302 -0.002496
-208.424988 231.458389 -49.298302 -0.008272
-194.941696 231.458389 -49.298302 -0.006137
-181.458389 231.458389 -49.298302 -0.004041
-167.975098 231.458389 -49.298302 -0.016236
-154.491791 231.458389 -49.298302 -0.023397
-141.008499 231.458389 -49.298302 -0.023410
-127.525192 231.458389 -49.298302 -0.028819
-114.041885 231.458389 -49.298302 -0.026208
-100.558594 231.458389 -49.298302 -0.034007
-87.075287 231.458389 -49.298302 -0.030285
-73.591980 231.458389 -49.298302 -0.004907
-60.108704 231.458389 -49.298302 0.020337
-46.625397 231.458389 -49.298302 0.027643
-33.142090 231.458389 -49.298302 0.056914
-19.658783 231.458389 -49.298302 0.077207
-6.175476 231.458389 -49.298302 0.052849
7.307800 231.458389 -49.298302 0.021448
20.791107 231.458389 -49.298302 -0.003830
34.274414 231.458389 -49.298302 -0.038064
47.757721 231.458389 -49.298302 -0.065113
61.240997 231.458389 -49.298302 -0.086613
74.724304 231.458389 -49.298302 -0.098554
88.207611 231.458389 -49.298302 -0.100882
101.690918 231.458389 -49.298302 -0.089132
115.174225 231.458389 -49.298302 0.000000
128.657501 231.458389 -49.298302 -0.045748
142.140808 231.458389 -49.298302 -0.020461
155.624115 231.458389 -49.298302 0.002945
169.107422 231.458389 -49.298302 0.013970
182.590698 231.458389 -49.298302 0.029066
196.074036 231.458389 -49.298302 0.027096
209.557312 231.458389 -49.298302 0.017020
223.040588 231.458389 -49.298302 0.008457
236.523926 231.458389 -49.298302 0.000572
250.007202 231.458389 -49.298302 0.003205
263.490540 231.458389 -49.298302 -0.000657
276.973816 231.458389 -49.298302 -0.003734
290.457092 231.458389 -49.298302 -0.004650
303.940430 231.458389 -49.298302 -0.003094
317.423706 231.458389 -49.298302 0.000000
330.907043 231.458389 -49.298302 0.000000
344.390320 231.458389 -49.298302 0.000000
-343.257996 217.975098 -49.298302 0.000000
-329.774689 217.975098 -49.298302 0.000000
-316.291382 217.975098 -49.298302 0.000000
-302.808105 217.975098 -49.298302 0.000520
-289.324799 217.975098 -49.298302 -0.000422
-275.841492 217.975098 -49.298302 0.000281
-262.358185 217.975098 -49.298302 0.001043
-248.874893 217.975098 -49.298302 0.002937
-235.391602 217.975098 -49.298302 0.005660
-221.908295 217.975098 -49.298302 0.001540
-208.424988 217.975098 -49.298302 -0.004005
-194.941696 217.975098 -49.298302 -0.005661
-181.458389 217.975098 -49.298302 -0.006362
-167.975098 217.975098 -49.298302 -0.010599
-154.491791 217.975098 -49.298302 -0.020095
-141.008499 217.975098 -49.298302 -0.023154
-127.525192 217.975098 -49.298302 -0.044992
-114.041885 217.975098 -49.298302 -0.046317
-100.558594 217.975098 -49.298302 -0.033821
-87.075287 217.975098 -49.298302 -0.020745
-73.591980 217.975098 -49.298302 0.001464
-60.108704 217.975098 -49.298302 0.024281
-46.625397 217.975098 -49.298302 0.024750
-33.142090 217.975098 -49.298302 0.045166
-19.658783 217.975098 -49.298302 0.063281
-6.175476 217.975098 -49.298302 0.043067
7.307800 217.975098 -49.298302 0.005908
20.791107 217.975098 -49.298302 -0.018395
34.274414 217.975098 -49.298302 0.000000
47.757721 217.975098 -49.298302 -0.088458
61.240997 217.975098 -49.298302 -0.116424
74.724304 217.975098 -49.298302 -0.124900
88.207611 217.975098 -49.298302 -0.123553
101.690918 217.975098 -49.298302 -0.109881
115.174225 217.975098 -49.298302 -0.073740
128.657501 217.975098 -49.298302 -0.038329
142.140808 217.975098 -49.298302 -0.012530
155.624115 217.975098 -49.298302 0.013105
169.107422 217.975098 -49.298302 0.017680
182.590698 217.975098 -49.298302 0.026149
196.074036 217.975098 -49.298302 0.020259
209.557312 217.975098 -49.298302 0.010560
223.040588 217.975098 -49.298302 0.000670
236.523926 217.975098 -49.298302 -0.005154
250.007202 217.975098 -49.298302 -0.004650
263.490540 217.975098 -49.298302 -0.006932
276.973816 217.975098 -49.298302 -0.008028
290.457092 217.975098 -49.298302 -0.005542
303.940430 217.975098 -49.298302 -0.004595
317.423706 217.975098 -49.298302 0.000000
330.907043 217.975098 -49.298302 0.000000
344.390320 217.975098 -49.298302 0.000000
-343.257996 204.491791 -49.298302 0.000000
-329.774689 204.491791 -49.298302 0.000000
-316.291382 204.491791 -49.298302 0.000000
-302.808105 204.491791 -49.298302 -0.000193
-289.324799 204.491791 -49.298302 -0.000207
-275.841492 204.491791 -49.298302 0.001396
-262.358185 204.491791 -49.298302 0.003228
-248.874893 204.491791 -49.298302 0.005281
-235.391602 204.491791 -49.298302 0.004676
-221.908295 204.491791 -49.298302 0.004212
-208.424988 204.491791 -49.298302 -0.000426
-194.941696 204.491791 -49.298302 -0.004685
-181.458389 204.491791 -49.298302 -0.005827
-167.975098 204.491791 -49.298302 -0.017313
-154.491791 204.491791 -49.298302 -0.032598
-141.008499 204.491791 -49.298302 -0.039777
-127.525192 204.491791 -49.298302 -0.058305
-114.041885 204.491791 -49.298302 -0.057077
-100.558594 204.491791 -49.298302 -0.049313
-87.075287 204.491791 -49.298302 -0.035722
-73.591980 204.491791 -49.298302 -0.000929
-60.108704 204.491791 -49.298302 0.017952
-46.625397 204.491791 -49.298302 0.029192
-33.142090 204.491791 -49.298302 0.043925
-19.658783 204.491791 -49.298302 0.044131
-6.175476 204.491791 -49.298302 0.031554
7.307800 204.491791 -49.298302 -0.000809
20.791107 204.491791 -49.298302 -0.034645
34.274414 204.491791 -49.298302 -0.081474
47.757721 204.491791 -49.298302 -0.120815
61.240997 204.491791 -49.298302 -0.123084
74.724304 204.491791 -49.298302 -0.124675
88.207611 204.491791 -49.298302 -0.111393
101.690918 204.491791 -49.298302 -0.092534
115.174225 204.491791 -49.298302 -0.067131
128.657501 204.491791 -49.298302 -0.026273
142.140808 204.491791 -49.298302 0.003589
155.624115 204.491791 -49.298302 0.016445
169.107422 204.491791 -49.298302 0.014035
182.590698 204.491791 -49.298302 0.014557
196.074036 204.491791 -49.298302 0.019010
209.557312 204.491791 -49.298302 0.004737
223.040588 204.491791 -49.298302 -0.005271
236.523926 204.491791 -49.298302 -0.007045
250.007202 204.491791 -49.298302 -0.010936
263.490540 204.491791 -49.298302 -0.009480
276.973816 204.491791 -49.298302 -0.011401
290.457092 204.491791 -49.298302 -0.008172
303.940430 204.491791 -49.298302 -0.005971
317.423706 204.491791 -49.298302 0.000000
330.907043 204.491791 -49.298302 0.000000
344.390320 204.491791 -49.298302 0.000000
-343.257996 191.008499 -49.298302 0.000000
-329.774689 191.008499 -49.298302 0.000000
-316.291382 191.008499 -49.298302 0.000000
-302.808105 191.008499 -49.298302 -0.001760
-289.324799 191.008499 -49.298302 -0.001158
-275.841492 191.008499 -49.298302 0.000436
-262.358185 191.008499 -49.298302 0.003622
-248.874893 191.008499 -49.298302 0.004068
-235.391602 191.008499 -49.298302 0.003994
-221.908295 191.008499 -49.298302 0.004072
-208.424988 191.008499 -49.298302 -0.001744
-194.941696 191.008499 -49.298302 -0.006931
-181.458389 191.008499 -49.298302 -0.016763
-167.975098 191.008499 -49.298302 -0.028399
-154.491791 191.008499 -49.298302 -0.046176
-141.008499 191.008499 -49.298302 -0.053206
-127.525192 191.008499 -49.298302 -0.068494
-114.041885 191.008499 -49.298302 -0.073277
-100.558594 191.008499 -49.298302 -0.070957
-87.075287 191.008499 -49.298302 -0.046646
-73.591980 191.008499 -49.298302 -0.016553
-60.108704 191.008499 -49.298302 0.004661
-46.625397 191.008499 -49.298302 0.025037
-33.142090 191.008499 -49.298302 0.032941
-19.658783 191.008499 -49.298302 0.030529
-6.175476 191.008499 -49.298302 0.018162
7.307800 191.008499 -49.298302 -0.022588
20.791107 191.008499 -49.298302 -0.060112
34.274414 191.008499 -49.298302 -0.102061
47.757721 191.008499 -49.298302 -0.127847
61.240997 191.008499 -49.298302 -0.117967
74.724304 191.008499 -49.298302 -0.119568
88.207611 191.008499 -49.298302 -0.089550
101.690918 191.008499 -49.298302 -0.068118
115.174225 191.008499 -49.298302 -0.054872
128.657501 191.008499 -49.298302 -0.028730
142.140808 191.008499 -49.298302 -0.006815
155.624115 191.008499 -49.298302 0.008504
169.107422 191.008499 -49.298302 0.011377
182.590698 191.008499 -49.298302 0.012186
196.074036 191.008499 -49.298302 0.006834
209.557312 191.008499 -49.298302 0.003335
223.040588 191.008499 -49.298302 -0.001307
236.523926 191.008499 -49.298302 -0.010492
250.007202 191.008499 -49.298302 -0.013001
263.490540 191.008499 -49.298302 -0.008454
276.973816 191.008499 -49.298302 -0.008970
290.457092 191.008499 -49.298302 -0.007771
303.940430 191.008499 -49.298302 -0.005666
317.423706 191.008499 -49.298302 0.000000
330.907043 191.008499 -49.298302 0.000000
344.390320 191.008499 -49.298302 0.000000
-343.257996 177.525192 -49.298302 0.000000
-329.774689 177.525192 -49.298302 0.000000
-316.291382 177.525192 -49.298302 0.000000
-302.808105 177.525192 -49.298302 -0.002396
-289.324799 177.525192 -49.298302 -0.001596
-275.841492 177.525192 -49.298302 -0.001786
-262.358185 177.525192 -49.298302 -0.000102
-248.874893 177.525192 -49.298302 0.000912
-235.391602 177.525192 -49.298302 0.000203
-221.908295 177.525192 -49.298302 -0.006633
-208.424988 177.525192 -49.298302 -0.009757
-194.941696 177.525192 -49.298302 -0.017985
-181.458389 177.525192 -49.298302 -0.029563
-167.975098 177.525192 -49.298302 -0.049647
-154.491791 177.525192 -49.298302 -0.066527
-141.008499 177.525192 -49.298302 -0.071772
-127.525192 177.525192 -49.298302 -0.082089
-114.041885 177.525192 -49.298302 -0.079224
-100.558594 177.525192 -49.298302 -0.054716
-87.075287 177.525192 -49.298302 -0.051029
-73.591980 177.525192 -49.298302 -0.027368
-60.108704 177.525192 -49.298302 0.002380
-46.625397 177.525192 -49.298302 0.021864
-33.142090 177.525192 -49.298302 0.037581
-19.658783 177.525192 -49.298302 0.032557
-6.175476 177.525192 -49.298302 -0.007911
7.307800 177.525192 -49.298302 -0.022123
20.791107 177.525192 -49.298302 -0.060563
34.274414 177.525192 -49.298302 -0.100188
47.757721 177.525192 -49.298302 -0.137644
61.240997 177.525192 -49.298302 -0.120987
74.724304 177.525192 -49.298302 -0.106776
88.207611 177.525192 -49.298302 -0.083708
101.690918 177.525192 -49.298302 -0.049238
115.174225 177.525192 -49.298302 -0.028808
128.657501 177.525192 -49.298302 -0.017826
142.140808 177.525192 -49.298302 -0.001562
155.624115 177.525192 -49.298302 0.002821
169.107422 177.525192 -49.298302 0.004699
182.590698 177.525192 -49.298302 0.005540
196.074036 177.525192 -49.298302 0.001677
209.557312 177.525192 -49.298302 -0.003154
223.040588 177.525192 -49.298302 -0.007946
236.523926 177.525192 -49.298302 -0.009351
250.007202 177.525192 -49.298302 -0.010830
263.490540 177.525192 -49.298302 -0.013762
276.973816 177.525192 -49.298302 -0.010227
290.457092 177.525192 -49.298302 -0.007673
303.940430 177.525192 -49.298302 -0.005566
317.423706 177.525192 -49.298302 0.000000
330.907043 177.525192 -49.298302 0.000000
344.390320 177.525192 -49.298302 0.000000
-343.257996 164.041885 -49.298302 0.000000
-329.774689 164.041885 -49.298302 0.000000
-316.291382 164.041885 -49.298302 0.000000
-302.808105 164.041885 -49.298302 -0.002724
-289.324799 164.041885 -49.298302 -0.002948
-275.841492 164.041885 -49.298302 -0.003709
-262.358185 164.041885 -49.298302 -0.004410
-248.874893 164.041885 -49.298302 -0.005490
-235.391602 164.041885 -49.298302 -0.014311
-221.908295 164.041885 -49.298302 -0.024680
-208.424988 164.041885 -49.298302 -0.029208
-194.941696 164.041885 -49.298302 -0.039273
-181.458389 164.041885 -49.298302 -0.044625
-167.975098 164.041885 -49.298302 -0.059578
-154.491791 164.041885 -49.298302 -0.078799
-141.008499 164.041885 -49.298302 -0.071472
-127.525192 164.041885 -49.298302 -0.071339
-114.041885 164.041885 -49.298302 -0.067254
-100.558594 164.041885 -49.298302 -0.041030
-87.075287 164.041885 -49.298302 -0.024766
-73.591980 164.041885 -49.298302 -0.016288
-60.108704 164.041885 -49.298302 0.015312
-46.625397 164.041885 -49.298302 0.029806
-33.142090 164.041885 -49.298302 0.030979
-19.658783 164.041885 -49.298302 0.030216
-6.175476 164.041885 -49.298302 -0.009232
7.307800 164.041885 -49.298302 -0.035755
20.791107 164.041885 -49.298302 -0.060893
34.274414 164.041885 -49.298302 -0.096281
47.757721 164.041885 -49.298302 -0.118652
61.240997 164.041885 -49.298302 -0.117150
74.724304 164.041885 -49.298302 -0.093303
88.207611 164.041885 -49.298302 -0.060702
101.690918 164.041885 -49.298302 -0.036346
115.174225 164.041885 -49.298302 -0.018789
128.657501 164.041885 -49.298302 -0.009733
142.140808 164.041885 -49.298302 0.003141
155.624115 164.041885 -49.298302 0.010145
169.107422 164.041885 -49.298302 0.002849
182.590698 164.041885 -49.298302 0.001904
196.074036 164.041885 -49.298302 -0.001986
209.557312 164.041885 -49.298302 -0.006250
223.040588 164.041885 -49.298302 -0.008056
236.523926 164.041885 -49.298302 -0.008004
250.007202 164.041885 -49.298302 -0.009223
263.490540 164.041885 -49.298302 -0.010385
276.973816 164.041885 -49.298302 -0.008808
290.457092 164.041885 -49.298302 -0.006646
303.940430 164.041885 -49.298302 -0.005015
317.423706 164.041885 -49.298302 0.000000
330.907043 164.041885 -49.298302 0.000000
344.390320 164.041885 -49.298302 0.000000
-343.257996 150.558594 -49.298302 0.000000
-329.774689 150.558594 -49.298302 0.000000
-316.291382 150.558594 -49.298302 0.000000
-302.808105 150.558594 -49.298302 -0.004057
-289.324799 150.558594 -49.298302 -0.005536
-275.841492 150.558594 -49.298302 -0.007345
-262.358185 150.558594 -49.298302 -0.010711
-248.874893 150.558594 -49.298302 -0.017363
-235.391602 150.558594 -49.298302 -0.028357
-221.908295 150.558594 -49.298302 -0.039694
-208.424988 150.558594 -49.298302 -0.053929
-194.941696 150.558594 -49.298302 -0.068007
-181.458389 150.558594 -49.298302 -0.065752
-167.975098 150.558594 -49.298302 -0.070566
-154.491791 150.558594 -49.298302 -0.072780
-141.008499 150.558594 -49.298302 -0.060042
-127.525192 150.558594 -49.298302 -0.038596
-114.041885 150.558594 -49.298302 -0.044051
-100.558594 150.558594 -49.298302 -0.017314
-87.075287 150.558594 -49.298302 0.003515
-73.591980 150.558594 -49.298302 -0.000761
-60.108704 150.558594 -49.298302 0.028840
-46.625397 150.558594 -49.298302 0.030063
-33.142090 150.558594 -49.298302 0.008452
-19.658783 150.558594 -49.298302 0.017330
-6.175476 150.558594 -49.298302 -0.005391
7.307800 150.558594 -49.298302 -0.042117
20.791107 150.558594 -49.298302 -0.077487
34.274414 150.558594 -49.298302 -0.089651
47.757721 150.558594 -49.298302 -0.108815
61.240997 150.558594 -49.298302 -0.094253
74.724304 150.558594 -49.298302 -0.071311
88.207611 150.558594 -49.298302 -0.048154
101.690918 150.558594 -49.298302 -0.028234
115.174225 150.558594 -49.298302 -0.017018
128.657501 150.558594 -49.298302 -0.003591
142.140808 150.558594 -49.298302 -0.001322
155.624115 150.558594 -49.298302 0.005279
169.107422 150.558594 -49.298302 0.001512
182.590698 150.558594 -49.298302 0.001520
196.074036 150.558594 -49.298302 -0.004493
209.557312 150.558594 -49.298302 -0.007124
223.040588 150.558594 -49.298302 -0.007738
236.523926 150.558594 -49.298302 -0.006913
250.007202 150.558594 -49.298302 -0.007319
263.490540 150.558594 -49.298302 -0.008061
276.973816 150.558594 -49.298302 -0.006674
290.457092 150.558594 -49.298302 -0.004972
303.940430 150.558594 -49.298302 -0.004275
317.423706 150.558594 -49.298302 0.000000
330.907043 150.558594 -49.298302 0.000000
344.390320 150.558594 -49.298302 0.000000
-343.257996 137.075287 -49.298302 0.000000
-329.774689 137.075287 -49.298302 0.000000
-316.291382 137.075287 -49.298302 0.000000
-302.808105 137.075287 -49.298302 -0.006095
-289.324799 137.075287 -49.298302 -0.008850
-275.841492 137.075287 -49.298302 -0.012451
-262.358185 137.075287 -49.298302 -0.015238
-248.874893 137.075287 -49.298302 -0.023809
-235.391602 137.075287 -49.298302 -0.042790
-221.908295 137.075287 -49.298302 -0.056266
-208.424988 137.075287 -49.298302 -0.070982
-194.941696 137.075287 -49.298302 -0.087636
-181.458389 137.075287 -49.298302 -0.087205
-167.975098 137.075287 -49.298302 -0.091654
-154.491791 137.075287 -49.298302 -0.064000
-141.008499 137.075287 -49.298302 -0.038087
-127.525192 137.075287 -49.298302 0.005018
-114.041885 137.075287 -49.298302 0.009494
-100.558594 137.075287 -49.298302 0.023162
-87.075287 137.075287 -49.298302 0.010916
-73.591980 137.075287 -49.298302 0.014936
-60.108704 137.075287 -49.298302 0.034527
-46.625397 137.075287 -49.298302 0.021696
-33.142090 137.075287 -49.298302 0.015860
-19.658783 137.075287 -49.298302 0.007761
-6.175476 137.075287 -49.298302 -0.020169
7.307800 137.075287 -49.298302 -0.054254
20.791107 137.075287 -49.298302 -0.083207
34.274414 137.075287 -49.298302 -0.090307
47.757721 137.075287 -49.298302 -0.092971
61.240997 137.075287 -49.298302 -0.074482
74.724304 137.075287 -49.298302 -0.054196
88.207611 137.075287 -49.298302 -0.039926
101.690918 137.075287 -49.298302 -0.022853
115.174225 137.075287 -49.298302 -0.010962
128.657501 137.075287 -49.298302 0.000710
142.140808 137.075287 -49.298302 0.002383
155.624115 137.075287 -49.298302 -0.003079
169.107422 137.075287 -49.298302 -0.002359
182.590698 137.075287 -49.298302 -0.002923
196.074036 137.075287 -49.298302 -0.001026
209.557312 137.075287 -49.298302 -0.006958
223.040588 137.075287 -49.298302 -0.009040
236.523926 137.075287 -49.298302 -0.007317
250.007202 137.075287 -49.298302 -0.007766
263.490540 137.075287 -49.298302 -0.006862
276.973816 137.075287 -49.298302 -0.006368
290.457092 137.075287 -49.298302 -0.005052
303.940430 137.075287 -49.298302 -0.003901
317.423706 137.075287 -49.298302 0.000000
330.907043 137.075287 -49.298302 0.000000
344.390320 137.075287 -49.298302 0.000000
-343.257996 123.591980 -49.298302 0.000000
-329.774689 123.591980 -49.298302 0.000000
-316.291382 123.591980 -49.298302 0.000000
-302.808105 123.591980 -49.298302 -0.007759
-289.324799 123.591980 -49.298302 -0.010593
-275.841492 123.591980 -49.298302 -0.014161
-262.358185 123.591980 -49.298302 -0.018365
-248.874893 123.591980 -49.298302 -0.028366
-235.391602 123.591980 -49.298302 -0.047430
-221.908295 123.591980 -49.298302 -0.063948
-208.424988 123.591980 -49.298302 -0.080619
-194.941696 123.591980 -49.298302 -0.096202
-181.458389 123.591980 -49.298302 -0.105209
-167.975098 123.591980 -49.298302 -0.080290
-154.491791 123.591980 -49.298302 -0.036737
-141.008499 123.591980 -49.298302 -0.013830
-127.525192 123.591980 -49.298302 0.006535
-114.041885 123.591980 -49.298302 0.027286
-100.558594 123.591980 -49.298302 0.057414
-87.075287 123.591980 -49.298302 0.042059
-73.591980 123.591980 -49.298302 0.038323
-60.108704 123.591980 -49.298302 0.043189
-46.625397 123.591980 -49.298302 0.030725
-33.142090 123.591980 -49.298302 0.017321
-19.658783 123.591980 -49.298302 -0.001818
-6.175476 123.591980 -49.298302 -0.038032
7.307800 123.591980 -49.298302 -0.068224
20.791107 123.591980 -49.298302 -0.081965
34.274414 123.591980 -49.298302 -0.088495
47.757721 123.591980 -49.298302 -0.079223
61.240997 123.591980 -49.298302 -0.056184
74.724304 123.591980 -49.298302 -0.036687
88.207611 123.591980 -49.298302 -0.020835
101.690918 123.591980 -49.298302 -0.013585
115.174225 123.591980 -49.298302 -0.003548
128.657501 123.591980 -49.298302 0.002294
142.140808 123.591980 -49.298302 0.001220
155.624115 123.591980 -49.298302 -0.003594
169.107422 123.591980 -49.298302 -0.004309
182.590698 123.591980 -49.298302 -0.002266
196.074036 123.591980 -49.298302 -0.003526
209.557312 123.591980 -49.298302 -0.005998
223.040588 123.591980 -49.298302 -0.009193
236.523926 123.591980 -49.298302 -0.008233
250.007202 123.591980 -49.298302 -0.007316
263.490540 123.591980 -49.298302 -0.005733
276.973816 123.591980 -49.298302 -0.004485
290.457092 123.591980 -49.298302 -0.003889
303.940430 123.591980 -49.298302 -0.003008
317.423706 123.591980 -49.298302 0.000000
330.907043 123.591980 -49.298302 0.000000
344.390320 123.591980 -49.298302 0.000000
-343.257996 110.108704 -49.298302 0.000000
-329.774689 110.108704 -49.298302 0.000000
-316.291382 110.108704 -49.298302 0.000000
-302.808105 110.108704 -49.298302 -0.007613
-289.324799 110.108704 -49.298302 -0.010083
-275.841492 110.108704 -49.298302 -0.014332
-262.358185 110.108704 -49.298302 -0.020805
-248.874893 110.108704 -49.298302 -0.031946
-235.391602 110.108704 -49.298302 -0.046644
-221.908295 110.108704 -49.298302 -0.057800
-208.424988 110.108704 -49.298302 -0.067456
-194.941696 110.108704 -49.298302 -0.094476
-181.458389 110.108704 -49.298302 -0.106166
-167.975098 110.108704 -49.298302 -0.075626
-154.491791 110.108704 -49.298302 -0.047680
-141.008499 110.108704 -49.298302 -0.020823
-127.525192 110.108704 -49.298302 0.023893
-114.041885 110.108704 -49.298302 0.043572
-100.558594 110.108704 -49.298302 0.060569
-87.075287 110.108704 -49.298302 0.065952
-73.591980 110.108704 -49.298302 0.057709
-60.108704 110.108704 -49.298302 0.055478
-46.625397 110.108704 -49.298302 0.030166
-33.142090 110.108704 -49.298302 0.010344
-19.658783 110.108704 -49.298302 -0.025209
-6.175476 110.108704 -49.298302 -0.058304
7.307800 110.108704 -49.298302 -0.071657
20.791107 110.108704 -49.298302 -0.083088
34.274414 110.108704 -49.298302 -0.070469
47.757721 110.108704 -49.298302 -0.051778
61.240997 110.108704 -49.298302 -0.034394
74.724304 110.108704 -49.298302 -0.015569
88.207611 110.108704 -49.298302 -0.003576
101.690918 110.108704 -49.298302 -0.004011
115.174225 110.108704 -49.298302 0.000451
128.657501 110.108704 -49.298302 0.001199
142.140808 110.108704 -49.298302 0.005320
155.624115 110.108704 -49.298302 0.000197
169.107422 110.108704 -49.298302 -0.001351
182.590698 110.108704 -49.298302 -0.002617
196.074036 110.108704 -49.298302 -0.003018
209.557312 110.108704 -49.298302 -0.005601
223.040588 110.108704 -49.298302 -0.008026
236.523926 110.108704 -49.298302 -0.007047
250.007202 110.108704 -49.298302 -0.005771
263.490540 110.108704 -49.298302 -0.004567
276.973816 110.108704 -49.298302 -0.002976
290.457092 110.108704 -49.298302 -0.002657
303.940430 110.108704 -49.298302 -0.002305
317.423706 110.108704 -49.298302 0.000000
330.907043 110.108704 -49.298302 0.000000
344.390320 110.108704 -49.298302 0.000000
-343.257996 96.625397 -49.298302 0.000000
-329.774689 96.625397 -49.298302 0.000000
-316.291382 96.625397 -49.298302 0.000000
-302.808105 96.625397 -49.298302 -0.007149
-289.324799 96.625397 -49.298302 -0.010341
-275.841492 96.625397 -49.298302 -0.014348
-262.358185 96.625397 -49.298302 -0.023339
-248.874893 96.625397 -49.298302 -0.033835
-235.391602 96.625397 -49.298302 -0.045942
-221.908295 96.625397 -49.298302 -0.058730
-208.424988 96.625397 -49.298302 -0.070278
-194.941696 96.625397 -49.298302 -0.096152
-181.458389 96.625397 -49.298302 -0.085751
-167.975098 96.625397 -49.298302 -0.076483
-154.491791 96.625397 -49.298302 -0.046163
-141.008499 96.625397 -49.298302 -0.023125
-127.525192 96.625397 -49.298302 0.014843
-114.041885 96.625397 -49.298302 0.038595
-100.558594 96.625397 -49.298302 0.065062
-87.075287 96.625397 -49.298302 0.044696
-73.591980 96.625397 -49.298302 0.036903
-60.108704 96.625397 -49.298302 0.012039
-46.625397 96.625397 -49.298302 0.000535
-33.142090 96.625397 -49.298302 -0.033912
-19.658783 96.625397 -49.298302 -0.048911
-6.175476 96.625397 -49.298302 -0.070047
7.307800 96.625397 -49.298302 -0.082039
20.791107 96.625397 -49.298302 -0.071912
34.274414 96.625397 -49.298302 -0.041622
47.757721 96.625397 -49.298302 -0.034598
61.240997 96.625397 -49.298302 -0.016829
74.724304 96.625397 -49.298302 0.005980
88.207611 96.625397 -49.298302 0.008996
101.690918 96.625397 -49.298302 0.001551
115.174225 96.625397 -49.298302 0.003104
128.657501 96.625397 -49.298302 0.006261
142.140808 96.625397 -49.298302 0.007768
155.624115 96.625397 -49.298302 0.002898
169.107422 96.625397 -49.298302 0.000875
182.590698 96.625397 -49.298302 -0.002108
196.074036 96.625397 -49.298302 -0.003954
209.557312 96.625397 -49.298302 -0.003865
223.040588 96.625397 -49.298302 -0.004815
236.523926 96.625397 -49.298302 -0.004310
250.007202 96.625397 -49.298302 -0.004246
263.490540 96.625397 -49.298302 -0.002918
276.973816 96.625397 -49.298302 -0.002182
290.457092 96.625397 -49.298302 -0.001897
303.940430 96.625397 -49.298302 -0.001772
317.423706 96.625397 -49.298302 0.000000
330.907043 96.625397 -49.298302 0.000000
344.390320 96.625397 -49.298302 0.000000
-343.257996 83.142090 -49.298302 0.000000
-329.774689 83.142090 -49.298302 0.000000
-316.291382 83.142090 -49.298302 0.000000
-302.808105 83.142090 -49.298302 -0.006418
-289.324799 83.142090 -49.298302 -0.008871
-275.841492 83.142090 -49.298302 -0.014517
-262.358185 83.142090 -49.298302 -0.021211
-248.874893 83.142090 -49.298302 -0.034511
-235.391602 83.142090 -49.298302 -0.044401
-221.908295 83.142090 -49.298302 -0.056345
-208.424988 83.142090 -49.298302 -0.070778
-194.941696 83.142090 -49.298302 -0.084249
-181.458389 83.142090 -49.298302 -0.078629
-167.975098 83.142090 -49.298302 -0.079435
-154.491791 83.142090 -49.298302 -0.054476
-141.008499 83.142090 -49.298302 -0.009563
-127.525192 83.142090 -49.298302 -0.003021
-114.041885 83.142090 -49.298302 0.036947
-100.558594 83.142090 -49.298302 0.047300
-87.075287 83.142090 -49.298302 0.034198
-73.591980 83.142090 -49.298302 0.012644
-60.108704 83.142090 -49.298302 0.003703
-46.625397 83.142090 -49.298302 -0.027107
-33.142090 83.142090 -49.298302 -0.053042
-19.658783 83.142090 -49.298302 -0.080552
-6.175476 83.142090 -49.298302 -0.084342
7.307800 83.142090 -49.298302 -0.083716
20.791107 83.142090 -49.298302 -0.079636
34.274414 83.142090 -49.298302 -0.050741
47.757721 83.142090 -49.298302 -0.016475
61.240997 83.142090 -49.298302 -0.002513
74.724304 83.142090 -49.298302 0.015103
88.207611 83.142090 -49.298302 0.018470
101.690918 83.142090 -49.298302 0.012797
115.174225 83.142090 -49.298302 0.007622
128.657501 83.142090 -49.298302 0.006611
142.140808 83.142090 -49.298302 0.010636
155.624115 83.142090 -49.298302 0.005456
169.107422 83.142090 -49.298302 0.001901
182.590698 83.142090 -49.298302 -0.001616
196.074036 83.142090 -49.298302 -0.001046
209.557312 83.142090 -49.298302 -0.001969
223.040588 83.142090 -49.298302 -0.002923
236.523926 83.142090 -49.298302 -0.003093
250.007202 83.142090 -49.298302 -0.002920
263.490540 83.142090 -49.298302 -0.002180
276.973816 83.142090 -49.298302 -0.001749
290.457092 83.142090 -49.298302 -0.001410
303.940430 83.142090 -49.298302 -0.001465
317.423706 83.142090 -49.298302 0.000000
330.907043 83.142090 -49.298302 0.000000
344.390320 83.142090 -49.298302 0.000000
-343.257996 69.658783 -49.298302 0.000000
-329.774689 69.658783 -49.298302 0.000000
-316.291382 69.658783 -49.298302 0.000000
-302.808105 69.658783 -49.298302 -0.006700
-289.324799 69.658783 -49.298302 -0.007899
-275.841492 69.658783 -49.298302 -0.011949
-262.358185 69.658783 -49.298302 -0.019240
-248.874893 69.658783 -49.298302 -0.031162
-235.391602 69.658783 -49.298302 -0.036345
-221.908295 69.658783 -49.298302 -0.054976
-208.424988 69.658783 -49.298302 -0.073179
-194.941696 69.658783 -49.298302 -0.075910
-181.458389 69.658783 -49.298302 -0.079102
-167.975098 69.658783 -49.298302 -0.081369
-154.491791 69.658783 -49.298302 -0.069344
-141.008499 69.658783 -49.298302 -0.023411
-127.525192 69.658783 -49.298302 0.020678
-114.041885 69.658783 -49.298302 0.042959
-100.558594 69.658783 -49.298302 0.043433
-87.075287 69.658783 -49.298302 0.019001
-73.591980 69.658783 -49.298302 -0.005883
-60.108704 69.658783 -49.298302 -0.023070
-46.625397 69.658783 -49.298302 -0.026718
-33.142090 69.658783 -49.298302 -0.064495
-19.658783 69.658783 -49.298302 -0.076486
-6.175476 69.658783 -49.298302 -0.083991
7.307800 69.658783 -49.298302 -0.081909
20.791107 69.658783 -49.298302 -0.083246
34.274414 69.658783 -49.298302 -0.044428
47.757721 69.658783 -49.298302 -0.010896
61.240997 69.658783 -49.298302 0.014172
74.724304 69.658783 -49.298302 0.022242
88.207611 69.658783 -49.298302 0.022115
101.690918 69.658783 -49.298302 0.019350
115.174225 69.658783 -49.298302 0.014662
128.657501 69.658783 -49.298302 0.011443
142.140808 69.658783 -49.298302 0.012705
155.624115 69.658783 -49.298302 0.011611
169.107422 69.658783 -49.298302 0.006795
182.590698 69.658783 -49.298302 0.003227
196.074036 69.658783 -49.298302 0.002033
209.557312 69.658783 -49.298302 0.000590
223.040588 69.658783 -49.298302 -0.000558
236.523926 69.658783 -49.298302 -0.001140
250.007202 69.658783 -49.298302 -0.001239
263.490540 69.658783 -49.298302 -0.001516
276.973816 69.658783 -49.298302 -0.001211
290.457092 69.658783 -49.298302 -0.001077
303.940430 69.658783 -49.298302 -0.001094
317.423706 69.658783 -49.298302 0.000000
330.907043 69.658783 -49.298302 0.000000
344.390320 69.658783 -49.298302 0.000000
-343.257996 56.175476 -49.298302 0.000000
-329.774689 56.175476 -49.298302 0.000000
-316.291382 56.175476 -49.298302 0.000000
-302.808105 56.175476 -49.298302 -0.004288
-289.324799 56.175476 -49.298302 -0.006238
-275.841492 56.175476 -49.298302 -0.008127
-262.358185 56.175476 -49.298302 -0.012801
-248.874893 56.175476 -49.298302 -0.020224
-235.391602 56.175476 -49.298302 -0.034683
-221.908295 56.175476 -49.298302 -0.047614
-208.424988 56.175476 -49.298302 -0.065189
-194.941696 56.175476 -49.298302 -0.074050
-181.458389 56.175476 -49.298302 -0.092478
-167.975098 56.175476 -49.298302 -0.074613
-154.491791 56.175476 -49.298302 -0.060847
-141.008499 56.175476 -49.298302 -0.018508
-127.525192 56.175476 -49.298302 0.015892
-114.041885 56.175476 -49.298302 0.042943
-100.558594 56.175476 -49.298302 0.045516
-87.075287 56.175476 -49.298302 0.016014
-73.591980 56.175476 -49.298302 -0.017362
-60.108704 56.175476 -49.298302 -0.027381
-46.625397 56.175476 -49.298302 -0.050097
-33.142090 56.175476 -49.298302 -0.080047
-19.658783 56.175476 -49.298302 -0.098185
-6.175476 56.175476 -49.298302 -0.098399
7.307800 56.175476 -49.298302 -0.083856
20.791107 56.175476 -49.298302 -0.080570
34.274414 56.175476 -49.298302 -0.036117
47.757721 56.175476 -49.298302 0.001249
61.240997 56.175476 -49.298302 0.029804
74.724304 56.175476 -49.298302 0.027749
88.207611 56.175476 -49.298302 0.030785
101.690918 56.175476 -49.298302 0.024366
115.174225 56.175476 -49.298302 0.022755
128.657501 56.175476 -49.298302 0.021596
142.140808 56.175476 -49.298302 0.021327
155.624115 56.175476 -49.298302 0.016950
169.107422 56.175476 -49.298302 0.013936
182.590698 56.175476 -49.298302 0.011595
196.074036 56.175476 -49.298302 0.007982
209.557312 56.175476 -49.298302 0.004647
223.040588 56.175476 -49.298302 0.002267
236.523926 56.175476 -49.298302 0.000163
250.007202 56.175476 -49.298302 -0.000298
263.490540 56.175476 -49.298302 -0.000770
276.973816 56.175476 -49.298302 -0.000851
290.457092 56.175476 -49.298302 -0.000836
303.940430 56.175476 -49.298302 -0.001045
317.423706 56.175476 -49.298302 0.000000
330.907043 56.175476 -49.298302 0.000000
344.390320 56.175476 -49.298302 0.000000
-343.257996 42.692200 -49.298302 0.000000
-329.774689 42.692200 -49.298302 0.000000
-316.291382 42.692200 -49.298302 0.000000
-302.808105 42.692200 -49.298302 -0.002331
-289.324799 42.692200 -49.298302 -0.003377
-275.841492 42.692200 -49.298302 -0.004921
-262.358185 42.692200 -49.298302 -0.006446
-248.874893 42.692200 -49.298302 -0.014827
-235.391602 42.692200 -49.298302 -0.024693
-221.908295 42.692200 -49.298302 -0.037051
-208.424988 42.692200 -49.298302 -0.058465
-194.941696 42.692200 -49.298302 -0.085993
-181.458389 42.692200 -49.298302 -0.094689
-167.975098 42.692200 -49.298302 -0.068869
-154.491791 42.692200 -49.298302 -0.049769
-141.008499 42.692200 -49.298302 -0.036786
-127.525192 42.692200 -49.298302 0.007076
-114.041885 42.692200 -49.298302 0.034429
-100.558594 42.692200 -49.298302 0.006225
-87.075287 42.692200 -49.298302 -0.027057
-73.591980 42.692200 -49.298302 -0.026625
-60.108704 42.692200 -49.298302 -0.041325
-46.625397 42.692200 -49.298302 -0.056870
-33.142090 42.692200 -49.298302 -0.079869
-19.658783 42.692200 -49.298302 -0.089773
-6.175476 42.692200 -49.298302 -0.106786
7.307800 42.692200 -49.298302 -0.102493
20.791107 42.692200 -49.298302 -0.085980
34.274414 42.692200 -49.298302 -0.038607
47.757721 42.692200 -49.298302 0.000598
61.240997 42.692200 -49.298302 0.026463
74.724304 42.692200 -49.298302 0.023586
88.207611 42.692200 -49.298302 0.030668
101.690918 42.692200 -49.298302 0.026453
115.174225 42.692200 -49.298302 0.026850
128.657501 42.692200 -49.298302 0.026144
142.140808 42.692200 -49.298302 0.026555
155.624115 42.692200 -49.298302 0.025801
169.107422 42.692200 -49.298302 0.022807
182.590698 42.692200 -49.298302 0.019538
196.074036 42.692200 -49.298302 0.014241
209.557312 42.692200 -49.298302 0.008591
223.040588 42.692200 -49.298302 0.004305
236.523926 42.692200 -49.298302 0.001780
250.007202 42.692200 -49.298302 0.000765
263.490540 42.692200 -49.298302 0.000030
276.973816 42.692200 -49.298302 -0.000416
290.457092 42.692200 -49.298302 -0.000739
303.940430 42.692200 -49.298302 0.000000
317.423706 42.692200 -49.298302 0.000000
330.907043 42.692200 -49.298302 0.000000
344.390320 42.692200 -49.298302 0.000000
-343.257996 29.208893 -49.298302 0.000000
-329.774689 29.208893 -49.298302 0.000000
-316.291382 29.208893 -49.298302 0.000000
-302.808105 29.208893 -49.298302 0.000559
-289.324799 29.208893 -49.298302 0.000745
-275.841492 29.208893 -49.298302 0.003420
-262.358185 29.208893 -49.298302 0.001219
-248.874893 29.208893 -49.298302 -0.000793
-235.391602 29.208893 -49.298302 -0.011934
-221.908295 29.208893 -49.298302 -0.022947
-208.424988 29.208893 -49.298302 -0.058354
-194.941696 29.208893 -49.298302 -0.063889
-181.458389 29.208893 -49.298302 -0.069221
-167.975098 29.208893 -49.298302 -0.068120
-154.491791 29.208893 -49.298302 -0.053159
-141.008499 29.208893 -49.298302 -0.065764
-127.525192 29.208893 -49.298302 -0.009632
-114.041885 29.208893 -49.298302 0.013278
-100.558594 29.208893 -49.298302 -0.016479
-87.075287 29.208893 -49.298302 -0.032239
-73.591980 29.208893 -49.298302 -0.026299
-60.108704 29.208893 -49.298302 -0.041365
-46.625397 29.208893 -49.298302 -0.056361
-33.142090 29.208893 -49.298302 -0.070437
-19.658783 29.208893 -49.298302 -0.088527
-6.175476 29.208893 -49.298302 -0.112597
7.307800 29.208893 -49.298302 -0.114899
20.791107 29.208893 -49.298302 -0.081702
34.274414 29.208893 -49.298302 -0.041118
47.757721 29.208893 -49.298302 -0.005779
61.240997 29.208893 -49.298302 0.019633
74.724304 29.208893 -49.298302 0.020802
88.207611 29.208893 -49.298302 0.027289
101.690918 29.208893 -49.298302 0.032010
115.174225 29.208893 -49.298302 0.034235
128.657501 29.208893 -49.298302 0.030845
142.140808 29.208893 -49.298302 0.034785
155.624115 29.208893 -49.298302 0.035672
169.107422 29.208893 -49.298302 0.032781
182.590698 29.208893 -49.298302 0.028771
196.074036 29.208893 -49.298302 0.020778
209.557312 29.208893 -49.298302 0.012884
223.040588 29.208893 -49.298302 0.007558
236.523926 29.208893 -49.298302 0.003485
250.007202 29.208893 -49.298302 0.001781
263.490540 29.208893 -49.298302 0.000856
276.973816 29.208893 -49.298302 0.000170
290.457092 29.208893 -49.298302 -0.000493
303.940430 29.208893 -49.298302 0.000000
317.423706 29.208893 -49.298302 0.000000
330.907043 29.208893 -49.298302 0.000000
344.390320 29.208893 -49.298302 0.000000
-343.257996 15.725586 -49.298302 0.000000
-329.774689 15.725586 -49.298302 0.000000
-316.291382 15.725586 -49.298302 0.000000
-302.808105 15.725586 -49.298302 0.005777
-289.324799 15.725586 -49.298302 0.005435
-275.841492 15.725586 -49.298302 0.007842
-262.358185 15.725586 -49.298302 0.008593
-248.874893 15.725586 -49.298302 0.012408
-235.391602 15.725586 -49.298302 0.003920
-221.908295 15.725586 -49.298302 -0.007470
-208.424988 15.725586 -49.298302 -0.038238
-194.941696 15.725586 -49.298302 -0.046476
-181.458389 15.725586 -49.298302 -0.048703
-167.975098 15.725586 -49.298302 -0.043290
-154.491791 15.725586 -49.298302 -0.038491
-141.008499 15.725586 -49.298302 -0.059270
-127.525192 15.725586 -49.298302 -0.016583
-114.041885 15.725586 -49.298302 -0.006629
-100.558594 15.725586 -49.298302 -0.025908
-87.075287 15.725586 -49.298302 -0.029551
-73.591980 15.725586 -49.298302 -0.024123
-60.108704 15.725586 -49.298302 -0.034211
-46.625397 15.725586 -49.298302 -0.066785
-33.142090 15.725586 -49.298302 -0.065046
-19.658783 15.725586 -49.298302 -0.083359
-6.175476 15.725586 -49.298302 -0.083667
7.307800 15.725586 -49.298302 -0.096842
20.791107 15.725586 -49.298302 -0.088806
34.274414 15.725586 -49.298302 -0.050752
47.757721 15.725586 -49.298302 -0.017800
61.240997 15.725586 -49.298302 0.013158
74.724304 15.725586 -49.298302 0.025892
88.207611 15.725586 -49.298302 0.025511
101.690918 15.725586 -49.298302 0.026624
115.174225 15.725586 -49.298302 0.029376
128.657501 15.725586 -49.298302 0.036073
142.140808 15.725586 -49.298302 0.039560
155.624115 15.725586 -49.298302 0.042517
169.107422 15.725586 -49.298302 0.038256
182.590698 15.725586 -49.298302 0.033001
196.074036 15.725586 -49.298302 0.024741
209.557312 15.725586 -49.298302 0.015522
223.040588 15.725586 -49.298302 0.009308
236.523926 15.725586 -49.298302 0.004960
250.007202 15.725586 -49.298302 0.002638
263.490540 15.725586 -49.298302 0.001376
276.973816 15.725586 -49.298302 0.000582
290.457092 15.725586 -49.298302 0.000127
303.940430 15.725586 -49.298302 0.000000
317.423706 15.725586 -49.298302 0.000000
330.907043 15.725586 -49.298302 0.000000
344.390320 15.725586 -49.298302 0.000000
-343.257996 2.242279 -49.298302 0.000000
-329.774689 2.242279 -49.298302 0.000000
-316.291382 2.242279 -49.298302 0.000000
-302.808105 2.242279 -49.298302 0.006457
-289.324799 2.242279 -49.298302 0.009006
-275.841492 2.242279 -49.298302 0.011677
-262.358185 2.242279 -49.298302 0.016142
-248.874893 2.242279 -49.298302 0.022608
-235.391602 2.242279 -49.298302 0.028042
-221.908295 2.242279 -49.298302 0.018809
-208.424988 2.242279 -49.298302 -0.020115
-194.941696 2.242279 -49.298302 -0.019166
-181.458389 2.242279 -49.298302 -0.019736
-167.975098 2.242279 -49.298302 -0.040759
-154.491791 2.242279 -49.298302 -0.013978
-141.008499 2.242279 -49.298302 -0.034937
-127.525192 2.242279 -49.298302 -0.015156
-114.041885 2.242279 -49.298302 -0.021345
-100.558594 2.242279 -49.298302 -0.010073
-87.075287 2.242279 -49.298302 -0.030313
-73.591980 2.242279 -49.298302 -0.022938
-60.108704 2.242279 -49.298302 -0.027020
-46.625397 2.242279 -49.298302 -0.059874
-33.142090 2.242279 -49.298302 -0.064293
-19.658783 2.242279 -49.298302 -0.063947
-6.175476 2.242279 -49.298302 -0.070620
7.307800 2.242279 -49.298302 -0.096611
20.791107 2.242279 -49.298302 -0.093299
34.274414 2.242279 -49.298302 -0.064992
47.757721 2.242279 -49.298302 -0.035453
61.240997 2.242279 -49.298302 0.009115
74.724304 2.242279 -49.298302 0.021275
88.207611 2.242279 -49.298302 0.024984
101.690918 2.242279 -49.298302 0.026534
115.174225 2.242279 -49.298302 0.030901
128.657501 2.242279 -49.298302 0.028988
142.140808 2.242279 -49.298302 0.035075
155.624115 2.242279 -49.298302 0.038546
169.107422 2.242279 -49.298302 0.036213
182.590698 2.242279 -49.298302 0.033024
196.074036 2.242279 -49.298302 0.025467
209.557312 2.242279 -49.298302 0.015788
223.040588 2.242279 -49.298302 0.009947
236.523926 2.242279 -49.298302 0.005770
250.007202 2.242279 -49.298302 0.003218
263.490540 2.242279 -49.298302 0.001788
276.973816 2.242279 -49.298302 0.000993
290.457092 2.242279 -49.298302 0.000673
303.940430 2.242279 -49.298302 0.000000
317.423706 2.242279 -49.298302 0.000000
330.907043 2.242279 -49.298302 0.000000
344.390320 2.242279 -49.298302 0.000000
-343.257996 -11.240997 -49.298302 0.000000
-329.774689 -11.240997 -49.298302 0.000000
-316.291382 -11.240997 -49.298302 0.000000
-302.808105 -11.240997 -49.298302 0.008263
-289.324799 -11.240997 -49.298302 0.012667
-275.841492 -11.240997 -49.298302 0.020968
-262.358185 -11.240997 -49.298302 0.026593
-248.874893 -11.240997 -49.298302 0.034630
-235.391602 -11.240997 -49.298302 0.031928
-221.908295 -11.240997 -49.298302 0.023490
-208.424988 -11.240997 -49.298302 0.001249
-194.941696 -11.240997 -49.298302 -0.038668
-181.458389 -11.240997 -49.298302 -0.013744
-167.975098 -11.240997 -49.298302 -0.029790
-154.491791 -11.240997 -49.298302 -0.029513
-141.008499 -11.240997 -49.298302 -0.014907
-127.525192 -11.240997 -49.298302 -0.027876
-114.041885 -11.240997 -49.298302 -0.022153
-100.558594 -11.240997 -49.298302 -0.026638
-87.075287 -11.240997 -49.298302 -0.013826
-73.591980 -11.240997 -49.298302 -0.019793
-60.108704 -11.240997 -49.298302 -0.031814
-46.625397 -11.240997 -49.298302 -0.038557
-33.142090 -11.240997 -49.298302 -0.056276
-19.658783 -11.240997 -49.298302 -0.082212
-6.175476 -11.240997 -49.298302 -0.084609
7.307800 -11.240997 -49.298302 -0.101347
20.791107 -11.240997 -49.298302 -0.095629
34.274414 -11.240997 -49.298302 -0.076025
47.757721 -11.240997 -49.298302 -0.033623
61.240997 -11.240997 -49.298302 -0.002002
74.724304 -11.240997 -49.298302 0.012278
88.207611 -11.240997 -49.298302 0.015734
101.690918 -11.240997 -49.298302 0.016807
115.174225 -11.240997 -49.298302 0.020741
128.657501 -11.240997 -49.298302 0.028346
142.140808 -11.240997 -49.298302 0.029713
155.624115 -11.240997 -49.298302 0.032563
169.107422 -11.240997 -49.298302 0.036239
182.590698 -11.240997 -49.298302 0.033150
196.074036 -11.240997 -49.298302 0.028106
209.557312 -11.240997 -49.298302 0.018163
223.040588 -11.240997 -49.298302 0.011792
236.523926 -11.240997 -49.298302 0.006396
250.007202 -11.240997 -49.298302 0.003421
263.490540 -11.240997 -49.298302 0.002026
276.973816 -11.240997 -49.298302 0.001029
290.457092 -11.240997 -49.298302 0.000570
303.940430 -11.240997 -49.298302 0.000000
317.423706 -11.240997 -49.298302 0.000000
330.907043 -11.240997 -49.298302 0.000000
344.390320 -11.240997 -49.298302 0.000000
-343.257996 -24.724304 -49.298302 0.000000
-329.774689 -24.724304 -49.298302 0.000000
-316.291382 -24.724304 -49.298302 0.000000
-302.808105 -24.724304 -49.298302 0.012506
-289.324799 -24.724304 -49.298302 0.017369
-275.841492 -24.724304 -49.298302 0.024294
-262.358185 -24.724304 -49.298302 0.036248
-248.874893 -24.724304 -49.298302 0.047877
-235.391602 -24.724304 -49.298302 0.033800
-221.908295 -24.724304 -49.298302 0.036431
-208.424988 -24.724304 -49.298302 0.012850
-194.941696 -24.724304 -49.298302 -0.036584
-181.458389 -24.724304 -49.298302 -0.044872
-167.975098 -24.724304 -49.298302 -0.024006
-154.491791 -24.724304 -49.298302 -0.012010
-141.008499 -24.724304 -49.298302 -0.008317
-127.525192 -24.724304 -49.298302 -0.021916
-114.041885 -24.724304 -49.298302 -0.028748
-100.558594 -24.724304 -49.298302 -0.031172
-87.075287 -24.724304 -49.298302 -0.004890
-73.591980 -24.724304 -49.298302 -0.015843
-60.108704 -24.724304 -49.298302 -0.029748
-46.625397 -24.724304 -49.298302 -0.039072
-33.142090 -24.724304 -49.298302 -0.071894
-19.658783 -24.724304 -49.298302 -0.073774
-6.175476 -24.724304 -49.298302 -0.097937
7.307800 -24.724304 -49.298302 -0.117049
20.791107 -24.724304 -49.298302 -0.091867
34.274414 -24.724304 -49.298302 -0.077650
47.757721 -24.724304 -49.298302 -0.036653
61.240997 -24.724304 -49.298302 -0.011730
74.724304 -24.724304 -49.298302 0.004017
88.207611 -24.724304 -49.298302 0.002976
101.690918 -24.724304 -49.298302 0.007017
115.174225 -24.724304 -49.298302 0.015652
128.657501 -24.724304 -49.298302 0.015359
142.140808 -24.724304 -49.298302 0.019854
155.624115 -24.724304 -49.298302 0.026818
169.107422 -24.724304 -49.298302 0.030345
182.590698 -24.724304 -49.298302 0.033872
196.074036 -24.724304 -49.298302 0.028531
209.557312 -24.724304 -49.298302 0.019337
223.040588 -24.724304 -49.298302 0.012813
236.523926 -24.724304 -49.298302 0.007619
250.007202 -24.724304 -49.298302 0.003546
263.490540 -24.724304 -49.298302 0.002070
276.973816 -24.724304 -49.298302 0.000827
290.457092 -24.724304 -49.298302 0.000395
303.940430 -24.724304 -49.298302 0.000000
317.423706 -24.724304 -49.298302 0.000000
330.907043 -24.724304 -49.298302 0.000000
344.390320 -24.724304 -49.298302 0.000000
-343.257996 -38.207611 -49.298302 0.000000
-329.774689 -38.207611 -49.298302 0.000000
-316.291382 -38.207611 -49.298302 0.000000
-302.808105 -38.207611 -49.298302 0.016573
-289.324799 -38.207611 -49.298302 0.024221
-275.841492 -38.207611 -49.298302 0.028635
-262.358185 -38.207611 -49.298302 0.040901
-248.874893 -38.207611 -49.298302 0.057653
-235.391602 -38.207611 -49.298302 0.045820
-221.908295 -38.207611 -49.298302 0.028659
-208.424988 -38.207611 -49.298302 0.007879
-194.941696 -38.207611 -49.298302 -0.031456
-181.458389 -38.207611 -49.298302 -0.027480
-167.975098 -38.207611 -49.298302 -0.036169
-154.491791 -38.207611 -49.298302 -0.005771
-141.008499 -38.207611 -49.298302 -0.012693
-127.525192 -38.207611 -49.298302 -0.031764
-114.041885 -38.207611 -49.298302 -0.038685
-100.558594 -38.207611 -49.298302 -0.036554
-87.075287 -38.207611 -49.298302 -0.024331
-73.591980 -38.207611 -49.298302 -0.039521
-60.108704 -38.207611 -49.298302 -0.035860
-46.625397 -38.207611 -49.298302 -0.055160
-33.142090 -38.207611 -49.298302 -0.069253
-19.658783 -38.207611 -49.298302 -0.091241
-6.175476 -38.207611 -49.298302 -0.110945
7.307800 -38.207611 -49.298302 -0.113648
20.791107 -38.207611 -49.298302 -0.112671
34.274414 -38.207611 -49.298302 -0.077797
47.757721 -38.207611 -49.298302 -0.039305
61.240997 -38.207611 -49.298302 -0.018509
74.724304 -38.207611 -49.298302 -0.010287
88.207611 -38.207611 -49.298302 -0.009214
101.690918 -38.207611 -49.298302 -0.000680
115.174225 -38.207611 -49.298302 0.004601
128.657501 -38.207611 -49.298302 0.005637
142.140808 -38.207611 -49.298302 0.007999
155.624115 -38.207611 -49.298302 0.017597
169.107422 -38.207611 -49.298302 0.024078
182.590698 -38.207611 -49.298302 0.027357
196.074036 -38.207611 -49.298302 0.024226
209.557312 -38.207611 -49.298302 0.017270
223.040588 -38.207611 -49.298302 0.011728
236.523926 -38.207611 -49.298302 0.007458
250.007202 -38.207611 -49.298302 0.003542
263.490540 -38.207611 -49.298302 0.001953
276.973816 -38.207611 -49.298302 0.000679
290.457092 -38.207611 -49.298302 0.000439
303.940430 -38.207611 -49.298302 0.000000
317.423706 -38.207611 -49.298302 0.000000
330.907043 -38.207611 -49.298302 0.000000
344.390320 -38.207611 -49.298302 0.000000
-343.257996 -51.690918 -49.298302 0.000000
-329.774689 -51.690918 -49.298302 0.000000
-316.291382 -51.690918 -49.298302 0.000000
-302.808105 -51.690918 -49.298302 0.000000
-289.324799 -51.690918 -49.298302 0.025499
-275.841492 -51.690918 -49.298302 0.000000
-262.358185 -51.690918 -49.298302 0.000000
-248.874893 -51.690918 -49.298302 0.000000
-235.391602 -51.690918 -49.298302 0.000000
-221.908295 -51.690918 -49.298302 0.000000
-208.424988 -51.690918 -49.298302 0.016759
-194.941696 -51.690918 -49.298302 0.000000
-181.458389 -51.690918 -49.298302 -0.033090
-167.975098 -51.690918 -49.298302 -0.036932
-154.491791 -51.690918 -49.298302 -0.027351
-141.008499 -51.690918 -49.298302 -0.043895
-127.525192 -51.690918 -49.298302 -0.057289
-114.041885 -51.690918 -49.298302 -0.046983
-100.558594 -51.690918 -49.298302 -0.037023
-87.075287 -51.690918 -49.298302 -0.037543
-73.591980 -51.690918 -49.298302 0.000000
-60.108704 -51.690918 -49.298302 -0.052931
-46.625397 -51.690918 -49.298302 -0.073517
-33.142090 -51.690918 -49.298302 -0.071663
-19.658783 -51.690918 -49.298302 -0.087832
-6.175476 -51.690918 -49.298302 -0.103263
7.307800 -51.690918 -49.298302 -0.092563
20.791107 -51.690918 -49.298302 -0.091436
34.274414 -51.690918 -49.298302 -0.063493
47.757721 -51.690918 -49.298302 -0.038586
61.240997 -51.690918 -49.298302 -0.019294
74.724304 -51.690918 -49.298302 -0.010249
88.207611 -51.690918 -49.298302 -0.010417
101.690918 -51.690918 -49.298302 -0.008122
115.174225 -51.690918 -49.298302 -0.006569
128.657501 -51.690918 -49.298302 -0.002784
142.140808 -51.690918 -49.298302 0.000760
155.624115 -51.690918 -49.298302 0.005883
169.107422 -51.690918 -49.298302 0.010506
182.590698 -51.690918 -49.298302 0.017936
196.074036 -51.690918 -49.298302 0.016062
209.557312 -51.690918 -49.298302 0.011751
223.040588 -51.690918 -49.298302 0.007612
236.523926 -51.690918 -49.298302 0.007237
250.007202 -51.690918 -49.298302 0.003888
263.490540 -51.690918 -49.298302 0.001954
276.973816 -51.690918 -49.298302 0.001021
290.457092 -51.690918 -49.298302 0.000227
303.940430 -51.690918 -49.298302 0.000000
317.423706 -51.690918 -49.298302 0.000000
330.907043 -51.690918 -49.298302 0.000000
344.390320 -51.690918 -49.298302 0.000000
-343.257996 -65.174225 -49.298302 0.000000
-329.774689 -65.174225 -49.298302 0.000000
-316.291382 -65.174225 -49.298302 0.000000
-302.808105 -65.174225 -49.298302 0.000000
-289.324799 -65.174225 -49.298302 0.000000
-275.841492 -65.174225 -49.298302 0.000000
-262.358185 -65.174225 -49.298302 0.000000
-248.874893 -65.174225 -49.298302 0.000000
-235.391602 -65.174225 -49.298302 0.000000
-221.908295 -65.174225 -49.298302 0.016346
-208.424988 -65.174225 -49.298302 0.000000
-194.941696 -65.174225 -49.298302 0.000000
-181.458389 -65.174225 -49.298302 -0.038171
-167.975098 -65.174225 -49.298302 -0.062024
-154.491791 -65.174225 -49.298302 -0.046904
-141.008499 -65.174225 -49.298302 -0.040959
-127.525192 -65.174225 -49.298302 -0.065658
-114.041885 -65.174225 -49.298302 -0.051959
-100.558594 -65.174225 -49.298302 -0.035491
-87.075287 -65.174225 -49.298302 -0.045424
-73.591980 -65.174225 -49.298302 -0.053721
-60.108704 -65.174225 -49.298302 -0.043371
-46.625397 -65.174225 -49.298302 -0.063975
-33.142090 -65.174225 -49.298302 -0.068856
-19.658783 -65.174225 -49.298302 -0.072084
-6.175476 -65.174225 -49.298302 -0.083515
7.307800 -65.174225 -49.298302 -0.093083
20.791107 -65.174225 -49.298302 -0.084524
34.274414 -65.174225 -49.298302 -0.056229
47.757721 -65.174225 -49.298302 -0.035185
61.240997 -65.174225 -49.298302 -0.018603
74.724304 -65.174225 -49.298302 -0.015166
88.207611 -65.174225 -49.298302 -0.011390
101.690918 -65.174225 -49.298302 -0.010095
115.174225 -65.174225 -49.298302 -0.009023
128.657501 -65.174225 -49.298302 -0.005937
142.140808 -65.174225 -49.298302 -0.006174
155.624115 -65.174225 -49.298302 -0.002323
169.107422 -65.174225 -49.298302 -0.001075
182.590698 -65.174225 -49.298302 0.001889
196.074036 -65.174225 -49.298302 0.001984
209.557312 -65.174225 -49.298302 0.000876
223.040588 -65.174225 -49.298302 0.004618
236.523926 -65.174225 -49.298302 0.004142
250.007202 -65.174225 -49.298302 0.003002
263.490540 -65.174225 -49.298302 0.001920
276.973816 -65.174225 -49.298302 0.000940
290.457092 -65.174225 -49.298302 0.000116
303.940430 -65.174225 -49.298302 0.000000
317.423706 -65.174225 -49.298302 0.000000
330.907043 -65.174225 -49.298302 0.000000
344.390320 -65.174225 -49.298302 0.000000
-343.257996 -78.657501 -49.298302 0.000000
-329.774689 -78.657501 -49.298302 0.000000
-316.291382 -78.657501 -49.298302 0.000000
-302.808105 -78.657501 -49.298302 0.000000
-289.324799 -78.657501 -49.298302 0.000000
-275.841492 -78.657501 -49.298302 0.000000
-262.358185 -78.657501 -49.298302 0.000000
-248.874893 -78.657501 -49.298302 0.000000
-235.391602 -78.657501 -49.298302 0.000000
-221.908295 -78.657501 -49.298302 0.000000
-208.424988 -78.657501 -49.298302 0.000000
-194.941696 -78.657501 -49.298302 0.000000
-181.458389 -78.657501 -49.298302 0.000000
-167.975098 -78.657501 -49.298302 -0.055600
-154.491791 -78.657501 -49.298302 -0.059913
-141.008499 -78.657501 -49.298302 -0.061407
-127.525192 -78.657501 -49.298302 -0.077980
-114.041885 -78.657501 -49.298302 0.000000
-100.558594 -78.657501 -49.298302 0.000000
-87.075287 -78.657501 -49.298302 -0.031366
-73.591980 -78.657501 -49.298302 -0.039930
-60.108704 -78.657501 -49.298302 -0.048062
-46.625397 -78.657501 -49.298302 -0.054755
-33.142090 -78.657501 -49.298302 -0.062709
-19.658783 -78.657501 -49.298302 -0.062470
-6.175476 -78.657501 -49.298302 -0.073045
7.307800 -78.657501 -49.298302 -0.079119
20.791107 -78.657501 -49.298302 -0.070557
34.274414 -78.657501 -49.298302 -0.051385
47.757721 -78.657501 -49.298302 -0.036766
61.240997 -78.657501 -49.298302 -0.021859
74.724304 -78.657501 -49.298302 -0.014003
88.207611 -78.657501 -49.298302 -0.010633
101.690918 -78.657501 -49.298302 -0.007745
115.174225 -78.657501 -49.298302 -0.007699
128.657501 -78.657501 -49.298302 -0.008468
142.140808 -78.657501 -49.298302 -0.010438
155.624115 -78.657501 -49.298302 -0.008067
169.107422 -78.657501 -49.298302 -0.014272
182.590698 -78.657501 -49.298302 -0.016057
196.074036 -78.657501 -49.298302 -0.012970
209.557312 -78.657501 -49.298302 -0.009536
223.040588 -78.657501 -49.298302 -0.002553
236.523926 -78.657501 -49.298302 0.001418
250.007202 -78.657501 -49.298302 0.000867
263.490540 -78.657501 -49.298302 0.000674
276.973816 -78.657501 -49.298302 0.000752
290.457092 -78.657501 -49.298302 0.000199
303.940430 -78.657501 -49.298302 0.000000
317.423706 -78.657501 -49.298302 0.000000
330.907043 -78.657501 -49.298302 0.000000
344.390320 -78.657501 -49.298302 0.000000
-343.257996 -92.140808 -49.298302 0.000000
-329.774689 -92.140808 -49.298302 0.000000
-316.291382 -92.140808 -49.298302 0.000000
-302.808105 -92.140808 -49.298302 0.000000
-289.324799 -92.140808 -49.298302 0.000000
-275.841492 -92.140808 -49.298302 0.000000
-262.358185 -92.140808 -49.298302 0.000000
-248.874893 -92.140808 -49.298302 0.000000
-235.391602 -92.140808 -49.298302 0.000000
-221.908295 -92.140808 -49.298302 0.000000
-208.424988 -92.140808 -49.298302 0.000000
-194.941696 -92.140808 -49.298302 0.000000
-181.458389 -92.140808 -49.298302 0.000000
-167.975098 -92.140808 -49.298302 0.000000
-154.491791 -92.140808 -49.298302 0.000000
-141.008499 -92.140808 -49.298302 0.000000
-127.525192 -92.140808 -49.298302 0.000000
-114.041885 -92.140808 -49.298302 0.000000
-100.558594 -92.140808 -49.298302 0.000000
-87.075287 -92.140808 -49.298302 0.000000
-73.591980 -92.140808 -49.298302 -0.023878
-60.108704 -92.140808 -49.298302 -0.026901
-46.625397 -92.140808 -49.298302 -0.020469
-33.142090 -92.140808 -49.298302 -0.028823
-19.658783 -92.140808 -49.298302 -0.052289
-6.175476 -92.140808 -49.298302 -0.069284
7.307800 -92.140808 -49.298302 -0.070887
20.791107 -92.140808 -49.298302 -0.054485
34.274414 -92.140808 -49.298302 -0.044169
47.757721 -92.140808 -49.298302 -0.028859
61.240997 -92.140808 -49.298302 -0.015958
74.724304 -92.140808 -49.298302 -0.009483
88.207611 -92.140808 -49.298302 -0.006091
101.690918 -92.140808 -49.298302 -0.005620
115.174225 -92.140808 -49.298302 -0.006809
128.657501 -92.140808 -49.298302 -0.011206
142.140808 -92.140808 -49.298302 -0.012221
155.624115 -92.140808 -49.298302 -0.018298
169.107422 -92.140808 -49.298302 -0.022820
182.590698 -92.140808 -49.298302 -0.031116
196.074036 -92.140808 -49.298302 -0.030346
209.557312 -92.140808 -49.298302 -0.021414
223.040588 -92.140808 -49.298302 -0.010401
236.523926 -92.140808 -49.298302 -0.001957
250.007202 -92.140808 -49.298302 0.000081
263.490540 -92.140808 -49.298302 0.000272
276.973816 -92.140808 -49.298302 0.000483
290.457092 -92.140808 -49.298302 0.000176
303.940430 -92.140808 -49.298302 0.000000
317.423706 -92.140808 -49.298302 0.000000
330.907043 -92.140808 -49.298302 0.000000
344.390320 -92.140808 -49.298302 0.000000
-343.257996 -105.624115 -49.298302 0.000000
-329.774689 -105.624115 -49.298302 0.000000
-316.291382 -105.624115 -49.298302 0.000000
-302.808105 -105.624115 -49.298302 0.000000
-289.324799 -105.624115 -49.298302 0.000000
-275.841492 -105.624115 -49.298302 0.000000
-262.358185 -105.624115 -49.298302 0.000000
-248.874893 -105.624115 -49.298302 0.000000
-235.391602 -105.624115 -49.298302 0.000000
-221.908295 -105.624115 -49.298302 0.000000
-208.424988 -105.624115 -49.298302 0.000000
-194.941696 -105.624115 -49.298302 0.000000
-181.458389 -105.624115 -49.298302 0.000000
-167.975098 -105.624115 -49.298302 0.000000
-154.491791 -105.624115 -49.298302 0.000000
-141.008499 -105.624115 -49.298302 -0.050602
-127.525192 -105.624115 -49.298302 0.000000
-114.041885 -105.624115 -49.298302 -0.045055
-100.558594 -105.624115 -49.298302 0.000000
-87.075287 -105.624115 -49.298302 0.000000
-73.591980 -105.624115 -49.298302 0.000000
-60.108704 -105.624115 -49.298302 0.000000
-46.625397 -105.624115 -49.298302 0.000000
-33.142090 -105.624115 -49.298302 -0.024438
-19.658783 -105.624115 -49.298302 -0.037070
-6.175476 -105.624115 -49.298302 -0.053032
7.307800 -105.624115 -49.298302 -0.045791
20.791107 -105.624115 -49.298302 -0.046538
34.274414 -105.624115 -49.298302 -0.032552
47.757721 -105.624115 -49.298302 -0.018568
61.240997 -105.624115 -49.298302 -0.012000
74.724304 -105.624115 -49.298302 -0.006461
88.207611 -105.624115 -49.298302 -0.001980
101.690918 -105.624115 -49.298302 -0.002926
115.174225 -105.624115 -49.298302 -0.006557
128.657501 -105.624115 -49.298302 -0.010828
142.140808 -105.624115 -49.298302 -0.015558
155.624115 -105.624115 -49.298302 -0.023930
169.107422 -105.624115 -49.298302 -0.033185
182.590698 -105.624115 -49.298302 -0.043179
196.074036 -105.624115 -49.298302 -0.042053
209.557312 -105.624115 -49.298302 -0.033479
223.040588 -105.624115 -49.298302 -0.019553
236.523926 -105.624115 -49.298302 -0.004558
250.007202 -105.624115 -49.298302 -0.001437
263.490540 -105.624115 -49.298302 -0.000927
276.973816 -105.624115 -49.298302 -0.000522
290.457092 -105.624115 -49.298302 0.000489
303.940430 -105.624115 -49.298302 0.000000
317.423706 -105.624115 -49.298302 0.000000
330.907043 -105.624115 -49.298302 0.000000
344.390320 -105.624115 -49.298302 0.000000
-343.257996 -119.107422 -49.298302 0.000000
-329.774689 -119.107422 -49.298302 0.000000
-316.291382 -119.107422 -49.298302 0.000000
-302.808105 -119.107422 -49.298302 0.000000
-289.324799 -119.107422 -49.298302 0.000000
-275.841492 -119.107422 -49.298302 0.000000
-262.358185 -119.107422 -49.298302 0.000000
-248.874893 -119.107422 -49.298302 0.000000
-235.391602 -119.107422 -49.298302 0.000000
-221.908295 -119.107422 -49.298302 0.000000
-208.424988 -119.107422 -49.298302 0.000000
-194.941696 -119.107422 -49.298302 0.000000
-181.458389 -119.107422 -49.298302 0.000000
-167.975098 -119.107422 -49.298302 0.000000
-154.491791 -119.107422 -49.298302 0.000000
-141.008499 -119.107422 -49.298302 0.000000
-127.525192 -119.107422 -49.298302 0.000000
-114.041885 -119.107422 -49.298302 0.000000
-100.558594 -119.107422 -49.298302 0.000000
-87.075287 -119.107422 -49.298302 0.000000
-73.591980 -119.107422 -49.298302 0.000000
-60.108704 -119.107422 -49.298302 0.000000
-46.625397 -119.107422 -49.298302 0.020705
-33.142090 -119.107422 -49.298302 0.000000
-19.658783 -119.107422 -49.298302 -0.016227
-6.175476 -119.107422 -49.298302 0.000000
7.307800 -119.107422 -49.298302 0.000000
20.791107 -119.107422 -49.298302 -0.028855
34.274414 -119.107422 -49.298302 -0.025206
47.757721 -119.107422 -49.298302 -0.020220
61.240997 -119.107422 -49.298302 -0.011359
74.724304 -119.107422 -49.298302 -0.001160
88.207611 -119.107422 -49.298302 0.000918
101.690918 -119.107422 -49.298302 0.000234
115.174225 -119.107422 -49.298302 -0.005450
128.657501 -119.107422 -49.298302 -0.010187
142.140808 -119.107422 -49.298302 -0.019981
155.624115 -119.107422 -49.298302 -0.027277
169.107422 -119.107422 -49.298302 -0.039905
182.590698 -119.107422 -49.298302 -0.051524
196.074036 -119.107422 -49.298302 -0.053162
209.557312 -119.107422 -49.298302 -0.048693
223.040588 -119.107422 -49.298302 -0.028667
236.523926 -119.107422 -49.298302 -0.012727
250.007202 -119.107422 -49.298302 -0.006529
263.490540 -119.107422 -49.298302 -0.002114
276.973816 -119.107422 -49.298302 -0.001212
290.457092 -119.107422 -49.298302 -0.000339
303.940430 -119.107422 -49.298302 0.000000
317.423706 -119.107422 -49.298302 0.000000
330.907043 -119.107422 -49.298302 0.000000
344.390320 -119.107422 -49.298302 0.000000
-343.257996 -132.590698 -49.298302 0.000000
-329.774689 -132.590698 -49.298302 0.000000
-316.291382 -132.590698 -49.298302 0.000000
-302.808105 -132.590698 -49.298302 0.000000
-289.324799 -132.590698 -49.298302 0.000000
-275.841492 -132.590698 -49.298302 0.000000
-262.358185 -132.590698 -49.298302 0.000000
-248.874893 -132.590698 -49.298302 0.000000
-235.391602 -132.590698 -49.298302 0.000000
-221.908295 -132.590698 -49.298302 0.000000
-208.424988 -132.590698 -49.298302 0.000000
-194.941696 -132.590698 -49.298302 0.000000
-181.458389 -132.590698 -49.298302 0.000000
-167.975098 -132.590698 -49.298302 0.000000
-154.491791 -132.590698 -49.298302 -0.019880
-141.008499 -132.590698 -49.298302 0.000000
-127.525192 -132.590698 -49.298302 0.000000
-114.041885 -132.590698 -49.298302 0.000000
-100.558594 -132.590698 -49.298302 0.000000
-87.075287 -132.590698 -49.298302 0.000000
-73.591980 -132.590698 -49.298302 0.000000
-60.108704 -132.590698 -49.298302 0.000000
-46.625397 -132.590698 -49.298302 0.000000
-33.142090 -132.590698 -49.298302 0.000000
-19.658783 -132.590698 -49.298302 0.000000
-6.175476 -132.590698 -49.298302 0.000000
7.307800 -132.590698 -49.298302 0.000000
20.791107 -132.590698 -49.298302 0.000000
34.274414 -132.590698 -49.298302 0.000000
47.757721 -132.590698 -49.298302 0.000000
61.240997 -132.590698 -49.298302 0.000000
74.724304 -132.590698 -49.298302 -0.001764
88.207611 -132.590698 -49.298302 0.003274
101.690918 -132.590698 -49.298302 -0.000462
115.174225 -132.590698 -49.298302 -0.003157
128.657501 -132.590698 -49.298302 -0.011063
142.140808 -132.590698 -49.298302 -0.022043
155.624115 -132.590698 -49.298302 -0.035144
169.107422 -132.590698 -49.298302 -0.046012
182.590698 -132.590698 -49.298302 -0.055438
196.074036 -132.590698 -49.298302 -0.067555
209.557312 -132.590698 -49.298302 -0.064443
223.040588 -132.590698 -49.298302 -0.045534
236.523926 -132.590698 -49.298302 -0.022864
250.007202 -132.590698 -49.298302 -0.010700
263.490540 -132.590698 -49.298302 -0.005715
276.973816 -132.590698 -49.298302 -0.003248
290.457092 -132.590698 -49.298302 -0.000656
303.940430 -132.590698 -49.298302 0.000000
317.423706 -132.590698 -49.298302 0.000000
330.907043 -132.590698 -49.298302 0.000000
344.390320 -132.590698 -49.298302 0.000000
-343.257996 -146.074036 -49.298302 0.000000
-329.774689 -146.074036 -49.298302 0.000000
-316.291382 -146.074036 -49.298302 0.000000
-302.808105 -146.074036 -49.298302 0.000000
-289.324799 -146.074036 -49.298302 0.000000
-275.841492 -146.074036 -49.298302 0.000000
-262.358185 -146.074036 -49.298302 0.000000
-248.874893 -146.074036 -49.298302 0.000000
-235.391602 -146.074036 -49.298302 0.000000
-221.908295 -146.074036 -49.298302 0.000000
-208.424988 -146.074036 -49.298302 0.000000
-194.941696 -146.074036 -49.298302 0.000000
-181.458389 -146.074036 -49.298302 0.000000
-167.975098 -146.074036 -49.298302 0.000000
-154.491791 -146.074036 -49.298302 0.000000
-141.008499 -146.074036 -49.298302 0.000000
-127.525192 -146.074036 -49.298302 0.000000
-114.041885 -146.074036 -49.298302 0.000000
-100.558594 -146.074036 -49.298302 0.000000
-87.075287 -146.074036 -49.298302 0.000000
-73.591980 -146.074036 -49.298302 0.000000
-60.108704 -146.074036 -49.298302 0.000000
-46.625397 -146.074036 -49.298302 0.000000
-33.142090 -146.074036 -49.298302 0.000000
-19.658783 -146.074036 -49.298302 0.000000
-6.175476 -146.074036 -49.298302 0.000000
7.307800 -146.074036 -49.298302 0.000000
20.791107 -146.074036 -49.298302 0.000000
34.274414 -146.074036 -49.298302 0.000000
47.757721 -146.074036 -49.298302 0.000000
61.240997 -146.074036 -49.298302 0.000000
74.724304 -146.074036 -49.298302 0.000000
88.207611 -146.074036 -49.298302 0.000000
101.690918 -146.074036 -49.298302 0.000000
115.174225 -146.074036 -49.298302 0.000000
128.657501 -146.074036 -49.298302 0.000000
142.140808 -146.074036 -49.298302 -0.020041
155.624115 -146.074036 -49.298302 -0.041205
169.107422 -146.074036 -49.298302 -0.058389
182.590698 -146.074036 -49.298302 -0.065719
196.074036 -146.074036 -49.298302 -0.075199
209.557312 -146.074036 -49.298302 -0.073253
223.040588 -146.074036 -49.298302 0.000000
236.523926 -146.074036 -49.298302 0.000000
250.007202 -146.074036 -49.298302 -0.021676
263.490540 -146.074036 -49.298302 0.000000
276.973816 -146.074036 -49.298302 0.000000
290.457092 -146.074036 -49.298302 0.000000
303.940430 -146.074036 -49.298302 0.000000
317.423706 -146.074036 -49.298302 0.000000
330.907043 -146.074036 -49.298302 0.000000
344.390320 -146.074036 -49.298302 0.000000
-343.257996 -159.557312 -49.298302 0.000000
-329.774689 -159.557312 -49.298302 0.000000
-316.291382 -159.557312 -49.298302 0.000000
-302.808105 -159.557312 -49.298302 0.000000
-289.324799 -159.557312 -49.298302 0.000000
-275.841492 -159.557312 -49.298302 0.000000
-262.358185 -159.557312 -49.298302 0.000000
-248.874893 -159.557312 -49.298302 0.000000
-235.391602 -159.557312 -49.298302 0.000000
-221.908295 -159.557312 -49.298302 0.000000
-208.424988 -159.557312 -49.298302 0.000000
-194.941696 -159.557312 -49.298302 0.000000
-181.458389 -159.557312 -49.298302 0.000000
-167.975098 -159.557312 -49.298302 0.000000
-154.491791 -159.557312 -49.298302 0.000000
-141.008499 -159.557312 -49.298302 0.000000
-127.525192 -159.557312 -49.298302 0.000000
-114.041885 -159.557312 -49.298302 0.000000
-100.558594 -159.557312 -49.298302 0.000000
-87.075287 -159.557312 -49.298302 0.000000
-73.591980 -159.557312 -49.298302 0.000000
-60.108704 -159.557312 -49.298302 0.000000
-46.625397 -159.557312 -49.298302 0.000000
-33.142090 -159.557312 -49.298302 0.000000
-19.658783 -159.557312 -49.298302 0.000000
-6.175476 -159.557312 -49.298302 0.000000
7.307800 -159.557312 -49.298302 0.000000
20.791107 -159.557312 -49.298302 0.000000
34.274414 -159.557312 -49.298302 0.000000
47.757721 -159.557312 -49.298302 0.000000
61.240997 -159.557312 -49.298302 0.000000
74.724304 -159.557312 -49.298302 0.000000
88.207611 -159.557312 -49.298302 0.000000
101.690918 -159.557312 -49.298302 0.000000
115.174225 -159.557312 -49.298302 0.000000
128.657501 -159.557312 -49.298302 0.000000
142.140808 -159.557312 -49.298302 0.000000
155.624115 -159.557312 -49.298302 0.000000
169.107422 -159.557312 -49.298302 0.000000
182.590698 -159.557312 -49.298302 0.000000
196.074036 -159.557312 -49.298302 0.000000
209.557312 -159.557312 -49.298302 0.000000
223.040588 -159.557312 -49.298302 0.000000
236.523926 -159.557312 -49.298302 0.000000
250.007202 -159.557312 -49.298302 0.000000
263.490540 -159.557312 -49.298302 0.000000
276.973816 -159.557312 -49.298302 0.000000
290.457092 -159.557312 -49.298302 0.000000
303.940430 -159.557312 -49.298302 0.000000
317.423706 -159.557312 -49.298302 0.000000
330.907043 -159.557312 -49.298302 0.000000
344.390320 -159.557312 -49.298302 0.000000
-343.257996 -173.040588 -49.298302 0.000000
-329.774689 -173.040588 -49.298302 0.000000
-316.291382 -173.040588 -49.298302 0.000000
-302.808105 -173.040588 -49.298302 0.000000
-289.324799 -173.040588 -49.298302 0.000000
-275.841492 -173.040588 -49.298302 0.000000
-262.358185 -173.040588 -49.298302 0.000000
-248.874893 -173.040588 -49.298302 0.000000
-235.391602 -173.040588 -49.298302 0.000000
-221.908295 -173.040588 -49.298302 0.000000
-208.424988 -173.040588 -49.298302 0.000000
-194.941696 -173.040588 -49.298302 0.000000
-181.458389 -173.040588 -49.298302 0.000000
-167.975098 -173.040588 -49.298302 0.000000
-154.491791 -173.040588 -49.298302 0.000000
-141.008499 -173.040588 -49.298302 0.000000
-127.525192 -173.040588 -49.298302 0.000000
-114.041885 -173.040588 -49.298302 0.000000
-100.558594 -173.040588 -49.298302 0.000000
-87.075287 -173.040588 -49.298302 0.000000
-73.591980 -173.040588 -49.298302 0.000000
-60.108704 -173.040588 -49.298302 0.000000
-46.625397 -173.040588 -49.298302 0.000000
-33.142090 -173.040588 -49.298302 0.000000
-19.658783 -173.040588 -49.298302 0.000000
-6.175476 -173.040588 -49.298302 0.000000
7.307800 -173.040588 -49.298302 0.000000
20.791107 -173.040588 -49.298302 0.000000
34.274414 -173.040588 -49.298302 0.000000
47.757721 -173.040588 -49.298302 0.000000
61.240997 -173.040588 -49.298302 0.000000
74.724304 -173.040588 -49.298302 0.000000
88.207611 -173.040588 -49.298302 0.000000
101.690918 -173.040588 -49.298302 0.000000
115.174225 -173.040588 -49.298302 0.000000
128.657501 -173.040588 -49.298302 0.000000
142.140808 -173.040588 -49.298302 0.000000
155.624115 -173.040588 -49.298302 0.000000
169.107422 -173.040588 -49.298302 0.000000
182.590698 -173.040588 -49.298302 0.000000
196.074036 -173.040588 -49.298302 0.000000
209.557312 -173.040588 -49.298302 0.000000
223.040588 -173.040588 -49.298302 0.000000
236.523926 -173.040588 -49.298302 0.000000
250.007202 -173.040588 -49.298302 0.000000
263.490540 -173.040588 -49.298302 0.000000
276.973816 -173.040588 -49.298302 0.000000
290.457092 -173.040588 -49.298302 0.000000
303.940430 -173.040588 -49.298302 0.000000
317.423706 -173.040588 -49.298302 0.000000
330.907043 -173.040588 -49.298302 0.000000
344.390320 -173.040588 -49.298302 0.000000
-343.257996 -186.523926 -49.298302 0.000000
-329.774689 -186.523926 -49.298302 0.000000
-316.291382 -186.523926 -49.298302 0.000000
-302.808105 -186.523926 -49.298302 0.000000
-289.324799 -186.523926 -49.298302 0.000000
-275.841492 -186.523926 -49.298302 0.000000
-262.358185 -186.523926 -49.298302 0.000000
-248.874893 -186.523926 -49.298302 0.000000
-235.391602 -186.523926 -49.298302 0.000000
-221.908295 -186.523926 -49.298302 0.000000
-208.424988 -186.523926 -49.298302 0.000000
-194.941696 -186.523926 -49.298302 0.000000
-181.458389 -186.523926 -49.298302 0.000000
-167.975098 -186.523926 -49.298302 0.000000
-154.491791 -186.523926 -49.298302 0.000000
-141.008499 -186.523926 -49.298302 0.000000
-127.525192 -186.523926 -49.298302 0.000000
-114.041885 -186.523926 -49.298302 0.000000
-100.558594 -186.523926 -49.298302 0.000000
-87.075287 -186.523926 -49.298302 0.000000
-73.591980 -186.523926 -49.298302 0.000000
-60.108704 -186.523926 -49.298302 0.000000
-46.625397 -186.523926 -49.298302 0.000000
-33.142090 -186.523926 -49.298302 0.000000
-19.658783 -186.523926 -49.298302 0.000000
-6.175476 -186.523926 -49.298302 0.000000
7.307800 -186.523926 -49.298302 0.000000
20.791107 -186.523926 -49.298302 0.000000
34.274414 -186.523926 -49.298302 0.000000
47.757721 -186.523926 -49.298302 0.000000
61.240997 -186.523926 -49.298302 0.000000
74.724304 -186.523926 -49.298302 0.000000
88.207611 -186.523926 -49.298302 0.000000
101.690918 -186.523926 -49.298302 0.000000
115.174225 -186.523926 -49.298302 0.000000
128.657501 -186.523926 -49.298302 0.000000
142.140808 -186.523926 -49.298302 0.000000
155.624115 -186.523926 -49.298302 0.000000
169.107422 -186.523926 -49.298302 0.000000
182.590698 -186.523926 -49.298302 0.000000
196.074036 -186.523926 -49.298302 0.000000
209.557312 -186.523926 -49.298302 0.000000
223.040588 -186.523926 -49.298302 0.000000
236.523926 -186.523926 -49.298302 0.000000
250.007202 -186.523926 -49.298302 0.000000
263.490540 -186.523926 -49.298302 0.000000
276.973816 -186.523926 -49.298302 0.000000
290.457092 -186.523926 -49.298302 0.000000
303.940430 -186.523926 -49.298302 0.000000
317.423706 -186.523926 -49.298302 0.000000
330.907043 -186.523926 -49.298302 0.000000
344.390320 -186.523926 -49.298302 0.000000
-343.257996 -200.007202 -49.298302 0.000000
-329.774689 -200.007202 -49.298302 0.000000
-316.291382 -200.007202 -49.298302 0.000000
-302.808105 -200.007202 -49.298302 0.000000
-289.324799 -200.007202 -49.298302 0.000000
-275.841492 -200.007202 -49.298302 0.000000
-262.358185 -200.007202 -49.298302 0.000000
-248.874893 -200.007202 -49.298302 0.000000
-235.391602 -200.007202 -49.298302 0.000000
-221.908295 -200.007202 -49.298302 0.000000
-208.424988 -200.007202 -49.298302 0.000000
-194.941696 -200.007202 -49.298302 0.000000
-181.458389 -200.007202 -49.298302 0.000000
-167.975098 -200.007202 -49.298302 0.000000
-154.491791 -200.007202 -49.298302 0.000000
-141.008499 -200.007202 -49.298302 0.000000
-127.525192 -200.007202 -49.298302 0.000000
-114.041885 -200.007202 -49.298302 0.000000
-100.558594 -200.007202 -49.298302 0.000000
-87.075287 -200.007202 -49.298302 0.000000
-73.591980 -200.007202 -49.298302 0.000000
-60.108704 -200.007202 -49.298302 0.000000
-46.625397 -200.007202 -49.298302 0.000000
-33.142090 -200.007202 -49.298302 0.000000
-19.658783 -200.007202 -49.298302 0.000000
-6.175476 -200.007202 -49.298302 0.000000
7.307800 -200.007202 -49.298302 0.000000
20.791107 -200.007202 -49.298302 0.000000
34.274414 -200.007202 -49.298302 0.000000
47.757721 -200.007202 -49.298302 0.000000
61.240997 -200.007202 -49.298302 0.000000
74.724304 -200.007202 -49.298302 0.000000
88.207611 -200.007202 -49.298302 0.000000
101.690918 -200.007202 -49.298302 0.000000
115.174225 -200.007202 -49.298302 0.000000
128.657501 -200.007202 -49.298302 0.000000
142.140808 -200.007202 -49.298302 0.000000
155.624115 -200.007202 -49.298302 0.000000
169.107422 -200.007202 -49.298302 0.000000
182.590698 -200.007202 -49.298302 0.000000
196.074036 -200.007202 -49.298302 0.000000
209.557312 -200.007202 -49.298302 0.000000
223.040588 -200.007202 -49.298302 0.000000
236.523926 -200.007202 -49.298302 0.000000
250.007202 -200.007202 -49.298302 0.000000
263.490540 -200.007202 -49.298302 0.000000
276.973816 -200.007202 -49.298302 0.000000
290.457092 -200.007202 -49.298302 0.000000
303.940430 -200.007202 -49.298302 0.000000
317.423706 -200.007202 -49.298302 0.000000
330.907043 -200.007202 -49.298302 0.000000
344.390320 -200.007202 -49.298302 0.000000
-343.257996 393.257996 -35.815002 0.000000
-329.774689 393.257996 -35.815002 0.000000
-316.291382 393.257996 -35.815002 0.000000
-302.808105 393.257996 -35.815002 0.000000
-289.324799 393.257996 -35.815002 0.000000
-275.841492 393.257996 -35.815002 0.000000
-262.358185 393.257996 -35.815002 0.000000
-248.874893 393.257996 -35.815002 0.000000
-235.391602 393.257996 -35.815002 0.000000
-221.908295 393.257996 -35.815002 0.000000
-208.424988 393.257996 -35.815002 0.000000
-194.941696 393.257996 -35.815002 0.000000
-181.458389 393.257996 -35.815002 0.000000
-167.975098 393.257996 -35.815002 0.000000
-154.491791 393.257996 -35.815002 0.000000
-141.008499 393.257996 -35.815002 0.000000
-127.525192 393.257996 -35.815002 0.000000
-114.041885 393.257996 -35.815002 0.000000
-100.558594 393.257996 -35.815002 0.000000
-87.075287 393.257996 -35.815002 0.000000
-73.591980 393.257996 -35.815002 0.000000
-60.108704 393.257996 -35.815002 0.000000
-46.625397 393.257996 -35.815002 0.000000
-33.142090 393.257996 -35.815002 0.000000
-19.658783 393.257996 -35.815002 0.000000
-6.175476 393.257996 -35.815002 0.000000
7.307800 393.257996 -35.815002 0.000000
20.791107 393.257996 -35.815002 0.000000
34.274414 393.257996 -35.815002 0.000000
47.757721 393.257996 -35.815002 0.000000
61.240997 393.257996 -35.815002 0.000000
74.724304 393.257996 -35.815002 0.000000
88.207611 393.257996 -35.815002 0.000000
101.690918 393.257996 -35.815002 0.000000
115.174225 393.257996 -35.815002 0.000000
128.657501 393.257996 -35.815002 0.000000
142.140808 393.257996 -35.815002 0.000000
155.624115 393.257996 -35.815002 0.000000
169.107422 393.257996 -35.815002 0.000000
182.590698 393.257996 -35.815002 0.000000
196.074036 393.257996 -35.815002 0.000000
209.557312 393.257996 -35.815002 0.000000
223.040588 393.257996 -35.815002 0.000000
236.523926 393.257996 -35.815002 0.000000
250.007202 393.257996 -35.815002 0.000000
263.490540 393.257996 -35.815002 0.000000
276.973816 393.257996 -35.815002 0.000000
290.457092 393.257996 -35.815002 0.000000
303.940430 393.257996 -35.815002 0.000000
317.423706 393.257996 -35.815002 0.000000
330.907043 393.257996 -35.815002 0.000000
344.390320 393.257996 -35.815002 0.000000
-343.257996 379.774689 -35.815002 0.000000
-329.774689 379.774689 -35.815002 0.000000
-316.291382 379.774689 -35.815002 0.000000
-302.808105 379.774689 -35.815002 0.000000
-289.324799 379.774689 -35.815002 0.000000
-275.841492 379.774689 -35.815002 0.000000
-262.358185 379.774689 -35.815002 0.000000
-248.874893 379.774689 -35.815002 0.000000
-235.391602 379.774689 -35.815002 0.000000
-221.908295 379.774689 -35.815002 0.000000
-208.424988 379.774689 -35.815002 0.000000
-194.941696 379.774689 -35.815002 0.000000
-181.458389 379.774689 -35.815002 0.000000
-167.975098 379.774689 -35.815002 0.000000
-154.491791 379.774689 -35.815002 0.000000
-141.008499 379.774689 -35.815002 0.000000
-127.525192 379.774689 -35.815002 0.000000
-114.041885 379.774689 -35.815002 0.000000
-100.558594 379.774689 -35.815002 0.000000
-87.075287 379.774689 -35.815002 0.000000
-73.591980 379.774689 -35.815002 0.000000
-60.108704 379.774689 -35.815002 0.000000
-46.625397 379.774689 -35.815002 0.000000
-33.142090 379.774689 -35.815002 0.000000
-19.658783 379.774689 -35.815002 0.000000
-6.175476 379.774689 -35.815002 0.000000
7.307800 379.774689 -35.815002 0.000000
20.791107 379.774689 -35.815002 0.000000
34.274414 379.774689 -35.815002 0.000000
47.757721 379.774689 -35.815002 0.000000
61.240997 379.774689 -35.815002 0.000000
74.724304 379.774689 -35.815002 0.000000
88.207611 379.774689 -35.815002 0.000000
101.690918 379.774689 -35.815002 0.000000
115.174225 379.774689 -35.815002 0.000000
128.657501 379.774689 -35.815002 0.000000
142.140808 379.774689 -35.815002 0.000000
155.624115 379.774689 -35.815002 0.000000
169.107422 379.774689 -35.815002 0.000000
182.590698 379.774689 -35.815002 0.000000
196.074036 379.774689 -35.815002 0.000000
209.557312 379.774689 -35.815002 0.000000
223.040588 379.774689 -35.815002 0.000000
236.523926 379.774689 -35.815002 0.000000
250.007202 379.774689 -35.815002 0.000000
263.490540 379.774689 -35.815002 0.000000
276.973816 379.774689 -35.815002 0.000000
290.457092 379.774689 -35.815002 0.000000
303.940430 379.774689 -35.815002 0.000000
317.423706 379.774689 -35.815002 0.000000
330.907043 379.774689 -35.815002 0.000000
344.390320 379.774689 -35.815002 0.000000
-343.257996 366.291382 -35.815002 0.000000
-329.774689 366.291382 -35.815002 0.000000
-316.291382 366.291382 -35.815002 -0.006498
-302.808105 366.291382 -35.815002 0.000000
-289.324799 366.291382 -35.815002 0.000000
-275.841492 366.291382 -35.815002 0.000000
-262.358185 366.291382 -35.815002 0.000000
-248.874893 366.291382 -35.815002 0.000000
-235.391602 366.291382 -35.815002 0.000000
-221.908295 366.291382 -35.815002 0.000000
-208.424988 366.291382 -35.815002 0.000000
-194.941696 366.291382 -35.815002 0.000000
-181.458389 366.291382 -35.815002 0.000000
-167.975098 366.291382 -35.815002 0.000000
-154.491791 366.291382 -35.815002 0.000000
-141.008499 366.291382 -35.815002 0.000000
-127.525192 366.291382 -35.815002 0.000000
-114.041885 366.291382 -35.815002 0.000000
-100.558594 366.291382 -35.815002 0.000000
-87.075287 366.291382 -35.815002 0.000000
-73.591980 366.291382 -35.815002 0.000000
-60.108704 366.291382 -35.815002 0.000000
-46.625397 366.291382 -35.815002 0.000000
-33.142090 366.291382 -35.815002 0.000000
-19.658783 366.291382 -35.815002 0.000000
-6.175476 366.291382 -35.815002 0.000000
7.307800 366.291382 -35.815002 0.000000
20.791107 366.291382 -35.815002 0.000000
34.274414 366.291382 -35.815002 0.000000
47.757721 366.291382 -35.815002 0.000000
61.240997 366.291382 -35.815002 0.000000
74.724304 366.291382 -35.815002 0.000000
88.207611 366.291382 -35.815002 0.000000
101.690918 366.291382 -35.815002 0.000000
115.174225 366.291382 -35.815002 0.000000
128.657501 366.291382 -35.815002 0.000000
142.140808 366.291382 -35.815002 0.000000
155.624115 366.291382 -35.815002 0.000000
169.107422 366.291382 -35.815002 0.000000
182.590698 366.291382 -35.815002 0.000000
196.074036 366.291382 -35.815002 0.000000
209.557312 366.291382 -35.815002 0.000000
223.040588 366.291382 -35.815002 0.000000
236.523926 366.291382 -35.815002 0.000000
250.007202 366.291382 -35.815002 0.000000
263.490540 366.291382 -35.815002 0.000000
276.973816 366.291382 -35.815002 0.000000
290.457092 366.291382 -35.815002 0.000000
303.940430 366.291382 -35.815002 0.000000
317.423706 366.291382 -35.815002 0.000000
330.907043 366.291382 -35.815002 0.000000
344.390320 366.291382 -35.815002 0.000000
-343.257996 352.808105 -35.815002 0.000000
-329.774689 352.808105 -35.815002 0.000000
-316.291382 352.808105 -35.815002 0.000000
-302.808105 352.808105 -35.815002 -0.004959
-289.324799 352.808105 -35.815002 -0.005850
-275.841492 352.808105 -35.815002 -0.007248
-262.358185 352.808105 -35.815002 -0.008174
-248.874893 352.808105 -35.815002 -0.009647
-235.391602 352.808105 -35.815002 -0.014726
-221.908295 352.808105 -35.815002 -0.017664
-208.424988 352.808105 -35.815002 -0.012313
-194.941696 352.808105 -35.815002 -0.010420
-181.458389 352.808105 -35.815002 0.000000
-167.975098 352.808105 -35.815002 0.000000
-154.491791 352.808105 -35.815002 0.000000
-141.008499 352.808105 -35.815002 0.000000
-127.525192 352.808105 -35.815002 0.000000
-114.041885 352.808105 -35.815002 0.000000
-100.558594 352.808105 -35.815002 0.000000
-87.075287 352.808105 -35.815002 0.000000
-73.591980 352.808105 -35.815002 0.000000
-60.108704 352.808105 -35.815002 0.000000
-46.625397 352.808105 -35.815002 0.000000
-33.142090 352.808105 -35.815002 0.000000
-19.658783 352.808105 -35.815002 0.000000
-6.175476 352.808105 -35.815002 0.000000
7.307800 352.808105 -35.815002 0.000000
20.791107 352.808105 -35.815002 0.000000
34.274414 352.808105 -35.815002 0.009856
47.757721 352.808105 -35.815002 -0.000151
61.240997 352.808105 -35.815002 -0.008385
74.724304 352.808105 -35.815002 0.000000
88.207611 352.808105 -35.815002 0.000000
101.690918 352.808105 -35.815002 0.000000
115.174225 352.808105 -35.815002 0.000000
128.657501 352.808105 -35.815002 0.000000
142.140808 352.808105 -35.815002 0.000000
155.624115 352.808105 -35.815002 0.000000
169.107422 352.808105 -35.815002 0.000000
182.590698 352.808105 -35.815002 0.000000
196.074036 352.808105 -35.815002 0.000000
209.557312 352.808105 -35.815002 0.000000
223.040588 352.808105 -35.815002 0.000000
236.523926 352.808105 -35.815002 0.000000
250.007202 352.808105 -35.815002 0.000000
263.490540 352.808105 -35.815002 0.000000
276.973816 352.808105 -35.815002 0.000000
290.457092 352.808105 -35.815002 0.000000
303.940430 352.808105 -35.815002 0.000000
317.423706 352.808105 -35.815002 0.000000
330.907043 352.808105 -35.815002 0.000000
344.390320 352.808105 -35.815002 0.000000
-343.257996 339.324799 -35.815002 0.000000
-329.774689 339.324799 -35.815002 0.000000
-316.291382 339.324799 -35.815002 -0.002621
-302.808105 339.324799 -35.815002 -0.003336
-289.324799 339.324799 -35.815002 -0.005330
-275.841492 339.324799 -35.815002 -0.005656
-262.358185 339.324799 -35.815002 -0.008945
-248.874893 339.324799 -35.815002 -0.009764
-235.391602 339.324799 -35.815002 -0.010081
-221.908295 339.324799 -35.815002 -0.013803
-208.424988 339.324799 -35.815002 -0.011750
-194.941696 339.324799 -35.815002 -0.011201
-181.458389 339.324799 -35.815002 -0.020447
-167.975098 339.324799 -35.815002 -0.016302
-154.491791 339.324799 -35.815002 -0.013691
-141.008499 339.324799 -35.815002 -0.013221
-127.525192 339.324799 -35.815002 -0.002244
-114.041885 339.324799 -35.815002 0.023000
-100.558594 339.324799 -35.815002 0.037806
-87.075287 339.324799 -35.815002 0.061585
-73.591980 339.324799 -35.815002 0.062371
-60.108704 339.324799 -35.815002 0.067604
-46.625397 339.324799 -35.815002 0.088377
-33.142090 339.324799 -35.815002 0.083677
-19.658783 339.324799 -35.815002 0.066177
-6.175476 339.324799 -35.815002 0.060260
7.307800 339.324799 -35.815002 0.033539
20.791107 339.324799 -35.815002 0.024583
34.274414 339.324799 -35.815002 0.015818
47.757721 339.324799 -35.815002 0.003707
61.240997 339.324799 -35.815002 -0.012801
74.724304 339.324799 -35.815002 -0.023276
88.207611 339.324799 -35.815002 -0.039352
101.690918 339.324799 -35.815002 -0.046806
115.174225 339.324799 -35.815002 -0.054140
128.657501 339.324799 -35.815002 -0.047729
142.140808 339.324799 -35.815002 -0.045133
155.624115 339.324799 -35.815002 -0.023145
169.107422 339.324799 -35.815002 -0.011160
182.590698 339.324799 -35.815002 -0.003095
196.074036 339.324799 -35.815002 0.015171
209.557312 339.324799 -35.815002 0.025180
223.040588 339.324799 -35.815002 0.032867
236.523926 339.324799 -35.815002 0.045599
250.007202 339.324799 -35.815002 0.045862
263.490540 339.324799 -35.815002 0.043542
276.973816 339.324799 -35.815002 0.039029
290.457092 339.324799 -35.815002 0.000000
303.940430 339.324799 -35.815002 0.000000
317.423706 339.324799 -35.815002 0.000000
330.907043 339.324799 -35.815002 0.000000
344.390320 339.324799 -35.815002 0.000000
-343.257996 325.841492 -35.815002 0.000000
-329.774689 325.841492 -35.815002 0.000000
-316.291382 325.841492 -35.815002 -0.001638
-302.808105 325.841492 -35.815002 -0.003022
-289.324799 325.841492 -35.815002 -0.005227
-275.841492 325.841492 -35.815002 -0.006913
-262.358185 325.841492 -35.815002 -0.007643
-248.874893 325.841492 -35.815002 -0.009443
-235.391602 325.841492 -35.815002 -0.011482
-221.908295 325.841492 -35.815002 -0.014100
-208.424988 325.841492 -35.815002 -0.008712
-194.941696 325.841492 -35.815002 -0.011619
-181.458389 325.841492 -35.815002 -0.018097
-167.975098 325.841492 -35.815002 -0.015679
-154.491791 325.841492 -35.815002 -0.018137
-141.008499 325.841492 -35.815002 -0.018156
-127.525192 325.841492 -35.815002 -0.000932
-114.041885 325.841492 -35.815002 0.016171
-100.558594 325.841492 -35.815002 0.032746
-87.075287 325.841492 -35.815002 0.045063
-73.591980 325.841492 -35.815002 0.054372
-60.108704 325.841492 -35.815002 0.072914
-46.625397 325.841492 -35.815002 0.079983
-33.142090 325.841492 -35.815002 0.075552
-19.658783 325.841492 -35.815002 0.063706
-6.175476 325.841492 -35.815002 0.065932
7.307800 325.841492 -35.815002 0.039823
20.791107 325.841492 -35.815002 0.021054
34.274414 325.841492 -35.815002 0.015569
47.757721 325.841492 -35.815002 0.000974
61.240997 325.841492 -35.815002 -0.010777
74.724304 325.841492 -35.815002 -0.027413
88.207611 325.841492 -35.815002 -0.043175
101.690918 325.841492 -35.815002 -0.054790
115.174225 325.841492 -35.815002 -0.057913
128.657501 325.841492 -35.815002 -0.050568
142.140808 325.841492 -35.815002 -0.032712
155.624115 325.841492 -35.815002 -0.007968
169.107422 325.841492 -35.815002 0.000038
182.590698 325.841492 -35.815002 0.006575
196.074036 325.841492 -35.815002 0.020538
209.557312 325.841492 -35.815002 0.027446
223.040588 325.841492 -35.815002 0.038654
236.523926 325.841492 -35.815002 0.044920
250.007202 325.841492 -35.815002 0.048323
263.490540 325.841492 -35.815002 0.048639
276.973816 325.841492 -35.815002 0.039287
290.457092 325.841492 -35.815002 0.033793
303.940430 325.841492 -35.815002 0.000000
317.423706 325.841492 -35.815002 0.000000
330.907043 325.841492 -35.815002 0.000000
344.390320 325.841492 -35.815002 0.000000
-343.257996 312.358185 -35.815002 0.000000
-329.774689 312.358185 -35.815002 0.000000
-316.291382 312.358185 -35.815002 -0.001754
-302.808105 312.358185 -35.815002 -0.002994
-289.324799 312.358185 -35.815002 -0.005413
-275.841492 312.358185 -35.815002 -0.006636
-262.358185 312.358185 -35.815002 -0.007967
-248.874893 312.358185 -35.815002 -0.008744
-235.391602 312.358185 -35.815002 -0.012188
-221.908295 312.358185 -35.815002 -0.013796
-208.424988 312.358185 -35.815002 -0.011664
-194.941696 312.358185 -35.815002 -0.015143
-181.458389 312.358185 -35.815002 -0.015864
-167.975098 312.358185 -35.815002 -0.019033
-154.491791 312.358185 -35.815002 -0.017265
-141.008499 312.358185 -35.815002 -0.009793
-127.525192 312.358185 -35.815002 -0.006933
-114.041885 312.358185 -35.815002 0.014684
-100.558594 312.358185 -35.815002 0.031315
-87.075287 312.358185 -35.815002 0.032020
-73.591980 312.358185 -35.815002 0.049520
-60.108704 312.358185 -35.815002 0.065632
-46.625397 312.358185 -35.815002 0.081143
-33.142090 312.358185 -35.815002 0.072239
-19.658783 312.358185 -35.815002 0.068297
-6.175476 312.358185 -35.815002 0.061698
7.307800 312.358185 -35.815002 0.046389
20.791107 312.358185 -35.815002 0.033757
34.274414 312.358185 -35.815002 0.016787
47.757721 312.358185 -35.815002 0.001667
61.240997 312.358185 -35.815002 -0.016726
74.724304 312.358185 -35.815002 -0.034293
88.207611 312.358185 -35.815002 -0.042042
101.690918 312.358185 -35.815002 -0.056185
115.174225 312.358185 -35.815002 -0.054596
128.657501 312.358185 -35.815002 -0.043977
142.140808 312.358185 -35.815002 -0.015102
155.624115 312.358185 -35.815002 -0.000576
169.107422 312.358185 -35.815002 0.012348
182.590698 312.358185 -35.815002 0.021441
196.074036 312.358185 -35.815002 0.025010
209.557312 312.358185 -35.815002 0.031450
223.040588 312.358185 -35.815002 0.040463
236.523926 312.358185 -35.815002 0.044917
250.007202 312.358185 -35.815002 0.047818
263.490540 312.358185 -35.815002 0.047278
276.973816 312.358185 -35.815002 0.038452
290.457092 312.358185 -35.815002 0.032321
303.940430 312.358185 -35.815002 0.000000
317.423706 312.358185 -35.815002 0.000000
330.907043 312.358185 -35.815002 0.000000
344.390320 312.358185 -35.815002 0.000000
-343.257996 298.874878 -35.815002 0.000000
-329.774689 298.874878 -35.815002 0.000000
-316.291382 298.874878 -35.815002 -0.001985
-302.808105 298.874878 -35.815002 -0.002382
-289.324799 298.874878 -35.815002 -0.004480
-275.841492 298.874878 -35.815002 -0.006872
-262.358185 298.874878 -35.815002 -0.008635
-248.874893 298.874878 -35.815002 -0.010966
-235.391602 298.874878 -35.815002 -0.012220
-221.908295 298.874878 -35.815002 -0.014853
-208.424988 298.874878 -35.815002 -0.012766
-194.941696 298.874878 -35.815002 -0.014039
-181.458389 298.874878 -35.815002 -0.012811
-167.975098 298.874878 -35.815002 -0.013763
-154.491791 298.874878 -35.815002 -0.008649
-141.008499 298.874878 -35.815002 -0.006100
-127.525192 298.874878 -35.815002 -0.003496
-114.041885 298.874878 -35.815002 0.003410
-100.558594 298.874878 -35.815002 0.016428
-87.075287 298.874878 -35.815002 0.027145
-73.591980 298.874878 -35.815002 0.035179
-60.108704 298.874878 -35.815002 0.045439
-46.625397 298.874878 -35.815002 0.058239
-33.142090 298.874878 -35.815002 0.067726
-19.658783 298.874878 -35.815002 0.078175
-6.175476 298.874878 -35.815002 0.063114
7.307800 298.874878 -35.815002 0.052909
20.791107 298.874878 -35.815002 0.032401
34.274414 298.874878 -35.815002 0.013381
47.757721 298.874878 -35.815002 -0.003261
61.240997 298.874878 -35.815002 -0.030585
74.724304 298.874878 -35.815002 -0.037499
88.207611 298.874878 -35.815002 -0.045824
101.690918 298.874878 -35.815002 -0.050673
115.174225 298.874878 -35.815002 -0.052676
128.657501 298.874878 -35.815002 -0.033455
142.140808 298.874878 -35.815002 -0.012070
155.624115 298.874878 -35.815002 0.007107
169.107422 298.874878 -35.815002 0.016008
182.590698 298.874878 -35.815002 0.026172
196.074036 298.874878 -35.815002 0.035671
209.557312 298.874878 -35.815002 0.036128
223.040588 298.874878 -35.815002 0.042139
236.523926 298.874878 -35.815002 0.045382
250.007202 298.874878 -35.815002 0.043852
263.490540 298.874878 -35.815002 0.042334
276.973816 298.874878 -35.815002 0.036870
290.457092 298.874878 -35.815002 0.029786
303.940430 298.874878 -35.815002 0.000000
317.423706 298.874878 -35.815002 0.000000
330.907043 298.874878 -35.815002 0.000000
344.390320 298.874878 -35.815002 0.000000
-343.257996 285.391602 -35.815002 0.000000
-329.774689 285.391602 -35.815002 0.000000
-316.291382 285.391602 -35.815002 -0.001914
-302.808105 285.391602 -35.815002 -0.002216
-289.324799 285.391602 -35.815002 -0.003444
-275.841492 285.391602 -35.815002 -0.006265
-262.358185 285.391602 -35.815002 -0.008866
-248.874893 285.391602 -35.815002 -0.010848
-235.391602 285.391602 -35.815002 -0.012754
-221.908295 285.391602 -35.815002 -0.016578
-208.424988 285.391602 -35.815002 -0.014904
-194.941696 285.391602 -35.815002 -0.015548
-181.458389 285.391602 -35.815002 -0.015150
-167.975098 285.391602 -35.815002 -0.017027
-154.491791 285.391602 -35.815002 -0.018062
-141.008499 285.391602 -35.815002 -0.006658
-127.525192 285.391602 -35.815002 -0.005044
-114.041885 285.391602 -35.815002 -0.000034
-100.558594 285.391602 -35.815002 0.005915
-87.075287 285.391602 -35.815002 0.010589
-73.591980 285.391602 -35.815002 0.015323
-60.108704 285.391602 -35.815002 0.026513
-46.625397 285.391602 -35.815002 0.037787
-33.142090 285.391602 -35.815002 0.065092
-19.658783 285.391602 -35.815002 0.066600
-6.175476 285.391602 -35.815002 0.060524
7.307800 285.391602 -35.815002 0.048831
20.791107 285.391602 -35.815002 0.028407
34.274414 285.391602 -35.815002 0.008009
47.757721 285.391602 -35.815002 -0.011338
61.240997 285.391602 -35.815002 -0.033137
74.724304 285.391602 -35.815002 -0.036149
88.207611 285.391602 -35.815002 -0.058860
101.690918 285.391602 -35.815002 -0.061463
115.174225 285.391602 -35.815002 -0.051940
128.657501 285.391602 -35.815002 -0.034209
142.140808 285.391602 -35.815002 -0.005435
155.624115 285.391602 -35.815002 0.001404
169.107422 285.391602 -35.815002 0.008991
182.590698 285.391602 -35.815002 0.022412
196.074036 285.391602 -35.815002 0.032524
209.557312 285.391602 -35.815002 0.034775
223.040588 285.391602 -35.815002 0.038392
236.523926 285.391602 -35.815002 0.042561
250.007202 285.391602 -35.815002 0.036771
263.490540 285.391602 -35.815002 0.030846
276.973816 285.391602 -35.815002 0.027215
290.457092 285.391602 -35.815002 0.015542
303.940430 285.391602 -35.815002 0.012825
317.423706 285.391602 -35.815002 0.000000
330.907043 285.391602 -35.815002 0.000000
344.390320 285.391602 -35.815002 0.000000
-343.257996 271.908295 -35.815002 0.000000
-329.774689 271.908295 -35.815002 0.000000
-316.291382 271.908295 -35.815002 -0.001941
-302.808105 271.908295 -35.815002 -0.002360
-289.324799 271.908295 -35.815002 -0.002735
-275.841492 271.908295 -35.815002 -0.004586
-262.358185 271.908295 -35.815002 -0.007604
-248.874893 271.908295 -35.815002 -0.009864
-235.391602 271.908295 -35.815002 -0.013372
-221.908295 271.908295 -35.815002 -0.016314
-208.424988 271.908295 -35.815002 -0.015662
-194.941696 271.908295 -35.815002 -0.014335
-181.458389 271.908295 -35.815002 -0.014981
-167.975098 271.908295 -35.815002 -0.016854
-154.491791 271.908295 -35.815002 -0.013673
-141.008499 271.908295 -35.815002 -0.013729
-127.525192 271.908295 -35.815002 -0.009904
-114.041885 271.908295 -35.815002 -0.004539
-100.558594 271.908295 -35.815002 -0.006971
-87.075287 271.908295 -35.815002 -0.003088
-73.591980 271.908295 -35.815002 0.009637
-60.108704 271.908295 -35.815002 0.018108
-46.625397 271.908295 -35.815002 0.044539
-33.142090 271.908295 -35.815002 0.070201
-19.658783 271.908295 -35.815002 0.069293
-6.175476 271.908295 -35.815002 0.053620
7.307800 271.908295 -35.815002 0.037455
20.791107 271.908295 -35.815002 0.024874
34.274414 271.908295 -35.815002 0.001564
47.757721 271.908295 -35.815002 -0.017599
61.240997 271.908295 -35.815002 -0.034458
74.724304 271.908295 -35.815002 -0.042358
88.207611 271.908295 -35.815002 -0.060247
101.690918 271.908295 -35.815002 -0.055297
115.174225 271.908295 -35.815002 -0.046167
128.657501 271.908295 -35.815002 -0.042560
142.140808 271.908295 -35.815002 -0.013573
155.624115 271.908295 -35.815002 -0.004049
169.107422 271.908295 -35.815002 0.017962
182.590698 271.908295 -35.815002 0.030951
196.074036 271.908295 -35.815002 0.032101
209.557312 271.908295 -35.815002 0.029860
223.040588 271.908295 -35.815002 0.033057
236.523926 271.908295 -35.815002 0.039558
250.007202 271.908295 -35.815002 0.026646
263.490540 271.908295 -35.815002 0.021224
276.973816 271.908295 -35.815002 0.015609
290.457092 271.908295 -35.815002 0.010723
303.940430 271.908295 -35.815002 0.008108
317.423706 271.908295 -35.815002 0.000000
330.907043 271.908295 -35.815002 0.000000
344.390320 271.908295 -35.815002 0.000000
-343.257996 258.424988 -35.815002 0.000000
-329.774689 258.424988 -35.815002 0.000000
-316.291382 258.424988 -35.815002 -0.001673
-302.808105 258.424988 -35.815002 -0.001987
-289.324799 258.424988 -35.815002 -0.002871
-275.841492 258.424988 -35.815002 -0.003548
-262.358185 258.424988 -35.815002 -0.005573
-248.874893 258.424988 -35.815002 -0.010159
-235.391602 258.424988 -35.815002 -0.012839
-221.908295 258.424988 -35.815002 -0.017913
-208.424988 258.424988 -35.815002 -0.015483
-194.941696 258.424988 -35.815002 -0.012034
-181.458389 258.424988 -35.815002 -0.014572
-167.975098 258.424988 -35.815002 -0.014797
-154.491791 258.424988 -35.815002 -0.016202
-141.008499 258.424988 -35.815002 -0.015471
-127.525192 258.424988 -35.815002 -0.017350
-114.041885 258.424988 -35.815002 -0.010741
-100.558594 258.424988 -35.815002 -0.008286
-87.075287 258.424988 -35.815002 -0.006554
-73.591980 258.424988 -35.815002 0.012343
-60.108704 258.424988 -35.815002 0.023353
-46.625397 258.424988 -35.815002 0.039570
-33.142090 258.424988 -35.815002 0.060076
-19.658783 258.424988 -35.815002 0.068656
-6.175476 258.424988 -35.815002 0.054927
7.307800 258.424988 -35.815002 0.054626
20.791107 258.424988 -35.815002 0.017462
34.274414 258.424988 -35.815002 -0.004034
47.757721 258.424988 -35.815002 -0.021716
61.240997 258.424988 -35.815002 -0.042051
74.724304 258.424988 -35.815002 -0.059647
88.207611 258.424988 -35.815002 -0.060343
101.690918 258.424988 -35.815002 -0.063417
115.174225 258.424988 -35.815002 -0.049799
128.657501 258.424988 -35.815002 -0.047255
142.140808 258.424988 -35.815002 -0.018528
155.624115 258.424988 -35.815002 0.004271
169.107422 258.424988 -35.815002 0.023947
182.590698 258.424988 -35.815002 0.026142
196.074036 258.424988 -35.815002 0.030677
209.557312 258.424988 -35.815002 0.032872
223.040588 258.424988 -35.815002 0.031066
236.523926 258.424988 -35.815002 0.027527
250.007202 258.424988 -35.815002 0.016007
263.490540 258.424988 -35.815002 0.012292
276.973816 258.424988 -35.815002 0.007241
290.457092 258.424988 -35.815002 0.004702
303.940430 258.424988 -35.815002 0.001656
317.423706 258.424988 -35.815002 0.001795
330.907043 258.424988 -35.815002 0.000000
344.390320 258.424988 -35.815002 0.000000
-343.257996 244.941696 -35.815002 0.000000
-329.774689 244.941696 -35.815002 0.000000
-316.291382 244.941696 -35.815002 -0.000436
-302.808105 244.941696 -35.815002 -0.001746
-289.324799 244.941696 -35.815002 -0.002291
-275.841492 244.941696 -35.815002 -0.002510
-262.358185 244.941696 -35.815002 -0.002959
-248.874893 244.941696 -35.815002 -0.004943
-235.391602 244.941696 -35.815002 -0.007752
-221.908295 244.941696 -35.815002 -0.010430
-208.424988 244.941696 -35.815002 -0.010089
-194.941696 244.941696 -35.815002 -0.012562
-181.458389 244.941696 -35.815002 -0.012578
-167.975098 244.941696 -35.815002 -0.018170
-154.491791 244.941696 -35.815002 -0.021420
-141.008499 244.941696 -35.815002 -0.016041
-127.525192 244.941696 -35.815002 -0.018193
-114.041885 244.941696 -35.815002 -0.015972
-100.558594 244.941696 -35.815002 -0.019721
-87.075287 244.941696 -35.815002 -0.021936
-73.591980 244.941696 -35.815002 0.006506
-60.108704 244.941696 -35.815002 0.023542
-46.625397 244.941696 -35.815002 0.029496
-33.142090 244.941696 -35.815002 0.046923
-19.658783 244.941696 -35.815002 0.072414
-6.175476 244.941696 -35.815002 0.062072
7.307800 244.941696 -35.815002 0.043511
20.791107 244.941696 -35.815002 0.010279
34.274414 244.941696 -35.815002 -0.016202
47.757721 244.941696 -35.815002 -0.032818
61.240997 244.941696 -35.815002 -0.046921
74.724304 244.941696 -35.815002 -0.064356
88.207611 244.941696 -35.815002 -0.079145
101.690918 244.941696 -35.815002 -0.074022
115.174225 244.941696 -35.815002 -0.058597
128.657501 244.941696 -35.815002 -0.039979
142.140808 244.941696 -35.815002 -0.016048
155.624115 244.941696 -35.815002 0.001133
169.107422 244.941696 -35.815002 0.025998
182.590698 244.941696 -35.815002 0.027720
196.074036 244.941696 -35.815002 0.031228
209.557312 244.941696 -35.815002 0.029461
223.040588 244.941696 -35.815002 0.022502
236.523926 244.941696 -35.815002 0.010604
250.007202 244.941696 -35.815002 0.009335
263.490540 244.941696 -35.815002 0.007877
276.973816 244.941696 -35.815002 0.000815
290.457092 244.941696 -35.815002 0.000975
303.940430 244.941696 -35.815002 -0.000478
317.423706 244.941696 -35.815002 -0.000792
330.907043 244.941696 -35.815002 0.000000
344.390320 244.941696 -35.815002 0.000000
-343.257996 231.458389 -35.815002 0.000000
-329.774689 231.458389 -35.815002 0.000000
-316.291382 231.458389 -35.815002 -0.000296
-302.808105 231.458389 -35.815002 -0.000884
-289.324799 231.458389 -35.815002 -0.000753
-275.841492 231.458389 -35.815002 -0.001159
-262.358185 231.458389 -35.815002 -0.000958
-248.874893 231.458389 -35.815002 -0.000664
-235.391602 231.458389 -35.815002 -0.000110
-221.908295 231.458389 -35.815002 -0.003831
-208.424988 231.458389 -35.815002 -0.009128
-194.941696 231.458389 -35.815002 -0.007382
-181.458389 231.458389 -35.815002 -0.008493
-167.975098 231.458389 -35.815002 -0.022528
-154.491791 231.458389 -35.815002 -0.023534
-141.008499 231.458389 -35.815002 -0.023203
-127.525192 231.458389 -35.815002 -0.026774
-114.041885 231.458389 -35.815002 -0.027893
-100.558594 231.458389 -35.815002 -0.029420
-87.075287 231.458389 -35.815002 -0.024551
-73.591980 231.458389 -35.815002 -0.007324
-60.108704 231.458389 -35.815002 0.020327
-46.625397 231.458389 -35.815002 0.024555
-33.142090 231.458389 -35.815002 0.050773
-19.658783 231.458389 -35.815002 0.069181
-6.175476 231.458389 -35.815002 0.051813
7.307800 231.458389 -35.815002 0.025376
20.791107 231.458389 -35.815002 -0.003807
34.274414 231.458389 -35.815002 -0.039617
47.757721 231.458389 -35.815002 -0.067628
61.240997 231.458389 -35.815002 -0.090110
74.724304 231.458389 -35.815002 -0.101574
88.207611 231.458389 -35.815002 -0.096767
101.690918 231.458389 -35.815002 -0.086667
115.174225 231.458389 -35.815002 -0.062715
128.657501 231.458389 -35.815002 -0.038371
142.140808 231.458389 -35.815002 -0.021378
155.624115 231.458389 -35.815002 0.003672
169.107422 231.458389 -35.815002 0.011919
182.590698 231.458389 -35.815002 0.027033
196.074036 231.458389 -35.815002 0.027107
209.557312 231.458389 -35.815002 0.017652
223.040588 231.458389 -35.815002 0.007924
236.523926 231.458389 -35.815002 0.002758
250.007202 231.458389 -35.815002 0.002701
263.490540 231.458389 -35.815002 -0.001194
276.973816 231.458389 -35.815002 -0.003980
290.457092 231.458389 -35.815002 -0.004774
303.940430 231.458389 -35.815002 -0.003146
317.423706 231.458389 -35.815002 -0.002070
330.907043 231.458389 -35.815002 0.000000
344.390320 231.458389 -35.815002 0.000000
-343.257996 217.975098 -35.815002 0.000000
-329.774689 217.975098 -35.815002 0.000000
-316.291382 217.975098 -35.815002 0.000032
-302.808105 217.975098 -35.815002 0.000675
-289.324799 217.975098 -35.815002 -0.000165
-275.841492 217.975098 -35.815002 0.000476
-262.358185 217.975098 -35.815002 0.001163
-248.874893 217.975098 -35.815002 0.002102
-235.391602 217.975098 -35.815002 0.005511
-221.908295 217.975098 -35.815002 0.000491
-208.424988 217.975098 -35.815002 -0.004081
-194.941696 217.975098 -35.815002 -0.004724
-181.458389 217.975098 -35.815002 -0.008966
-167.975098 217.975098 -35.815002 -0.014977
-154.491791 217.975098 -35.815002 -0.022037
-141.008499 217.975098 -35.815002 -0.025857
-127.525192 217.975098 -35.815002 -0.042931
-114.041885 217.975098 -35.815002 -0.039316
-100.558594 217.975098 -35.815002 -0.035769
-87.075287 217.975098 -35.815002 -0.026067
-73.591980 217.975098 -35.815002 -0.001885
-60.108704 217.975098 -35.815002 0.021352
-46.625397 217.975098 -35.815002 0.029461
-33.142090 217.975098 -35.815002 0.041534
-19.658783 217.975098 -35.815002 0.055066
-6.175476 217.975098 -35.815002 0.042155
7.307800 217.975098 -35.815002 0.010711
20.791107 217.975098 -35.815002 -0.023266
34.274414 217.975098 -35.815002 -0.058847
47.757721 217.975098 -35.815002 -0.079858
61.240997 217.975098 -35.815002 -0.111239
74.724304 217.975098 -35.815002 -0.127422
88.207611 217.975098 -35.815002 -0.117586
101.690918 217.975098 -35.815002 -0.098202
115.174225 217.975098 -35.815002 -0.070201
128.657501 217.975098 -35.815002 -0.037543
142.140808 217.975098 -35.815002 -0.014445
155.624115 217.975098 -35.815002 0.015513
169.107422 217.975098 -35.815002 0.015337
182.590698 217.975098 -35.815002 0.026233
196.074036 217.975098 -35.815002 0.020160
209.557312 217.975098 -35.815002 0.008806
223.040588 217.975098 -35.815002 -0.001389
236.523926 217.975098 -35.815002 -0.005519
250.007202 217.975098 -35.815002 -0.006445
263.490540 217.975098 -35.815002 -0.007405
276.973816 217.975098 -35.815002 -0.008769
290.457092 217.975098 -35.815002 -0.006359
303.940430 217.975098 -35.815002 -0.004830
317.423706 217.975098 -35.815002 -0.002514
330.907043 217.975098 -35.815002 0.000000
344.390320 217.975098 -35.815002 0.000000
-343.257996 204.491791 -35.815002 0.000000
-329.774689 204.491791 -35.815002 0.000000
-316.291382 204.491791 -35.815002 -0.000464
-302.808105 204.491791 -35.815002 -0.000182
-289.324799 204.491791 -35.815002 0.000049
-275.841492 204.491791 -35.815002 0.001370
-262.358185 204.491791 -35.815002 0.003247
-248.874893 204.491791 -35.815002 0.004209
-235.391602 204.491791 -35.815002 0.005958
-221.908295 204.491791 -35.815002 0.003142
-208.424988 204.491791 -35.815002 -0.000301
-194.941696 204.491791 -35.815002 -0.003205
-181.458389 204.491791 -35.815002 -0.005111
-167.975098 204.491791 -35.815002 -0.018215
-154.491791 204.491791 -35.815002 -0.026377
-141.008499 204.491791 -35.815002 -0.039842
-127.525192 204.491791 -35.815002 -0.062189
-114.041885 204.491791 -35.815002 -0.054256
-100.558594 204.491791 -35.815002 -0.048500
-87.075287 204.491791 -35.815002 -0.042603
-73.591980 204.491791 -35.815002 -0.005906
-60.108704 204.491791 -35.815002 0.011992
-46.625397 204.491791 -35.815002 0.029098
-33.142090 204.491791 -35.815002 0.044046
-19.658783 204.491791 -35.815002 0.049315
-6.175476 204.491791 -35.815002 0.031608
7.307800 204.491791 -35.815002 -0.001144
20.791107 204.491791 -35.815002 -0.040252
34.274414 204.491791 -35.815002 -0.083774
47.757721 204.491791 -35.815002 -0.117694
61.240997 204.491791 -35.815002 -0.125274
74.724304 204.491791 -35.815002 -0.120779
88.207611 204.491791 -35.815002 -0.107256
101.690918 204.491791 -35.815002 -0.092080
115.174225 204.491791 -35.815002 -0.064469
128.657501 204.491791 -35.815002 -0.026921
142.140808 204.491791 -35.815002 -0.000840
155.624115 204.491791 -35.815002 0.015062
169.107422 204.491791 -35.815002 0.018582
182.590698 204.491791 -35.815002 0.015620
196.074036 204.491791 -35.815002 0.017689
209.557312 204.491791 -35.815002 0.000765
223.040588 204.491791 -35.815002 -0.006424
236.523926 204.491791 -35.815002 -0.005837
250.007202 204.491791 -35.815002 -0.011317
263.490540 204.491791 -35.815002 -0.008615
276.973816 204.491791 -35.815002 -0.010181
290.457092 204.491791 -35.815002 -0.008044
303.940430 204.491791 -35.815002 -0.005315
317.423706 204.491791 -35.815002 -0.002912
330.907043 204.491791 -35.815002 0.000000
344.390320 204.491791 -35.815002 0.000000
-343.257996 191.008499 -35.815002 0.000000
-329.774689 191.008499 -35.815002 0.000000
-316.291382 191.008499 -35.815002 -0.001298
-302.808105 191.008499 -35.815002 -0.001886
-289.324799 191.008499 -35.815002 -0.001137
-275.841492 191.008499 -35.815002 0.000008
-262.358185 191.008499 -35.815002 0.003208
-248.874893 191.008499 -35.815002 0.003007
-235.391602 191.008499 -35.815002 0.003418
-221.908295 191.008499 -35.815002 0.004109
-208.424988 191.008499 -35.815002 -0.001670
-194.941696 191.008499 -35.815002 -0.005664
-181.458389 191.008499 -35.815002 -0.014980
-167.975098 191.008499 -35.815002 -0.028336
-154.491791 191.008499 -35.815002 -0.039422
-141.008499 191.008499 -35.815002 -0.048746
-127.525192 191.008499 -35.815002 -0.063990
-114.041885 191.008499 -35.815002 -0.068299
-100.558594 191.008499 -35.815002 -0.074834
-87.075287 191.008499 -35.815002 -0.046415
-73.591980 191.008499 -35.815002 -0.015937
-60.108704 191.008499 -35.815002 0.002265
-46.625397 191.008499 -35.815002 0.024837
-33.142090 191.008499 -35.815002 0.035683
-19.658783 191.008499 -35.815002 0.031852
-6.175476 191.008499 -35.815002 0.019425
7.307800 191.008499 -35.815002 -0.023998
20.791107 191.008499 -35.815002 -0.057258
34.274414 191.008499 -35.815002 -0.099637
47.757721 191.008499 -35.815002 -0.130339
61.240997 191.008499 -35.815002 -0.115978
74.724304 191.008499 -35.815002 -0.114369
88.207611 191.008499 -35.815002 -0.085259
101.690918 191.008499 -35.815002 -0.066360
115.174225 191.008499 -35.815002 -0.054015
128.657501 191.008499 -35.815002 -0.026506
142.140808 191.008499 -35.815002 -0.007397
155.624115 191.008499 -35.815002 0.010628
169.107422 191.008499 -35.815002 0.011680
182.590698 191.008499 -35.815002 0.012228
196.074036 191.008499 -35.815002 0.007899
209.557312 191.008499 -35.815002 0.002053
223.040588 191.008499 -35.815002 -0.001273
236.523926 191.008499 -35.815002 -0.010550
250.007202 191.008499 -35.815002 -0.012561
263.490540 191.008499 -35.815002 -0.008562
276.973816 191.008499 -35.815002 -0.009557
290.457092 191.008499 -35.815002 -0.007537
303.940430 191.008499 -35.815002 -0.005584
317.423706 191.008499 -35.815002 -0.003497
330.907043 191.008499 -35.815002 0.000000
344.390320 191.008499 -35.815002 0.000000
-343.257996 177.525192 -35.815002 0.000000
-329.774689 177.525192 -35.815002 0.000000
-316.291382 177.525192 -35.815002 -0.001523
-302.808105 177.525192 -35.815002 -0.002753
-289.324799 177.525192 -35.815002 -0.001756
-275.841492 177.525192 -35.815002 -0.002389
-262.358185 177.525192 -35.815002 -0.000793
-248.874893 177.525192 -35.815002 0.000819
-235.391602 177.525192 -35.815002 -0.001288
-221.908295 177.525192 -35.815002 -0.005038
-208.424988 177.525192 -35.815002 -0.008107
-194.941696 177.525192 -35.815002 -0.018806
-181.458389 177.525192 -35.815002 -0.028075
-167.975098 177.525192 -35.815002 -0.044971
-154.491791 177.525192 -35.815002 -0.061534
-141.008499 177.525192 -35.815002 -0.074848
-127.525192 177.525192 -35.815002 -0.075490
-114.041885 177.525192 -35.815002 -0.073887
-100.558594 177.525192 -35.815002 -0.058488
-87.075287 177.525192 -35.815002 -0.047051
-73.591980 177.525192 -35.815002 -0.028248
-60.108704 177.525192 -35.815002 0.004808
-46.625397 177.525192 -35.815002 0.024885
-33.142090 177.525192 -35.815002 0.034644
-19.658783 177.525192 -35.815002 0.029892
-6.175476 177.525192 -35.815002 -0.002197
7.307800 177.525192 -35.815002 -0.022592
20.791107 177.525192 -35.815002 -0.059406
34.274414 177.525192 -35.815002 -0.090724
47.757721 177.525192 -35.815002 -0.138064
61.240997 177.525192 -35.815002 -0.119332
74.724304 177.525192 -35.815002 -0.095900
88.207611 177.525192 -35.815002 -0.081425
101.690918 177.525192 -35.815002 -0.049535
115.174225 177.525192 -35.815002 -0.030524
128.657501 177.525192 -35.815002 -0.019030
142.140808 177.525192 -35.815002 -0.000434
155.624115 177.525192 -35.815002 0.004739
169.107422 177.525192 -35.815002 0.005753
182.590698 177.525192 -35.815002 0.005816
196.074036 177.525192 -35.815002 0.000779
209.557312 177.525192 -35.815002 -0.004038
223.040588 177.525192 -35.815002 -0.007361
236.523926 177.525192 -35.815002 -0.009494
250.007202 177.525192 -35.815002 -0.012312
263.490540 177.525192 -35.815002 -0.013438
276.973816 177.525192 -35.815002 -0.009779
290.457092 177.525192 -35.815002 -0.007811
303.940430 177.525192 -35.815002 -0.005312
317.423706 177.525192 -35.815002 -0.003059
330.907043 177.525192 -35.815002 0.000000
344.390320 177.525192 -35.815002 0.000000
-343.257996 164.041885 -35.815002 0.000000
-329.774689 164.041885 -35.815002 0.000000
-316.291382 164.041885 -35.815002 -0.002318
-302.808105 164.041885 -35.815002 -0.003176
-289.324799 164.041885 -35.815002 -0.003214
-275.841492 164.041885 -35.815002 -0.004061
-262.358185 164.041885 -35.815002 -0.005321
-248.874893 164.041885 -35.815002 -0.006096
-235.391602 164.041885 -35.815002 -0.014798
-221.908295 164.041885 -35.815002 -0.021514
-208.424988 164.041885 -35.815002 -0.031487
-194.941696 164.041885 -35.815002 -0.038280
-181.458389 164.041885 -35.815002 -0.045363
-167.975098 164.041885 -35.815002 -0.061078
-154.491791 164.041885 -35.815002 -0.076098
-141.008499 164.041885 -35.815002 -0.074523
-127.525192 164.041885 -35.815002 -0.069450
-114.041885 164.041885 -35.815002 -0.062101
-100.558594 164.041885 -35.815002 -0.041350
-87.075287 164.041885 -35.815002 -0.023534
-73.591980 164.041885 -35.815002 -0.013683
-60.108704 164.041885 -35.815002 0.010255
-46.625397 164.041885 -35.815002 0.027629
-33.142090 164.041885 -35.815002 0.022856
-19.658783 164.041885 -35.815002 0.023112
-6.175476 164.041885 -35.815002 -0.004083
7.307800 164.041885 -35.815002 -0.032858
20.791107 164.041885 -35.815002 -0.064404
34.274414 164.041885 -35.815002 -0.093415
47.757721 164.041885 -35.815002 -0.117936
61.240997 164.041885 -35.815002 -0.115245
74.724304 164.041885 -35.815002 -0.094206
88.207611 164.041885 -35.815002 -0.060743
101.690918 164.041885 -35.815002 -0.032842
115.174225 164.041885 -35.815002 -0.021508
128.657501 164.041885 -35.815002 -0.008970
142.140808 164.041885 -35.815002 0.000840
155.624115 164.041885 -35.815002 0.009657
169.107422 164.041885 -35.815002 0.002219
182.590698 164.041885 -35.815002 0.001669
196.074036 164.041885 -35.815002 -0.002770
209.557312 164.041885 -35.815002 -0.005214
223.040588 164.041885 -35.815002 -0.009222
236.523926 164.041885 -35.815002 -0.008590
250.007202 164.041885 -35.815002 -0.009626
263.490540 164.041885 -35.815002 -0.010587
276.973816 164.041885 -35.815002 -0.009322
290.457092 164.041885 -35.815002 -0.006799
303.940430 164.041885 -35.815002 -0.004610
317.423706 164.041885 -35.815002 -0.002711
330.907043 164.041885 -35.815002 0.000000
344.390320 164.041885 -35.815002 0.000000
-343.257996 150.558594 -35.815002 0.000000
-329.774689 150.558594 -35.815002 0.000000
-316.291382 150.558594 -35.815002 -0.003270
-302.808105 150.558594 -35.815002 -0.004151
-289.324799 150.558594 -35.815002 -0.005530
-275.841492 150.558594 -35.815002 -0.007741
-262.358185 150.558594 -35.815002 -0.010385
-248.874893 150.558594 -35.815002 -0.016638
-235.391602 150.558594 -35.815002 -0.033111
-221.908295 150.558594 -35.815002 -0.044110
-208.424988 150.558594 -35.815002 -0.053200
-194.941696 150.558594 -35.815002 -0.065161
-181.458389 150.558594 -35.815002 -0.056386
-167.975098 150.558594 -35.815002 -0.067910
-154.491791 150.558594 -35.815002 -0.067559
-141.008499 150.558594 -35.815002 -0.053714
-127.525192 150.558594 -35.815002 -0.037926
-114.041885 150.558594 -35.815002 -0.037645
-100.558594 150.558594 -35.815002 -0.016100
-87.075287 150.558594 -35.815002 0.005200
-73.591980 150.558594 -35.815002 -0.000555
-60.108704 150.558594 -35.815002 0.023597
-46.625397 150.558594 -35.815002 0.027785
-33.142090 150.558594 -35.815002 0.008867
-19.658783 150.558594 -35.815002 0.015262
-6.175476 150.558594 -35.815002 -0.009142
7.307800 150.558594 -35.815002 -0.042474
20.791107 150.558594 -35.815002 -0.075222
34.274414 150.558594 -35.815002 -0.097669
47.757721 150.558594 -35.815002 -0.100734
61.240997 150.558594 -35.815002 -0.097060
74.724304 150.558594 -35.815002 -0.072226
88.207611 150.558594 -35.815002 -0.046096
101.690918 150.558594 -35.815002 -0.030119
115.174225 150.558594 -35.815002 -0.014401
128.657501 150.558594 -35.815002 -0.001368
142.140808 150.558594 -35.815002 0.000267
155.624115 150.558594 -35.815002 0.005635
169.107422 150.558594 -35.815002 0.001183
182.590698 150.558594 -35.815002 0.000065
196.074036 150.558594 -35.815002 -0.005993
209.557312 150.558594 -35.815002 -0.007801
223.040588 150.558594 -35.815002 -0.008510
236.523926 150.558594 -35.815002 -0.006846
250.007202 150.558594 -35.815002 -0.007720
263.490540 150.558594 -35.815002 -0.007998
276.973816 150.558594 -35.815002 -0.006660
290.457092 150.558594 -35.815002 -0.005303
303.940430 150.558594 -35.815002 -0.003969
317.423706 150.558594 -35.815002 -0.003041
330.907043 150.558594 -35.815002 0.000000
344.390320 150.558594 -35.815002 0.000000
-343.257996 137.075287 -35.815002 0.000000
-329.774689 137.075287 -35.815002 0.000000
-316.291382 137.075287 -35.815002 -0.005200
-302.808105 137.075287 -35.815002 -0.006399
-289.324799 137.075287 -35.815002 -0.008550
-275.841492 137.075287 -35.815002 -0.012373
-262.358185 137.075287 -35.815002 -0.015443
-248.874893 137.075287 -35.815002 -0.022812
-235.391602 137.075287 -35.815002 -0.041901
-221.908295 137.075287 -35.815002 -0.058186
-208.424988 137.075287 -35.815002 -0.070410
-194.941696 137.075287 -35.815002 -0.087153
-181.458389 137.075287 -35.815002 -0.083425
-167.975098 137.075287 -35.815002 -0.090356
-154.491791 137.075287 -35.815002 -0.067915
-141.008499 137.075287 -35.815002 -0.030830
-127.525192 137.075287 -35.815002 0.004416
-114.041885 137.075287 -35.815002 0.007923
-100.558594 137.075287 -35.815002 0.021470
-87.075287 137.075287 -35.815002 0.006025
-73.591980 137.075287 -35.815002 0.019703
-60.108704 137.075287 -35.815002 0.028691
-46.625397 137.075287 -35.815002 0.018788
-33.142090 137.075287 -35.815002 0.014039
-19.658783 137.075287 -35.815002 0.015160
-6.175476 137.075287 -35.815002 -0.016436
7.307800 137.075287 -35.815002 -0.055183
20.791107 137.075287 -35.815002 -0.086981
34.274414 137.075287 -35.815002 -0.094091
47.757721 137.075287 -35.815002 -0.088446
61.240997 137.075287 -35.815002 -0.069755
74.724304 137.075287 -35.815002 -0.052335
88.207611 137.075287 -35.815002 -0.035660
101.690918 137.075287 -35.815002 -0.026185
115.174225 137.075287 -35.815002 -0.009145
128.657501 137.075287 -35.815002 0.001740
142.140808 137.075287 -35.815002 0.004017
155.624115 137.075287 -35.815002 -0.003097
169.107422 137.075287 -35.815002 -0.002097
182.590698 137.075287 -35.815002 -0.004073
196.074036 137.075287 -35.815002 -0.002007
209.557312 137.075287 -35.815002 -0.007804
223.040588 137.075287 -35.815002 -0.008944
236.523926 137.075287 -35.815002 -0.007433
250.007202 137.075287 -35.815002 -0.007524
263.490540 137.075287 -35.815002 -0.006963
276.973816 137.075287 -35.815002 -0.006070
290.457092 137.075287 -35.815002 -0.005047
303.940430 137.075287 -35.815002 -0.003642
317.423706 137.075287 -35.815002 -0.002830
330.907043 137.075287 -35.815002 0.000000
344.390320 137.075287 -35.815002 0.000000
-343.257996 123.591980 -35.815002 0.000000
-329.774689 123.591980 -35.815002 0.000000
-316.291382 123.591980 -35.815002 -0.005995
-302.808105 123.591980 -35.815002 -0.007739
-289.324799 123.591980 -35.815002 -0.010537
-275.841492 123.591980 -35.815002 -0.014340
-262.358185 123.591980 -35.815002 -0.018522
-248.874893 123.591980 -35.815002 -0.030010
-235.391602 123.591980 -35.815002 -0.048414
-221.908295 123.591980 -35.815002 -0.066329
-208.424988 123.591980 -35.815002 -0.078169
-194.941696 123.591980 -35.815002 -0.096978
-181.458389 123.591980 -35.815002 -0.100618
-167.975098 123.591980 -35.815002 -0.085175
-154.491791 123.591980 -35.815002 -0.035463
-141.008499 123.591980 -35.815002 -0.015645
-127.525192 123.591980 -35.815002 0.007261
-114.041885 123.591980 -35.815002 0.032177
-100.558594 123.591980 -35.815002 0.062216
-87.075287 123.591980 -35.815002 0.044071
-73.591980 123.591980 -35.815002 0.042174
-60.108704 123.591980 -35.815002 0.043662
-46.625397 123.591980 -35.815002 0.031745
-33.142090 123.591980 -35.815002 0.021200
-19.658783 123.591980 -35.815002 0.001763
-6.175476 123.591980 -35.815002 -0.034187
7.307800 123.591980 -35.815002 -0.060059
20.791107 123.591980 -35.815002 -0.077103
34.274414 123.591980 -35.815002 -0.085795
47.757721 123.591980 -35.815002 -0.078298
61.240997 123.591980 -35.815002 -0.054697
74.724304 123.591980 -35.815002 -0.036365
88.207611 123.591980 -35.815002 -0.022555
101.690918 123.591980 -35.815002 -0.014072
115.174225 123.591980 -35.815002 -0.004064
128.657501 123.591980 -35.815002 0.003732
142.140808 123.591980 -35.815002 0.002983
155.624115 123.591980 -35.815002 -0.003777
169.107422 123.591980 -35.815002 -0.003586
182.590698 123.591980 -35.815002 -0.003698
196.074036 123.591980 -35.815002 -0.003694
209.557312 123.591980 -35.815002 -0.005966
223.040588 123.591980 -35.815002 -0.009328
236.523926 123.591980 -35.815002 -0.008249
250.007202 123.591980 -35.815002 -0.007480
263.490540 123.591980 -35.815002 -0.005804
276.973816 123.591980 -35.815002 -0.004597
290.457092 123.591980 -35.815002 -0.004032
303.940430 123.591980 -35.815002 -0.002684
317.423706 123.591980 -35.815002 -0.002329
330.907043 123.591980 -35.815002 0.000000
344.390320 123.591980 -35.815002 0.000000
-343.257996 110.108704 -35.815002 0.000000
-329.774689 110.108704 -35.815002 0.000000
-316.291382 110.108704 -35.815002 -0.005547
-302.808105 110.108704 -35.815002 -0.007707
-289.324799 110.108704 -35.815002 -0.009896
-275.841492 110.108704 -35.815002 -0.014301
-262.358185 110.108704 -35.815002 -0.020746
-248.874893 110.108704 -35.815002 -0.032716
-235.391602 110.108704 -35.815002 -0.046364
-221.908295 110.108704 -35.815002 -0.058218
-208.424988 110.108704 -35.815002 -0.065570
-194.941696 110.108704 -35.815002 -0.098322
-181.458389 110.108704 -35.815002 -0.105581
-167.975098 110.108704 -35.815002 -0.074161
-154.491791 110.108704 -35.815002 -0.047178
-141.008499 110.108704 -35.815002 -0.019292
-127.525192 110.108704 -35.815002 0.019994
-114.041885 110.108704 -35.815002 0.041805
-100.558594 110.108704 -35.815002 0.068587
-87.075287 110.108704 -35.815002 0.072825
-73.591980 110.108704 -35.815002 0.061330
-60.108704 110.108704 -35.815002 0.041938
-46.625397 110.108704 -35.815002 0.027540
-33.142090 110.108704 -35.815002 0.010675
-19.658783 110.108704 -35.815002 -0.019230
-6.175476 110.108704 -35.815002 -0.046802
7.307800 110.108704 -35.815002 -0.065531
20.791107 110.108704 -35.815002 -0.078118
34.274414 110.108704 -35.815002 -0.068469
47.757721 110.108704 -35.815002 -0.048748
61.240997 110.108704 -35.815002 -0.033455
74.724304 110.108704 -35.815002 -0.016229
88.207611 110.108704 -35.815002 -0.003597
101.690918 110.108704 -35.815002 -0.003169
115.174225 110.108704 -35.815002 -0.000162
128.657501 110.108704 -35.815002 0.001019
142.140808 110.108704 -35.815002 0.004147
155.624115 110.108704 -35.815002 0.000318
169.107422 110.108704 -35.815002 -0.000460
182.590698 110.108704 -35.815002 -0.003103
196.074036 110.108704 -35.815002 -0.003556
209.557312 110.108704 -35.815002 -0.004980
223.040588 110.108704 -35.815002 -0.008015
236.523926 110.108704 -35.815002 -0.007046
250.007202 110.108704 -35.815002 -0.005729
263.490540 110.108704 -35.815002 -0.004496
276.973816 110.108704 -35.815002 -0.002939
290.457092 110.108704 -35.815002 -0.002671
303.940430 110.108704 -35.815002 -0.002162
317.423706 110.108704 -35.815002 -0.001873
330.907043 110.108704 -35.815002 0.000000
344.390320 110.108704 -35.815002 0.000000
-343.257996 96.625397 -35.815002 0.000000
-329.774689 96.625397 -35.815002 0.000000
-316.291382 96.625397 -35.815002 -0.005451
-302.808105 96.625397 -35.815002 -0.007319
-289.324799 96.625397 -35.815002 -0.010227
-275.841492 96.625397 -35.815002 -0.013762
-262.358185 96.625397 -35.815002 -0.022445
-248.874893 96.625397 -35.815002 -0.034097
-235.391602 96.625397 -35.815002 -0.043345
-221.908295 96.625397 -35.815002 -0.058285
-208.424988 96.625397 -35.815002 -0.069194
-194.941696 96.625397 -35.815002 -0.091880
-181.458389 96.625397 -35.815002 -0.087214
-167.975098 96.625397 -35.815002 -0.077785
-154.491791 96.625397 -35.815002 -0.044692
-141.008499 96.625397 -35.815002 -0.027505
-127.525192 96.625397 -35.815002 0.013329
-114.041885 96.625397 -35.815002 0.036105
-100.558594 96.625397 -35.815002 0.062940
-87.075287 96.625397 -35.815002 0.042667
-73.591980 96.625397 -35.815002 0.030513
-60.108704 96.625397 -35.815002 0.017177
-46.625397 96.625397 -35.815002 -0.004771
-33.142090 96.625397 -35.815002 -0.032972
-19.658783 96.625397 -35.815002 -0.043142
-6.175476 96.625397 -35.815002 -0.065177
7.307800 96.625397 -35.815002 -0.071038
20.791107 96.625397 -35.815002 -0.069674
34.274414 96.625397 -35.815002 -0.046777
47.757721 96.625397 -35.815002 -0.031059
61.240997 96.625397 -35.815002 -0.012566
74.724304 96.625397 -35.815002 0.003722
88.207611 96.625397 -35.815002 0.006757
101.690918 96.625397 -35.815002 0.002605
115.174225 96.625397 -35.815002 0.005583
128.657501 96.625397 -35.815002 0.005431
142.140808 96.625397 -35.815002 0.006539
155.624115 96.625397 -35.815002 0.003009
169.107422 96.625397 -35.815002 -0.000663
182.590698 96.625397 -35.815002 -0.002613
196.074036 96.625397 -35.815002 -0.004087
209.557312 96.625397 -35.815002 -0.003981
223.040588 96.625397 -35.815002 -0.004798
236.523926 96.625397 -35.815002 -0.004600
250.007202 96.625397 -35.815002 -0.004288
263.490540 96.625397 -35.815002 -0.003135
276.973816 96.625397 -35.815002 -0.002228
290.457092 96.625397 -35.815002 -0.001880
303.940430 96.625397 -35.815002 -0.001660
317.423706 96.625397 -35.815002 -0.001630
330.907043 96.625397 -35.815002 0.000000
344.390320 96.625397 -35.815002 0.000000
-343.257996 83.142090 -35.815002 0.000000
-329.774689 83.142090 -35.815002 0.000000
-316.291382 83.142090 -35.815002 -0.005440
-302.808105 83.142090 -35.815002 -0.006486
-289.324799 83.142090 -35.815002 -0.009277
-275.841492 83.142090 -35.815002 -0.014319
-262.358185 83.142090 -35.815002 -0.021476
-248.874893 83.142090 -35.815002 -0.034004
-235.391602 83.142090 -35.815002 -0.046577
-221.908295 83.142090 -35.815002 -0.056759
-208.424988 83.142090 -35.815002 -0.073141
-194.941696 83.142090 -35.815002 -0.086460
-181.458389 83.142090 -35.815002 -0.083301
-167.975098 83.142090 -35.815002 -0.085638
-154.491791 83.142090 -35.815002 -0.053955
-141.008499 83.142090 -35.815002 -0.011607
-127.525192 83.142090 -35.815002 -0.002237
-114.041885 83.142090 -35.815002 0.031299
-100.558594 83.142090 -35.815002 0.049582
-87.075287 83.142090 -35.815002 0.033830
-73.591980 83.142090 -35.815002 0.009691
-60.108704 83.142090 -35.815002 -0.004681
-46.625397 83.142090 -35.815002 -0.024820
-33.142090 83.142090 -35.815002 -0.055979
-19.658783 83.142090 -35.815002 -0.076698
-6.175476 83.142090 -35.815002 -0.080845
7.307800 83.142090 -35.815002 -0.075751
20.791107 83.142090 -35.815002 -0.075458
34.274414 83.142090 -35.815002 -0.055197
47.757721 83.142090 -35.815002 -0.018465
61.240997 83.142090 -35.815002 0.001559
74.724304 83.142090 -35.815002 0.016754
88.207611 83.142090 -35.815002 0.017681
101.690918 83.142090 -35.815002 0.013610
115.174225 83.142090 -35.815002 0.005962
128.657501 83.142090 -35.815002 0.006365
142.140808 83.142090 -35.815002 0.010970
155.624115 83.142090 -35.815002 0.005225
169.107422 83.142090 -35.815002 0.001664
182.590698 83.142090 -35.815002 -0.001251
196.074036 83.142090 -35.815002 -0.000843
209.557312 83.142090 -35.815002 -0.002423
223.040588 83.142090 -35.815002 -0.002952
236.523926 83.142090 -35.815002 -0.003083
250.007202 83.142090 -35.815002 -0.003121
263.490540 83.142090 -35.815002 -0.002298
276.973816 83.142090 -35.815002 -0.001630
290.457092 83.142090 -35.815002 -0.001445
303.940430 83.142090 -35.815002 -0.001450
317.423706 83.142090 -35.815002 -0.001392
330.907043 83.142090 -35.815002 0.000000
344.390320 83.142090 -35.815002 0.000000
-343.257996 69.658783 -35.815002 0.000000
-329.774689 69.658783 -35.815002 0.000000
-316.291382 69.658783 -35.815002 -0.005271
-302.808105 69.658783 -35.815002 -0.006235
-289.324799 69.658783 -35.815002 -0.008072
-275.841492 69.658783 -35.815002 -0.011460
-262.358185 69.658783 -35.815002 -0.019740
-248.874893 69.658783 -35.815002 -0.031217
-235.391602 69.658783 -35.815002 -0.036191
-221.908295 69.658783 -35.815002 -0.054312
-208.424988 69.658783 -35.815002 -0.070511
-194.941696 69.658783 -35.815002 -0.077201
-181.458389 69.658783 -35.815002 -0.086514
-167.975098 69.658783 -35.815002 -0.078069
-154.491791 69.658783 -35.815002 -0.068618
-141.008499 69.658783 -35.815002 -0.027233
-127.525192 69.658783 -35.815002 0.013014
-114.041885 69.658783 -35.815002 0.044891
-100.558594 69.658783 -35.815002 0.048736
-87.075287 69.658783 -35.815002 0.020414
-73.591980 69.658783 -35.815002 -0.006766
-60.108704 69.658783 -35.815002 -0.022372
-46.625397 69.658783 -35.815002 -0.030401
-33.142090 69.658783 -35.815002 -0.059176
-19.658783 69.658783 -35.815002 -0.077208
-6.175476 69.658783 -35.815002 -0.089813
7.307800 69.658783 -35.815002 -0.075437
20.791107 69.658783 -35.815002 -0.084507
34.274414 69.658783 -35.815002 -0.041440
47.757721 69.658783 -35.815002 -0.008485
61.240997 69.658783 -35.815002 0.012632
74.724304 69.658783 -35.815002 0.024269
88.207611 69.658783 -35.815002 0.024374
101.690918 69.658783 -35.815002 0.019451
115.174225 69.658783 -35.815002 0.013979
128.657501 69.658783 -35.815002 0.010809
142.140808 69.658783 -35.815002 0.013239
155.624115 69.658783 -35.815002 0.011505
169.107422 69.658783 -35.815002 0.006497
182.590698 69.658783 -35.815002 0.002942
196.074036 69.658783 -35.815002 0.001740
209.557312 69.658783 -35.815002 0.000446
223.040588 69.658783 -35.815002 -0.000777
236.523926 69.658783 -35.815002 -0.001216
250.007202 69.658783 -35.815002 -0.001318
263.490540 69.658783 -35.815002 -0.001497
276.973816 69.658783 -35.815002 -0.001292
290.457092 69.658783 -35.815002 -0.001086
303.940430 69.658783 -35.815002 -0.001090
317.423706 69.658783 -35.815002 -0.001251
330.907043 69.658783 -35.815002 0.000000
344.390320 69.658783 -35.815002 0.000000
-343.257996 56.175476 -35.815002 0.000000
-329.774689 56.175476 -35.815002 0.000000
-316.291382 56.175476 -35.815002 -0.003468
-302.808105 56.175476 -35.815002 -0.003793
-289.324799 56.175476 -35.815002 -0.005655
-275.841492 56.175476 -35.815002 -0.008520
-262.358185 56.175476 -35.815002 -0.012488
-248.874893 56.175476 -35.815002 -0.021312
-235.391602 56.175476 -35.815002 -0.035018
-221.908295 56.175476 -35.815002 -0.049595
-208.424988 56.175476 -35.815002 -0.068637
-194.941696 56.175476 -35.815002 -0.071559
-181.458389 56.175476 -35.815002 -0.090416
-167.975098 56.175476 -35.815002 -0.077015
-154.491791 56.175476 -35.815002 -0.055094
-141.008499 56.175476 -35.815002 -0.020012
-127.525192 56.175476 -35.815002 0.016365
-114.041885 56.175476 -35.815002 0.051036
-100.558594 56.175476 -35.815002 0.050028
-87.075287 56.175476 -35.815002 0.008722
-73.591980 56.175476 -35.815002 -0.021364
-60.108704 56.175476 -35.815002 -0.029540
-46.625397 56.175476 -35.815002 -0.056348
-33.142090 56.175476 -35.815002 -0.075169
-19.658783 56.175476 -35.815002 -0.093842
-6.175476 56.175476 -35.815002 -0.091759
7.307800 56.175476 -35.815002 -0.084597
20.791107 56.175476 -35.815002 -0.086557
34.274414 56.175476 -35.815002 -0.033749
47.757721 56.175476 -35.815002 0.003329
61.240997 56.175476 -35.815002 0.028538
74.724304 56.175476 -35.815002 0.030355
88.207611 56.175476 -35.815002 0.031992
101.690918 56.175476 -35.815002 0.022618
115.174225 56.175476 -35.815002 0.021319
128.657501 56.175476 -35.815002 0.020973
142.140808 56.175476 -35.815002 0.020426
155.624115 56.175476 -35.815002 0.015049
169.107422 56.175476 -35.815002 0.014161
182.590698 56.175476 -35.815002 0.011674
196.074036 56.175476 -35.815002 0.007283
209.557312 56.175476 -35.815002 0.004442
223.040588 56.175476 -35.815002 0.001977
236.523926 56.175476 -35.815002 -0.000113
250.007202 56.175476 -35.815002 -0.000380
263.490540 56.175476 -35.815002 -0.000832
276.973816 56.175476 -35.815002 -0.000975
290.457092 56.175476 -35.815002 -0.000781
303.940430 56.175476 -35.815002 -0.001059
317.423706 56.175476 -35.815002 -0.001202
330.907043 56.175476 -35.815002 0.000000
344.390320 56.175476 -35.815002 0.000000
-343.257996 42.692200 -35.815002 0.000000
-329.774689 42.692200 -35.815002 0.000000
-316.291382 42.692200 -35.815002 -0.001826
-302.808105 42.692200 -35.815002 -0.001976
-289.324799 42.692200 -35.815002 -0.003452
-275.841492 42.692200 -35.815002 -0.004408
-262.358185 42.692200 -35.815002 -0.006277
-248.874893 42.692200 -35.815002 -0.015318
-235.391602 42.692200 -35.815002 -0.025759
-221.908295 42.692200 -35.815002 -0.038147
-208.424988 42.692200 -35.815002 -0.055524
-194.941696 42.692200 -35.815002 -0.078748
-181.458389 42.692200 -35.815002 -0.093302
-167.975098 42.692200 -35.815002 -0.071914
-154.491791 42.692200 -35.815002 -0.052427
-141.008499 42.692200 -35.815002 -0.033148
-127.525192 42.692200 -35.815002 0.020424
-114.041885 42.692200 -35.815002 0.039550
-100.558594 42.692200 -35.815002 0.013919
-87.075287 42.692200 -35.815002 -0.020391
-73.591980 42.692200 -35.815002 -0.027687
-60.108704 42.692200 -35.815002 -0.041585
-46.625397 42.692200 -35.815002 -0.050601
-33.142090 42.692200 -35.815002 -0.078299
-19.658783 42.692200 -35.815002 -0.084997
-6.175476 42.692200 -35.815002 -0.100517
7.307800 42.692200 -35.815002 -0.107845
20.791107 42.692200 -35.815002 -0.088594
34.274414 42.692200 -35.815002 -0.040521
47.757721 42.692200 -35.815002 -0.002393
61.240997 42.692200 -35.815002 0.027027
74.724304 42.692200 -35.815002 0.025893
88.207611 42.692200 -35.815002 0.032534
101.690918 42.692200 -35.815002 0.026813
115.174225 42.692200 -35.815002 0.028214
128.657501 42.692200 -35.815002 0.025676
142.140808 42.692200 -35.815002 0.026360
155.624115 42.692200 -35.815002 0.025682
169.107422 42.692200 -35.815002 0.022176
182.590698 42.692200 -35.815002 0.019199
196.074036 42.692200 -35.815002 0.013702
209.557312 42.692200 -35.815002 0.008699
223.040588 42.692200 -35.815002 0.004489
236.523926 42.692200 -35.815002 0.001840
250.007202 42.692200 -35.815002 0.000570
263.490540 42.692200 -35.815002 -0.000122
276.973816 42.692200 -35.815002 -0.000419
290.457092 42.692200 -35.815002 -0.000745
303.940430 42.692200 -35.815002 -0.001053
317.423706 42.692200 -35.815002 -0.001279
330.907043 42.692200 -35.815002 0.000000
344.390320 42.692200 -35.815002 0.000000
-343.257996 29.208893 -35.815002 0.000000
-329.774689 29.208893 -35.815002 0.000000
-316.291382 29.208893 -35.815002 -0.000105
-302.808105 29.208893 -35.815002 0.001037
-289.324799 29.208893 -35.815002 0.001158
-275.841492 29.208893 -35.815002 0.002660
-262.358185 29.208893 -35.815002 0.001693
-248.874893 29.208893 -35.815002 -0.002133
-235.391602 29.208893 -35.815002 -0.013985
-221.908295 29.208893 -35.815002 -0.021450
-208.424988 29.208893 -35.815002 -0.059796
-194.941696 29.208893 -35.815002 -0.063188
-181.458389 29.208893 -35.815002 -0.074372
-167.975098 29.208893 -35.815002 -0.069760
-154.491791 29.208893 -35.815002 -0.052995
-141.008499 29.208893 -35.815002 -0.062488
-127.525192 29.208893 -35.815002 -0.007281
-114.041885 29.208893 -35.815002 0.014880
-100.558594 29.208893 -35.815002 -0.009928
-87.075287 29.208893 -35.815002 -0.035970
-73.591980 29.208893 -35.815002 -0.028614
-60.108704 29.208893 -35.815002 -0.040491
-46.625397 29.208893 -35.815002 -0.051406
-33.142090 29.208893 -35.815002 -0.073110
-19.658783 29.208893 -35.815002 -0.085247
-6.175476 29.208893 -35.815002 -0.107347
7.307800 29.208893 -35.815002 -0.114308
20.791107 29.208893 -35.815002 -0.086799
34.274414 29.208893 -35.815002 -0.041348
47.757721 29.208893 -35.815002 -0.012914
61.240997 29.208893 -35.815002 0.015248
74.724304 29.208893 -35.815002 0.020100
88.207611 29.208893 -35.815002 0.028516
101.690918 29.208893 -35.815002 0.031628
115.174225 29.208893 -35.815002 0.032829
128.657501 29.208893 -35.815002 0.030647
142.140808 29.208893 -35.815002 0.033324
155.624115 29.208893 -35.815002 0.036051
169.107422 29.208893 -35.815002 0.032073
182.590698 29.208893 -35.815002 0.027308
196.074036 29.208893 -35.815002 0.020409
209.557312 29.208893 -35.815002 0.012219
223.040588 29.208893 -35.815002 0.007472
236.523926 29.208893 -35.815002 0.003559
250.007202 29.208893 -35.815002 0.001741
263.490540 29.208893 -35.815002 0.000792
276.973816 29.208893 -35.815002 0.000105
290.457092 29.208893 -35.815002 -0.000569
303.940430 29.208893 -35.815002 -0.001086
317.423706 29.208893 -35.815002 -0.001298
330.907043 29.208893 -35.815002 0.000000
344.390320 29.208893 -35.815002 0.000000
-343.257996 15.725586 -35.815002 0.000000
-329.774689 15.725586 -35.815002 0.000000
-316.291382 15.725586 -35.815002 0.002034
-302.808105 15.725586 -35.815002 0.005221
-289.324799 15.725586 -35.815002 0.004963
-275.841492 15.725586 -35.815002 0.006898
-262.358185 15.725586 -35.815002 0.009206
-248.874893 15.725586 -35.815002 0.012559
-235.391602 15.725586 -35.815002 0.003886
-221.908295 15.725586 -35.815002 -0.007806
-208.424988 15.725586 -35.815002 -0.034200
-194.941696 15.725586 -35.815002 -0.045669
-181.458389 15.725586 -35.815002 -0.050071
-167.975098 15.725586 -35.815002 -0.048381
-154.491791 15.725586 -35.815002 -0.035504
-141.008499 15.725586 -35.815002 -0.053749
-127.525192 15.725586 -35.815002 -0.017575
-114.041885 15.725586 -35.815002 -0.001601
-100.558594 15.725586 -35.815002 -0.016374
-87.075287 15.725586 -35.815002 -0.033636
-73.591980 15.725586 -35.815002 -0.033623
-60.108704 15.725586 -35.815002 -0.039580
-46.625397 15.725586 -35.815002 -0.057123
-33.142090 15.725586 -35.815002 -0.060307
-19.658783 15.725586 -35.815002 -0.083033
-6.175476 15.725586 -35.815002 -0.080313
7.307800 15.725586 -35.815002 -0.097313
20.791107 15.725586 -35.815002 -0.085555
34.274414 15.725586 -35.815002 -0.053625
47.757721 15.725586 -35.815002 -0.020572
61.240997 15.725586 -35.815002 0.009831
74.724304 15.725586 -35.815002 0.020144
88.207611 15.725586 -35.815002 0.022550
101.690918 15.725586 -35.815002 0.026491
115.174225 15.725586 -35.815002 0.027787
128.657501 15.725586 -35.815002 0.033939
142.140808 15.725586 -35.815002 0.039533
155.624115 15.725586 -35.815002 0.042140
169.107422 15.725586 -35.815002 0.037939
182.590698 15.725586 -35.815002 0.032755
196.074036 15.725586 -35.815002 0.023832
209.557312 15.725586 -35.815002 0.015520
223.040588 15.725586 -35.815002 0.009098
236.523926 15.725586 -35.815002 0.004799
250.007202 15.725586 -35.815002 0.002454
263.490540 15.725586 -35.815002 0.001428
276.973816 15.725586 -35.815002 0.000537
290.457092 15.725586 -35.815002 -0.000035
303.940430 15.725586 -35.815002 -0.000625
317.423706 15.725586 -35.815002 -0.000626
330.907043 15.725586 -35.815002 0.000000
344.390320 15.725586 -35.815002 0.000000
-343.257996 2.242279 -35.815002 0.000000
-329.774689 2.242279 -35.815002 0.000000
-316.291382 2.242279 -35.815002 0.004253
-302.808105 2.242279 -35.815002 0.007069
-289.324799 2.242279 -35.815002 0.007439
-275.841492 2.242279 -35.815002 0.012443
-262.358185 2.242279 -35.815002 0.014989
-248.874893 2.242279 -35.815002 0.024906
-235.391602 2.242279 -35.815002 0.028238
-221.908295 2.242279 -35.815002 0.020921
-208.424988 2.242279 -35.815002 -0.020205
-194.941696 2.242279 -35.815002 -0.016067
-181.458389 2.242279 -35.815002 -0.022153
-167.975098 2.242279 -35.815002 -0.048382
-154.491791 2.242279 -35.815002 -0.017859
-141.008499 2.242279 -35.815002 -0.026651
-127.525192 2.242279 -35.815002 -0.021999
-114.041885 2.242279 -35.815002 -0.022285
-100.558594 2.242279 -35.815002 -0.015821
-87.075287 2.242279 -35.815002 -0.031758
-73.591980 2.242279 -35.815002 -0.029325
-60.108704 2.242279 -35.815002 -0.035421
-46.625397 2.242279 -35.815002 -0.052196
-33.142090 2.242279 -35.815002 -0.066488
-19.658783 2.242279 -35.815002 -0.062838
-6.175476 2.242279 -35.815002 -0.071553
7.307800 2.242279 -35.815002 -0.082801
20.791107 2.242279 -35.815002 -0.093911
34.274414 2.242279 -35.815002 -0.065916
47.757721 2.242279 -35.815002 -0.027782
61.240997 2.242279 -35.815002 0.008262
74.724304 2.242279 -35.815002 0.018963
88.207611 2.242279 -35.815002 0.023178
101.690918 2.242279 -35.815002 0.024040
115.174225 2.242279 -35.815002 0.029462
128.657501 2.242279 -35.815002 0.030736
142.140808 2.242279 -35.815002 0.033141
155.624115 2.242279 -35.815002 0.039428
169.107422 2.242279 -35.815002 0.035826
182.590698 2.242279 -35.815002 0.033558
196.074036 2.242279 -35.815002 0.025817
209.557312 2.242279 -35.815002 0.015530
223.040588 2.242279 -35.815002 0.009655
236.523926 2.242279 -35.815002 0.005858
250.007202 2.242279 -35.815002 0.003122
263.490540 2.242279 -35.815002 0.001726
276.973816 2.242279 -35.815002 0.001030
290.457092 2.242279 -35.815002 0.000753
303.940430 2.242279 -35.815002 0.000336
317.423706 2.242279 -35.815002 -0.000001
330.907043 2.242279 -35.815002 0.000000
344.390320 2.242279 -35.815002 0.000000
-343.257996 -11.240997 -35.815002 0.000000
-329.774689 -11.240997 -35.815002 0.000000
-316.291382 -11.240997 -35.815002 0.007300
-302.808105 -11.240997 -35.815002 0.007949
-289.324799 -11.240997 -35.815002 0.011792
-275.841492 -11.240997 -35.815002 0.020347
-262.358185 -11.240997 -35.815002 0.026166
-248.874893 -11.240997 -35.815002 0.033782
-235.391602 -11.240997 -35.815002 0.032729
-221.908295 -11.240997 -35.815002 0.024050
-208.424988 -11.240997 -35.815002 -0.005961
-194.941696 -11.240997 -35.815002 -0.037388
-181.458389 -11.240997 -35.815002 -0.017913
-167.975098 -11.240997 -35.815002 -0.019542
-154.491791 -11.240997 -35.815002 -0.030242
-141.008499 -11.240997 -35.815002 -0.020858
-127.525192 -11.240997 -35.815002 -0.021433
-114.041885 -11.240997 -35.815002 -0.025041
-100.558594 -11.240997 -35.815002 -0.028922
-87.075287 -11.240997 -35.815002 -0.018838
-73.591980 -11.240997 -35.815002 -0.021091
-60.108704 -11.240997 -35.815002 -0.033550
-46.625397 -11.240997 -35.815002 -0.041299
-33.142090 -11.240997 -35.815002 -0.057226
-19.658783 -11.240997 -35.815002 -0.090342
-6.175476 -11.240997 -35.815002 -0.081911
7.307800 -11.240997 -35.815002 -0.091928
20.791107 -11.240997 -35.815002 -0.098552
34.274414 -11.240997 -35.815002 -0.075788
47.757721 -11.240997 -35.815002 -0.034946
61.240997 -11.240997 -35.815002 -0.002122
74.724304 -11.240997 -35.815002 0.010287
88.207611 -11.240997 -35.815002 0.016794
101.690918 -11.240997 -35.815002 0.016043
115.174225 -11.240997 -35.815002 0.019517
128.657501 -11.240997 -35.815002 0.028573
142.140808 -11.240997 -35.815002 0.029544
155.624115 -11.240997 -35.815002 0.032827
169.107422 -11.240997 -35.815002 0.036312
182.590698 -11.240997 -35.815002 0.033532
196.074036 -11.240997 -35.815002 0.028633
209.557312 -11.240997 -35.815002 0.018317
223.040588 -11.240997 -35.815002 0.011659
236.523926 -11.240997 -35.815002 0.006563
250.007202 -11.240997 -35.815002 0.003342
263.490540 -11.240997 -35.815002 0.001997
276.973816 -11.240997 -35.815002 0.001000
290.457092 -11.240997 -35.815002 0.000487
303.940430 -11.240997 -35.815002 0.000357
317.423706 -11.240997 -35.815002 0.000396
330.907043 -11.240997 -35.815002 0.000000
344.390320 -11.240997 -35.815002 0.000000
-343.257996 -24.724304 -35.815002 0.000000
-329.774689 -24.724304 -35.815002 0.000000
-316.291382 -24.724304 -35.815002 0.009435
-302.808105 -24.724304 -35.815002 0.012598
-289.324799 -24.724304 -35.815002 0.018378
-275.841492 -24.724304 -35.815002 0.024485
-262.358185 -24.724304 -35.815002 0.035473
-248.874893 -24.724304 -35.815002 0.047787
-235.391602 -24.724304 -35.815002 0.036030
-221.908295 -24.724304 -35.815002 0.030082
-208.424988 -24.724304 -35.815002 0.014532
-194.941696 -24.724304 -35.815002 -0.036684
-181.458389 -24.724304 -35.815002 -0.047249
-167.975098 -24.724304 -35.815002 -0.015467
-154.491791 -24.724304 -35.815002 0.002275
-141.008499 -24.724304 -35.815002 0.000528
-127.525192 -24.724304 -35.815002 -0.017380
-114.041885 -24.724304 -35.815002 -0.019936
-100.558594 -24.724304 -35.815002 -0.026891
-87.075287 -24.724304 -35.815002 -0.000531
-73.591980 -24.724304 -35.815002 -0.014833
-60.108704 -24.724304 -35.815002 -0.028215
-46.625397 -24.724304 -35.815002 -0.049297
-33.142090 -24.724304 -35.815002 -0.070626
-19.658783 -24.724304 -35.815002 -0.080038
-6.175476 -24.724304 -35.815002 -0.100816
7.307800 -24.724304 -35.815002 -0.114484
20.791107 -24.724304 -35.815002 -0.093370
34.274414 -24.724304 -35.815002 -0.082136
47.757721 -24.724304 -35.815002 -0.035010
61.240997 -24.724304 -35.815002 -0.009381
74.724304 -24.724304 -35.815002 0.003501
88.207611 -24.724304 -35.815002 0.000804
101.690918 -24.724304 -35.815002 0.005452
115.174225 -24.724304 -35.815002 0.014646
128.657501 -24.724304 -35.815002 0.014974
142.140808 -24.724304 -35.815002 0.019474
155.624115 -24.724304 -35.815002 0.027639
169.107422 -24.724304 -35.815002 0.032381
182.590698 -24.724304 -35.815002 0.033593
196.074036 -24.724304 -35.815002 0.028407
209.557312 -24.724304 -35.815002 0.019278
223.040588 -24.724304 -35.815002 0.012971
236.523926 -24.724304 -35.815002 0.007799
250.007202 -24.724304 -35.815002 0.003748
263.490540 -24.724304 -35.815002 0.002040
276.973816 -24.724304 -35.815002 0.000867
290.457092 -24.724304 -35.815002 0.000286
303.940430 -24.724304 -35.815002 0.000277
317.423706 -24.724304 -35.815002 0.000269
330.907043 -24.724304 -35.815002 0.000000
344.390320 -24.724304 -35.815002 0.000000
-343.257996 -38.207611 -35.815002 0.000000
-329.774689 -38.207611 -35.815002 0.000000
-316.291382 -38.207611 -35.815002 0.011787
-302.808105 -38.207611 -35.815002 0.013445
-289.324799 -38.207611 -35.815002 0.023698
-275.841492 -38.207611 -35.815002 0.027727
-262.358185 -38.207611 -35.815002 0.039992
-248.874893 -38.207611 -35.815002 0.055248
-235.391602 -38.207611 -35.815002 0.049070
-221.908295 -38.207611 -35.815002 0.030634
-208.424988 -38.207611 -35.815002 0.015140
-194.941696 -38.207611 -35.815002 -0.030199
-181.458389 -38.207611 -35.815002 -0.027740
-167.975098 -38.207611 -35.815002 -0.011886
-154.491791 -38.207611 -35.815002 -0.009204
-141.008499 -38.207611 -35.815002 -0.021639
-127.525192 -38.207611 -35.815002 -0.030021
-114.041885 -38.207611 -35.815002 -0.032387
-100.558594 -38.207611 -35.815002 -0.033440
-87.075287 -38.207611 -35.815002 -0.029063
-73.591980 -38.207611 -35.815002 -0.042276
-60.108704 -38.207611 -35.815002 -0.032201
-46.625397 -38.207611 -35.815002 -0.050411
-33.142090 -38.207611 -35.815002 -0.069262
-19.658783 -38.207611 -35.815002 -0.085689
-6.175476 -38.207611 -35.815002 -0.105425
7.307800 -38.207611 -35.815002 -0.114426
20.791107 -38.207611 -35.815002 -0.109281
34.274414 -38.207611 -35.815002 -0.074997
47.757721 -38.207611 -35.815002 -0.037599
61.240997 -38.207611 -35.815002 -0.020246
74.724304 -38.207611 -35.815002 -0.012672
88.207611 -38.207611 -35.815002 -0.009012
101.690918 -38.207611 -35.815002 -0.001036
115.174225 -38.207611 -35.815002 0.002727
128.657501 -38.207611 -35.815002 0.004994
142.140808 -38.207611 -35.815002 0.008038
155.624115 -38.207611 -35.815002 0.018271
169.107422 -38.207611 -35.815002 0.025146
182.590698 -38.207611 -35.815002 0.028536
196.074036 -38.207611 -35.815002 0.023630
209.557312 -38.207611 -35.815002 0.017109
223.040588 -38.207611 -35.815002 0.012524
236.523926 -38.207611 -35.815002 0.007786
250.007202 -38.207611 -35.815002 0.003876
263.490540 -38.207611 -35.815002 0.002140
276.973816 -38.207611 -35.815002 0.000699
290.457092 -38.207611 -35.815002 0.000321
303.940430 -38.207611 -35.815002 0.000067
317.423706 -38.207611 -35.815002 0.000239
330.907043 -38.207611 -35.815002 0.000000
344.390320 -38.207611 -35.815002 0.000000
-343.257996 -51.690918 -35.815002 0.000000
-329.774689 -51.690918 -35.815002 0.000000
-316.291382 -51.690918 -35.815002 0.000000
-302.808105 -51.690918 -35.815002 0.017400
-289.324799 -51.690918 -35.815002 0.025243
-275.841492 -51.690918 -35.815002 0.032503
-262.358185 -51.690918 -35.815002 0.045572
-248.874893 -51.690918 -35.815002 0.054667
-235.391602 -51.690918 -35.815002 0.044087
-221.908295 -51.690918 -35.815002 0.029283
-208.424988 -51.690918 -35.815002 0.018197
-194.941696 -51.690918 -35.815002 -0.011515
-181.458389 -51.690918 -35.815002 -0.030752
-167.975098 -51.690918 -35.815002 -0.032683
-154.491791 -51.690918 -35.815002 -0.025147
-141.008499 -51.690918 -35.815002 -0.047295
-127.525192 -51.690918 -35.815002 -0.051830
-114.041885 -51.690918 -35.815002 -0.048798
-100.558594 -51.690918 -35.815002 -0.036678
-87.075287 -51.690918 -35.815002 -0.032619
-73.591980 -51.690918 -35.815002 -0.037519
-60.108704 -51.690918 -35.815002 -0.050823
-46.625397 -51.690918 -35.815002 -0.073648
-33.142090 -51.690918 -35.815002 -0.070886
-19.658783 -51.690918 -35.815002 -0.090270
-6.175476 -51.690918 -35.815002 -0.097423
7.307800 -51.690918 -35.815002 -0.092246
20.791107 -51.690918 -35.815002 -0.082512
34.274414 -51.690918 -35.815002 -0.068096
47.757721 -51.690918 -35.815002 -0.037962
61.240997 -51.690918 -35.815002 -0.022229
74.724304 -51.690918 -35.815002 -0.012207
88.207611 -51.690918 -35.815002 -0.012885
101.690918 -51.690918 -35.815002 -0.007997
115.174225 -51.690918 -35.815002 -0.008467
128.657501 -51.690918 -35.815002 -0.003219
142.140808 -51.690918 -35.815002 0.000223
155.624115 -51.690918 -35.815002 0.005383
169.107422 -51.690918 -35.815002 0.010366
182.590698 -51.690918 -35.815002 0.015388
196.074036 -51.690918 -35.815002 0.015345
209.557312 -51.690918 -35.815002 0.011315
223.040588 -51.690918 -35.815002 0.007714
236.523926 -51.690918 -35.815002 0.006823
250.007202 -51.690918 -35.815002 0.004116
263.490540 -51.690918 -35.815002 0.002015
276.973816 -51.690918 -35.815002 0.000950
290.457092 -51.690918 -35.815002 0.000345
303.940430 -51.690918 -35.815002 0.000196
317.423706 -51.690918 -35.815002 0.000021
330.907043 -51.690918 -35.815002 0.000000
344.390320 -51.690918 -35.815002 0.000000
-343.257996 -65.174225 -35.815002 0.000000
-329.774689 -65.174225 -35.815002 0.000000
-316.291382 -65.174225 -35.815002 0.000000
-302.808105 -65.174225 -35.815002 0.000000
-289.324799 -65.174225 -35.815002 0.000000
-275.841492 -65.174225 -35.815002 0.000000
-262.358185 -65.174225 -35.815002 0.000000
-248.874893 -65.174225 -35.815002 0.000000
-235.391602 -65.174225 -35.815002 0.000000
-221.908295 -65.174225 -35.815002 0.022552
-208.424988 -65.174225 -35.815002 0.004394
-194.941696 -65.174225 -35.815002 -0.012897
-181.458389 -65.174225 -35.815002 -0.036951
-167.975098 -65.174225 -35.815002 -0.057911
-154.491791 -65.174225 -35.815002 -0.045222
-141.008499 -65.174225 -35.815002 -0.037169
-127.525192 -65.174225 -35.815002 -0.061541
-114.041885 -65.174225 -35.815002 -0.049428
-100.558594 -65.174225 -35.815002 -0.039756
-87.075287 -65.174225 -35.815002 -0.039753
-73.591980 -65.174225 -35.815002 -0.053887
-60.108704 -65.174225 -35.815002 -0.044571
-46.625397 -65.174225 -35.815002 -0.067908
-33.142090 -65.174225 -35.815002 -0.073338
-19.658783 -65.174225 -35.815002 -0.076609
-6.175476 -65.174225 -35.815002 -0.080658
7.307800 -65.174225 -35.815002 -0.091475
20.791107 -65.174225 -35.815002 -0.080817
34.274414 -65.174225 -35.815002 -0.054806
47.757721 -65.174225 -35.815002 -0.032666
61.240997 -65.174225 -35.815002 -0.019346
74.724304 -65.174225 -35.815002 -0.013435
88.207611 -65.174225 -35.815002 -0.010943
101.690918 -65.174225 -35.815002 -0.011094
115.174225 -65.174225 -35.815002 -0.008522
128.657501 -65.174225 -35.815002 -0.005668
142.140808 -65.174225 -35.815002 -0.005436
155.624115 -65.174225 -35.815002 -0.003383
169.107422 -65.174225 -35.815002 -0.002241
182.590698 -65.174225 -35.815002 0.001771
196.074036 -65.174225 -35.815002 0.002321
209.557312 -65.174225 -35.815002 0.000374
223.040588 -65.174225 -35.815002 0.004740
236.523926 -65.174225 -35.815002 0.004443
250.007202 -65.174225 -35.815002 0.003214
263.490540 -65.174225 -35.815002 0.001994
276.973816 -65.174225 -35.815002 0.001128
290.457092 -65.174225 -35.815002 0.000216
303.940430 -65.174225 -35.815002 -0.000068
317.423706 -65.174225 -35.815002 -0.000029
330.907043 -65.174225 -35.815002 0.000000
344.390320 -65.174225 -35.815002 0.000000
-343.257996 -78.657501 -35.815002 0.000000
-329.774689 -78.657501 -35.815002 0.000000
-316.291382 -78.657501 -35.815002 0.000000
-302.808105 -78.657501 -35.815002 0.000000
-289.324799 -78.657501 -35.815002 0.000000
-275.841492 -78.657501 -35.815002 0.000000
-262.358185 -78.657501 -35.815002 0.000000
-248.874893 -78.657501 -35.815002 0.000000
-235.391602 -78.657501 -35.815002 0.000000
-221.908295 -78.657501 -35.815002 0.000000
-208.424988 -78.657501 -35.815002 0.013010
-194.941696 -78.657501 -35.815002 0.000000
-181.458389 -78.657501 -35.815002 0.000000
-167.975098 -78.657501 -35.815002 -0.053799
-154.491791 -78.657501 -35.815002 -0.059005
-141.008499 -78.657501 -35.815002 -0.063124
-127.525192 -78.657501 -35.815002 -0.072224
-114.041885 -78.657501 -35.815002 -0.058315
-100.558594 -78.657501 -35.815002 -0.052907
-87.075287 -78.657501 -35.815002 -0.036923
-73.591980 -78.657501 -35.815002 -0.039376
-60.108704 -78.657501 -35.815002 -0.049076
-46.625397 -78.657501 -35.815002 -0.048465
-33.142090 -78.657501 -35.815002 -0.058051
-19.658783 -78.657501 -35.815002 -0.060292
-6.175476 -78.657501 -35.815002 -0.067484
7.307800 -78.657501 -35.815002 -0.071090
20.791107 -78.657501 -35.815002 -0.066863
34.274414 -78.657501 -35.815002 -0.048928
47.757721 -78.657501 -35.815002 -0.033215
61.240997 -78.657501 -35.815002 -0.019933
74.724304 -78.657501 -35.815002 -0.013541
88.207611 -78.657501 -35.815002 -0.010975
101.690918 -78.657501 -35.815002 -0.006733
115.174225 -78.657501 -35.815002 -0.008294
128.657501 -78.657501 -35.815002 -0.008750
142.140808 -78.657501 -35.815002 -0.010586
155.624115 -78.657501 -35.815002 -0.008131
169.107422 -78.657501 -35.815002 -0.014088
182.590698 -78.657501 -35.815002 -0.014658
196.074036 -78.657501 -35.815002 -0.011168
209.557312 -78.657501 -35.815002 -0.009770
223.040588 -78.657501 -35.815002 -0.002628
236.523926 -78.657501 -35.815002 0.001702
250.007202 -78.657501 -35.815002 0.000915
263.490540 -78.657501 -35.815002 0.000632
276.973816 -78.657501 -35.815002 0.000674
290.457092 -78.657501 -35.815002 0.000396
303.940430 -78.657501 -35.815002 -0.000038
317.423706 -78.657501 -35.815002 -0.000324
330.907043 -78.657501 -35.815002 0.000000
344.390320 -78.657501 -35.815002 0.000000
-343.257996 -92.140808 -35.815002 0.000000
-329.774689 -92.140808 -35.815002 0.000000
-316.291382 -92.140808 -35.815002 0.000000
-302.808105 -92.140808 -35.815002 0.000000
-289.324799 -92.140808 -35.815002 0.000000
-275.841492 -92.140808 -35.815002 0.000000
-262.358185 -92.140808 -35.815002 0.000000
-248.874893 -92.140808 -35.815002 0.000000
-235.391602 -92.140808 -35.815002 0.000000
-221.908295 -92.140808 -35.815002 0.000000
-208.424988 -92.140808 -35.815002 0.000000
-194.941696 -92.140808 -35.815002 0.000000
-181.458389 -92.140808 -35.815002 -0.026065
-167.975098 -92.140808 -35.815002 0.000000
-154.491791 -92.140808 -35.815002 -0.050985
-141.008499 -92.140808 -35.815002 -0.062445
-127.525192 -92.140808 -35.815002 -0.063593
-114.041885 -92.140808 -35.815002 -0.042681
-100.558594 -92.140808 -35.815002 -0.053258
-87.075287 -92.140808 -35.815002 -0.033610
-73.591980 -92.140808 -35.815002 -0.026610
-60.108704 -92.140808 -35.815002 -0.023019
-46.625397 -92.140808 -35.815002 -0.025398
-33.142090 -92.140808 -35.815002 -0.040539
-19.658783 -92.140808 -35.815002 -0.053321
-6.175476 -92.140808 -35.815002 -0.063985
7.307800 -92.140808 -35.815002 -0.067411
20.791107 -92.140808 -35.815002 -0.052366
34.274414 -92.140808 -35.815002 -0.043884
47.757721 -92.140808 -35.815002 -0.030094
61.240997 -92.140808 -35.815002 -0.014419
74.724304 -92.140808 -35.815002 -0.010196
88.207611 -92.140808 -35.815002 -0.006078
101.690918 -92.140808 -35.815002 -0.006420
115.174225 -92.140808 -35.815002 -0.007646
128.657501 -92.140808 -35.815002 -0.010408
142.140808 -92.140808 -35.815002 -0.011691
155.624115 -92.140808 -35.815002 -0.018574
169.107422 -92.140808 -35.815002 -0.023538
182.590698 -92.140808 -35.815002 -0.030426
196.074036 -92.140808 -35.815002 -0.028894
209.557312 -92.140808 -35.815002 -0.020140
223.040588 -92.140808 -35.815002 -0.009641
236.523926 -92.140808 -35.815002 -0.001793
250.007202 -92.140808 -35.815002 0.000507
263.490540 -92.140808 -35.815002 -0.000010
276.973816 -92.140808 -35.815002 0.000644
290.457092 -92.140808 -35.815002 0.000313
303.940430 -92.140808 -35.815002 -0.000421
317.423706 -92.140808 -35.815002 -0.000625
330.907043 -92.140808 -35.815002 0.000000
344.390320 -92.140808 -35.815002 0.000000
-343.257996 -105.624115 -35.815002 0.000000
-329.774689 -105.624115 -35.815002 0.000000
-316.291382 -105.624115 -35.815002 0.000000
-302.808105 -105.624115 -35.815002 0.000000
-289.324799 -105.624115 -35.815002 0.000000
-275.841492 -105.624115 -35.815002 0.000000
-262.358185 -105.624115 -35.815002 0.000000
-248.874893 -105.624115 -35.815002 0.000000
-235.391602 -105.624115 -35.815002 0.000000
-221.908295 -105.624115 -35.815002 0.000000
-208.424988 -105.624115 -35.815002 0.000000
-194.941696 -105.624115 -35.815002 -0.011017
-181.458389 -105.624115 -35.815002 0.000000
-167.975098 -105.624115 -35.815002 0.000000
-154.491791 -105.624115 -35.815002 -0.032203
-141.008499 -105.624115 -35.815002 -0.037980
-127.525192 -105.624115 -35.815002 -0.029053
-114.041885 -105.624115 -35.815002 -0.024798
-100.558594 -105.624115 -35.815002 -0.029041
-87.075287 -105.624115 -35.815002 0.000000
-73.591980 -105.624115 -35.815002 0.000000
-60.108704 -105.624115 -35.815002 0.000000
-46.625397 -105.624115 -35.815002 -0.002602
-33.142090 -105.624115 -35.815002 -0.028301
-19.658783 -105.624115 -35.815002 -0.035095
-6.175476 -105.624115 -35.815002 -0.048807
7.307800 -105.624115 -35.815002 -0.048106
20.791107 -105.624115 -35.815002 -0.044642
34.274414 -105.624115 -35.815002 -0.034780
47.757721 -105.624115 -35.815002 -0.020818
61.240997 -105.624115 -35.815002 -0.011098
74.724304 -105.624115 -35.815002 -0.006466
88.207611 -105.624115 -35.815002 -0.001463
101.690918 -105.624115 -35.815002 -0.003182
115.174225 -105.624115 -35.815002 -0.006295
128.657501 -105.624115 -35.815002 -0.009785
142.140808 -105.624115 -35.815002 -0.015903
155.624115 -105.624115 -35.815002 -0.022955
169.107422 -105.624115 -35.815002 -0.033025
182.590698 -105.624115 -35.815002 -0.044254
196.074036 -105.624115 -35.815002 -0.040608
209.557312 -105.624115 -35.815002 -0.033780
223.040588 -105.624115 -35.815002 -0.017713
236.523926 -105.624115 -35.815002 -0.006224
250.007202 -105.624115 -35.815002 -0.001620
263.490540 -105.624115 -35.815002 -0.001227
276.973816 -105.624115 -35.815002 -0.000045
290.457092 -105.624115 -35.815002 0.000501
303.940430 -105.624115 -35.815002 -0.000051
317.423706 -105.624115 -35.815002 0.000001
330.907043 -105.624115 -35.815002 0.000000
344.390320 -105.624115 -35.815002 0.000000
-343.257996 -119.107422 -35.815002 0.000000
-329.774689 -119.107422 -35.815002 0.000000
-316.291382 -119.107422 -35.815002 0.000000
-302.808105 -119.107422 -35.815002 0.000000
-289.324799 -119.107422 -35.815002 0.000000
-275.841492 -119.107422 -35.815002 0.000000
-262.358185 -119.107422 -35.815002 0.000000
-248.874893 -119.107422 -35.815002 0.000000
-235.391602 -119.107422 -35.815002 0.000000
-221.908295 -119.107422 -35.815002 0.000000
-208.424988 -119.107422 -35.815002 0.000000
-194.941696 -119.107422 -35.815002 0.000000
-181.458389 -119.107422 -35.815002 0.000000
-167.975098 -119.107422 -35.815002 0.000000
-154.491791 -119.107422 -35.815002 -0.008768
-141.008499 -119.107422 -35.815002 -0.030565
-127.525192 -119.107422 -35.815002 -0.009688
-114.041885 -119.107422 -35.815002 0.000000
-100.558594 -119.107422 -35.815002 -0.016102
-87.075287 -119.107422 -35.815002 0.000000
-73.591980 -119.107422 -35.815002 0.009625
-60.108704 -119.107422 -35.815002 0.000000
-46.625397 -119.107422 -35.815002 0.011052
-33.142090 -119.107422 -35.815002 -0.011048
-19.658783 -119.107422 -35.815002 -0.017319
-6.175476 -119.107422 -35.815002 -0.031713
7.307800 -119.107422 -35.815002 -0.041128
20.791107 -119.107422 -35.815002 -0.031832
34.274414 -119.107422 -35.815002 -0.026263
47.757721 -119.107422 -35.815002 -0.020268
61.240997 -119.107422 -35.815002 -0.008018
74.724304 -119.107422 -35.815002 -0.002074
88.207611 -119.107422 -35.815002 0.000203
101.690918 -119.107422 -35.815002 -0.001016
115.174225 -119.107422 -35.815002 -0.006578
128.657501 -119.107422 -35.815002 -0.010163
142.140808 -119.107422 -35.815002 -0.018857
155.624115 -119.107422 -35.815002 -0.028141
169.107422 -119.107422 -35.815002 -0.039753
182.590698 -119.107422 -35.815002 -0.049938
196.074036 -119.107422 -35.815002 -0.051728
209.557312 -119.107422 -35.815002 -0.047794
223.040588 -119.107422 -35.815002 -0.029604
236.523926 -119.107422 -35.815002 -0.012713
250.007202 -119.107422 -35.815002 -0.006875
263.490540 -119.107422 -35.815002 -0.002419
276.973816 -119.107422 -35.815002 -0.001145
290.457092 -119.107422 -35.815002 -0.000581
303.940430 -119.107422 -35.815002 -0.000041
317.423706 -119.107422 -35.815002 -0.000121
330.907043 -119.107422 -35.815002 0.000000
344.390320 -119.107422 -35.815002 0.000000
-343.257996 -132.590698 -35.815002 0.000000
-329.774689 -132.590698 -35.815002 0.000000
-316.291382 -132.590698 -35.815002 0.000000
-302.808105 -132.590698 -35.815002 0.000000
-289.324799 -132.590698 -35.815002 0.000000
-275.841492 -132.590698 -35.815002 0.000000
-262.358185 -132.590698 -35.815002 0.000000
-248.874893 -132.590698 -35.815002 0.000000
-235.391602 -132.590698 -35.815002 0.000000
-221.908295 -132.590698 -35.815002 0.000000
-208.424988 -132.590698 -35.815002 0.000000
-194.941696 -132.590698 -35.815002 0.000000
-181.458389 -132.590698 -35.815002 0.039028
-167.975098 -132.590698 -35.815002 -0.004466
-154.491791 -132.590698 -35.815002 0.000000
-141.008499 -132.590698 -35.815002 -0.009248
-127.525192 -132.590698 -35.815002 -0.007623
-114.041885 -132.590698 -35.815002 -0.024212
-100.558594 -132.590698 -35.815002 -0.008827
-87.075287 -132.590698 -35.815002 -0.001733
-73.591980 -132.590698 -35.815002 0.011005
-60.108704 -132.590698 -35.815002 0.000000
-46.625397 -132.590698 -35.815002 0.000000
-33.142090 -132.590698 -35.815002 0.000000
-19.658783 -132.590698 -35.815002 -0.013386
-6.175476 -132.590698 -35.815002 -0.031013
7.307800 -132.590698 -35.815002 -0.037815
20.791107 -132.590698 -35.815002 -0.040526
34.274414 -132.590698 -35.815002 -0.035454
47.757721 -132.590698 -35.815002 -0.026448
61.240997 -132.590698 -35.815002 -0.008499
74.724304 -132.590698 -35.815002 0.000463
88.207611 -132.590698 -35.815002 0.002890
101.690918 -132.590698 -35.815002 0.000194
115.174225 -132.590698 -35.815002 -0.004237
128.657501 -132.590698 -35.815002 -0.011191
142.140808 -132.590698 -35.815002 -0.021229
155.624115 -132.590698 -35.815002 -0.033418
169.107422 -132.590698 -35.815002 -0.046463
182.590698 -132.590698 -35.815002 -0.056226
196.074036 -132.590698 -35.815002 -0.062859
209.557312 -132.590698 -35.815002 -0.063136
223.040588 -132.590698 -35.815002 -0.045494
236.523926 -132.590698 -35.815002 -0.022948
250.007202 -132.590698 -35.815002 -0.011487
263.490540 -132.590698 -35.815002 -0.006569
276.973816 -132.590698 -35.815002 -0.003996
290.457092 -132.590698 -35.815002 -0.001757
303.940430 -132.590698 -35.815002 -0.000679
317.423706 -132.590698 -35.815002 0.000000
330.907043 -132.590698 -35.815002 0.000000
344.390320 -132.590698 -35.815002 0.000000
-343.257996 -146.074036 -35.815002 0.000000
-329.774689 -146.074036 -35.815002 0.000000
-316.291382 -146.074036 -35.815002 0.000000
-302.808105 -146.074036 -35.815002 0.000000
-289.324799 -146.074036 -35.815002 0.000000
-275.841492 -146.074036 -35.815002 0.000000
-262.358185 -146.074036 -35.815002 0.000000
-248.874893 -146.074036 -35.815002 0.000000
-235.391602 -146.074036 -35.815002 0.000000
-221.908295 -146.074036 -35.815002 0.000000
-208.424988 -146.074036 -35.815002 0.000000
-194.941696 -146.074036 -35.815002 0.000000
-181.458389 -146.074036 -35.815002 0.000000
-167.975098 -146.074036 -35.815002 0.000000
-154.491791 -146.074036 -35.815002 0.000000
-141.008499 -146.074036 -35.815002 0.000000
-127.525192 -146.074036 -35.815002 0.000000
-114.041885 -146.074036 -35.815002 0.000000
-100.558594 -146.074036 -35.815002 0.000000
-87.075287 -146.074036 -35.815002 0.000000
-73.591980 -146.074036 -35.815002 0.000000
-60.108704 -146.074036 -35.815002 0.000000
-46.625397 -146.074036 -35.815002 0.000000
-33.142090 -146.074036 -35.815002 0.000000
-19.658783 -146.074036 -35.815002 0.000000
-6.175476 -146.074036 -35.815002 0.000000
7.307800 -146.074036 -35.815002 0.000000
20.791107 -146.074036 -35.815002 0.000000
34.274414 -146.074036 -35.815002 0.000000
47.757721 -146.074036 -35.815002 0.000000
61.240997 -146.074036 -35.815002 0.000000
74.724304 -146.074036 -35.815002 0.000000
88.207611 -146.074036 -35.815002 0.000000
101.690918 -146.074036 -35.815002 0.000000
115.174225 -146.074036 -35.815002 0.000000
128.657501 -146.074036 -35.815002 -0.014607
142.140808 -146.074036 -35.815002 -0.022456
155.624115 -146.074036 -35.815002 -0.038000
169.107422 -146.074036 -35.815002 -0.056316
182.590698 -146.074036 -35.815002 -0.066203
196.074036 -146.074036 -35.815002 -0.075930
209.557312 -146.074036 -35.815002 -0.074903
223.040588 -146.074036 -35.815002 -0.061831
236.523926 -146.074036 -35.815002 -0.035531
250.007202 -146.074036 -35.815002 -0.019938
263.490540 -146.074036 -35.815002 -0.012830
276.973816 -146.074036 -35.815002 0.000000
290.457092 -146.074036 -35.815002 0.000000
303.940430 -146.074036 -35.815002 0.000000
317.423706 -146.074036 -35.815002 0.000000
330.907043 -146.074036 -35.815002 0.000000
344.390320 -146.074036 -35.815002 0.000000
-343.257996 -159.557312 -35.815002 0.000000
-329.774689 -159.557312 -35.815002 0.000000
-316.291382 -159.557312 -35.815002 0.000000
-302.808105 -159.557312 -35.815002 0.000000
-289.324799 -159.557312 -35.815002 0.000000
-275.841492 -159.557312 -35.815002 0.000000
-262.358185 -159.557312 -35.815002 0.000000
-248.874893 -159.557312 -35.815002 0.000000
-235.391602 -159.557312 -35.815002 0.000000
-221.908295 -159.557312 -35.815002 0.000000
-208.424988 -159.557312 -35.815002 0.000000
-194.941696 -159.557312 -35.815002 0.000000
-181.458389 -159.557312 -35.815002 0.000000
-167.975098 -159.557312 -35.815002 0.000000
-154.491791 -159.557312 -35.815002 0.000000
-141.008499 -159.557312 -35.815002 0.000000
-127.525192 -159.557312 -35.815002 0.000000
-114.041885 -159.557312 -35.815002 0.000000
-100.558594 -159.557312 -35.815002 0.000000
-87.075287 -159.557312 -35.815002 0.000000
-73.591980 -159.557312 -35.815002 0.000000
-60.108704 -159.557312 -35.815002 0.000000
-46.625397 -159.557312 -35.815002 0.000000
-33.142090 -159.557312 -35.815002 0.000000
-19.658783 -159.557312 -35.815002 0.000000
-6.175476 -159.557312 -35.815002 0.000000
7.307800 -159.557312 -35.815002 0.000000
20.791107 -159.557312 -35.815002 0.000000
34.274414 -159.557312 -35.815002 0.000000
47.757721 -159.557312 -35.815002 0.000000
61.240997 -159.557312 -35.815002 0.000000
74.724304 -159.557312 -35.815002 0.000000
88.207611 -159.557312 -35.815002 0.000000
101.690918 -159.557312 -35.815002 0.000000
115.174225 -159.557312 -35.815002 0.000000
128.657501 -159.557312 -35.815002 0.000000
142.140808 -159.557312 -35.815002 0.000000
155.624115 -159.557312 -35.815002 0.000000
169.107422 -159.557312 -35.815002 0.000000
182.590698 -159.557312 -35.815002 0.000000
196.074036 -159.557312 -35.815002 0.000000
209.557312 -159.557312 -35.815002 0.000000
223.040588 -159.557312 -35.815002 0.000000
236.523926 -159.557312 -35.815002 0.000000
250.007202 -159.557312 -35.815002 0.000000
263.490540 -159.557312 -35.815002 0.000000
276.973816 -159.557312 -35.815002 0.000000
290.457092 -159.557312 -35.815002 0.000000
303.940430 -159.557312 -35.815002 0.000000
317.423706 -159.557312 -35.815002 0.000000
330.907043 -159.557312 -35.815002 0.000000
344.390320 -159.557312 -35.815002 0.000000
-343.257996 -173.040588 -35.815002 0.000000
-329.774689 -173.040588 -35.815002 0.000000
-316.291382 -173.040588 -35.815002 0.000000
-302.808105 -173.040588 -35.815002 0.000000
-289.324799 -173.040588 -35.815002 0.000000
-275.841492 -173.040588 -35.815002 0.000000
-262.358185 -173.040588 -35.815002 0.000000
-248.874893 -173.040588 -35.815002 0.000000
-235.391602 -173.040588 -35.815002 0.000000
-221.908295 -173.040588 -35.815002 0.000000
-208.424988 -173.040588 -35.815002 0.000000
-194.941696 -173.040588 -35.815002 0.000000
-181.458389 -173.040588 -35.815002 0.000000
-167.975098 -173.040588 -35.815002 0.000000
-154.491791 -173.040588 -35.815002 0.000000
-141.008499 -173.040588 -35.815002 0.000000
-127.525192 -173.040588 -35.815002 0.000000
-114.041885 -173.040588 -35.815002 0.000000
-100.558594 -173.040588 -35.815002 0.000000
-87.075287 -173.040588 -35.815002 0.000000
-73.591980 -173.040588 -35.815002 0.000000
-60.108704 -173.040588 -35.815002 0.000000
-46.625397 -173.040588 -35.815002 0.000000
-33.142090 -173.040588 -35.815002 0.000000
-19.658783 -173.040588 -35.815002 0.000000
-6.175476 -173.040588 -35.815002 0.000000
7.307800 -173.040588 -35.815002 0.000000
20.791107 -173.040588 -35.815002 0.000000
34.274414 -173.040588 -35.815002 0.000000
47.757721 -173.040588 -35.815002 0.000000
61.240997 -173.040588 -35.815002 0.000000
74.724304 -173.040588 -35.815002 0.000000
88.207611 -173.040588 -35.815002 0.000000
101.690918 -173.040588 -35.815002 0.000000
115.174225 -173.040588 -35.815002 0.000000
128.657501 -173.040588 -35.815002 0.000000
142.140808 -173.040588 -35.815002 0.000000
155.624115 -173.040588 -35.815002 0.000000
169.107422 -173.040588 -35.815002 0.000000
182.590698 -173.040588 -35.815002 0.000000
196.074036 -173.040588 -35.815002 0.000000
209.557312 -173.040588 -35.815002 0.000000
223.040588 -173.040588 -35.815002 0.000000
236.523926 -173.040588 -35.815002 0.000000
250.007202 -173.040588 -35.815002 0.000000
263.490540 -173.040588 -35.815002 0.000000
276.973816 -173.040588 -35.815002 0.000000
290.457092 -173.040588 -35.815002 0.000000
303.940430 -173.040588 -35.815002 0.000000
317.423706 -173.040588 -35.815002 0.000000
330.907043 -173.040588 -35.815002 0.000000
344.390320 -173.040588 -35.815002 0.000000
-343.257996 -186.523926 -35.815002 0.000000
-329.774689 -186.523926 -35.815002 0.000000
-316.291382 -186.523926 -35.815002 0.000000
-302.808105 -186.523926 -35.815002 0.000000
-289.324799 -186.523926 -35.815002 0.000000
-275.841492 -186.523926 -35.815002 0.000000
-262.358185 -186.523926 -35.815002 0.000000
-248.874893 -186.523926 -35.815002 0.000000
-235.391602 -186.523926 -35.815002 0.000000
-221.908295 -186.523926 -35.815002 0.000000
-208.424988 -186.523926 -35.815002 0.000000
-194.941696 -186.523926 -35.815002 0.000000
-181.458389 -186.523926 -35.815002 0.000000
-167.975098 -186.523926 -35.815002 0.000000
-154.491791 -186.523926 -35.815002 0.000000
-141.008499 -186.523926 -35.815002 0.000000
-127.525192 -186.523926 -35.815002 0.000000
-114.041885 -186.523926 -35.815002 0.000000
-100.558594 -186.523926 -35.815002 0.000000
-87.075287 -186.523926 -35.815002 0.000000
-73.591980 -186.523926 -35.815002 0.000000
-60.108704 -186.523926 -35.815002 0.000000
-46.625397 -186.523926 -35.815002 0.000000
-33.142090 -186.523926 -35.815002 0.000000
-19.658783 -186.523926 -35.815002 0.000000
-6.175476 -186.523926 -35.815002 0.000000
7.307800 -186.523926 -35.815002 0.000000
20.791107 -186.523926 -35.815002 0.000000
34.274414 -186.523926 -35.815002 0.000000
47.757721 -186.523926 -35.815002 0.000000
61.240997 -186.523926 -35.815002 0.000000
74.724304 -186.523926 -35.815002 0.000000
88.207611 -186.523926 -35.815002 0.000000
101.690918 -186.523926 -35.815002 0.000000
115.174225 -186.523926 -35.815002 0.000000
128.657501 -186.523926 -35.815002 0.000000
142.140808 -186.523926 -35.815002 0.000000
155.624115 -186.523926 -35.815002 0.000000
169.107422 -186.523926 -35.815002 0.000000
182.590698 -186.523926 -35.815002 0.000000
196.074036 -186.523926 -35.815002 0.000000
209.557312 -186.523926 -35.815002 0.000000
223.040588 -186.523926 -35.815002 0.000000
236.523926 -186.523926 -35.815002 0.000000
250.007202 -186.523926 -35.815002 0.000000
263.490540 -186.523926 -35.815002 0.000000
276.973816 -186.523926 -35.815002 0.000000
290.457092 -186.523926 -35.815002 0.000000
303.940430 -186.523926 -35.815002 0.000000
317.423706 -186.523926 -35.815002 0.000000
330.907043 -186.523926 -35.815002 0.000000
344.390320 -186.523926 -35.815002 0.000000
-343.257996 -200.007202 -35.815002 0.000000
-329.774689 -200.007202 -35.815002 0.000000
-316.291382 -200.007202 -35.815002 0.000000
-302.808105 -200.007202 -35.815002 0.000000
-289.324799 -200.007202 -35.815002 0.000000
-275.841492 -200.007202 -35.815002 0.000000
-262.358185 -200.007202 -35.815002 0.000000
-248.874893 -200.007202 -35.815002 0.000000
-235.391602 -200.007202 -35.815002 0.000000
-221.908295 -200.007202 -35.815002 0.000000
-208.424988 -200.007202 -35.815002 0.000000
-194.941696 -200.007202 -35.815002 0.000000
-181.458389 -200.007202 -35.815002 0.000000
-167.975098 -200.007202 -35.815002 0.000000
-154.491791 -200.007202 -35.815002 0.000000
-141.008499 -200.007202 -35.815002 0.000000
-127.525192 -200.007202 -35.815002 0.000000
-114.041885 -200.007202 -35.815002 0.000000
-100.558594 -200.007202 -35.815002 0.000000
-87.075287 -200.007202 -35.815002 0.000000
-73.591980 -200.007202 -35.815002 0.000000
-60.108704 -200.007202 -35.815002 0.000000
-46.625397 -200.007202 -35.815002 0.000000
-33.142090 -200.007202 -35.815002 0.000000
-19.658783 -200.007202 -35.815002 0.000000
-6.175476 -200.007202 -35.815002 0.000000
7.307800 -200.007202 -35.815002 0.000000
20.791107 -200.007202 -35.815002 0.000000
34.274414 -200.007202 -35.815002 0.000000
47.757721 -200.007202 -35.815002 0.000000
61.240997 -200.007202 -35.815002 0.000000
74.724304 -200.007202 -35.815002 0.000000
88.207611 -200.007202 -35.815002 0.000000
101.690918 -200.007202 -35.815002 0.000000
115.174225 -200.007202 -35.815002 0.000000
128.657501 -200.007202 -35.815002 0.000000
142.140808 -200.007202 -35.815002 0.000000
155.624115 -200.007202 -35.815002 0.000000
169.107422 -200.007202 -35.815002 0.000000
182.590698 -200.007202 -35.815002 0.000000
196.074036 -200.007202 -35.815002 0.000000
209.557312 -200.007202 -35.815002 0.000000
223.040588 -200.007202 -35.815002 0.000000
236.523926 -200.007202 -35.815002 0.000000
250.007202 -200.007202 -35.815002 0.000000
263.490540 -200.007202 -35.815002 0.000000
276.973816 -200.007202 -35.815002 0.000000
290.457092 -200.007202 -35.815002 0.000000
303.940430 -200.007202 -35.815002 0.000000
317.423706 -200.007202 -35.815002 0.000000
330.907043 -200.007202 -35.815002 0.000000
344.390320 -200.007202 -35.815002 0.000000
-343.257996 393.257996 -22.331701 0.000000
-329.774689 393.257996 -22.331701 0.000000
-316.291382 393.257996 -22.331701 0.000000
-302.808105 393.257996 -22.331701 0.000000
-289.324799 393.257996 -22.331701 0.000000
-275.841492 393.257996 -22.331701 0.000000
-262.358185 393.257996 -22.331701 0.000000
-248.874893 393.257996 -22.331701 0.000000
-235.391602 393.257996 -22.331701 0.000000
-221.908295 393.257996 -22.331701 0.000000
-208.424988 393.257996 -22.331701 0.000000
-194.941696 393.257996 -22.331701 0.000000
-181.458389 393.257996 -22.331701 0.000000
-167.975098 393.257996 -22.331701 0.000000
-154.491791 393.257996 -22.331701 0.000000
-141.008499 393.257996 -22.331701 0.000000
-127.525192 393.257996 -22.331701 0.000000
-114.041885 393.257996 -22.331701 0.000000
-100.558594 393.257996 -22.331701 0.000000
-87.075287 393.257996 -22.331701 0.000000
-73.591980 393.257996 -22.331701 0.000000
-60.108704 393.257996 -22.331701 0.000000
-46.625397 393.257996 -22.331701 0.000000
-33.142090 393.257996 -22.331701 0.000000
-19.658783 393.257996 -22.331701 0.000000
-6.175476 393.257996 -22.331701 0.000000
7.307800 393.257996 -22.331701 0.000000
20.791107 393.257996 -22.331701 0.000000
34.274414 393.257996 -22.331701 0.000000
47.757721 393.257996 -22.331701 0.000000
61.240997 393.257996 -22.331701 0.000000
74.724304 393.257996 -22.331701 0.000000
88.207611 393.257996 -22.331701 0.000000
101.690918 393.257996 -22.331701 0.000000
115.174225 393.257996 -22.331701 0.000000
128.657501 393.257996 -22.331701 0.000000
142.140808 393.257996 -22.331701 0.000000
155.624115 393.257996 -22.331701 0.000000
169.107422 393.257996 -22.331701 0.000000
182.590698 393.257996 -22.331701 0.000000
196.074036 393.257996 -22.331701 0.000000
209.557312 393.257996 -22.331701 0.000000
223.040588 393.257996 -22.331701 0.000000
236.523926 393.257996 -22.331701 0.000000
250.007202 393.257996 -22.331701 0.000000
263.490540 393.257996 -22.331701 0.000000
276.973816 393.257996 -22.331701 0.000000
290.457092 393.257996 -22.331701 0.000000
303.940430 393.257996 -22.331701 0.000000
317.423706 393.257996 -22.331701 0.000000
330.907043 393.257996 -22.331701 0.000000
344.390320 393.257996 -22.331701 0.000000
-343.257996 379.774689 -22.331701 0.000000
-329.774689 379.774689 -22.331701 0.000000
-316.291382 379.774689 -22.331701 0.000000
-302.808105 379.774689 -22.331701 0.000000
-289.324799 379.774689 -22.331701 0.000000
-275.841492 379.774689 -22.331701 0.000000
-262.358185 379.774689 -22.331701 0.000000
-248.874893 379.774689 -22.331701 0.000000
-235.391602 379.774689 -22.331701 0.000000
-221.908295 379.774689 -22.331701 0.000000
-208.424988 379.774689 -22.331701 0.000000
-194.941696 379.774689 -22.331701 0.000000
-181.458389 379.774689 -22.331701 0.000000
-167.975098 379.774689 -22.331701 0.000000
-154.491791 379.774689 -22.331701 0.000000
-141.008499 379.774689 -22.331701 0.000000
-127.525192 379.774689 -22.331701 0.000000
-114.041885 379.774689 -22.331701 0.000000
-100.558594 379.774689 -22.331701 0.000000
-87.075287 379.774689 -22.331701 0.000000
-73.591980 379.774689 -22.331701 0.000000
-60.108704 379.774689 -22.331701 0.000000
-46.625397 379.774689 -22.331701 0.000000
-33.142090 379.774689 -22.331701 0.000000
-19.658783 379.774689 -22.331701 0.000000
-6.175476 379.774689 -22.331701 0.000000
7.307800 379.774689 -22.331701 0.000000
20.791107 379.774689 -22.331701 0.000000
34.274414 379.774689 -22.331701 0.000000
47.757721 379.774689 -22.331701 0.000000
61.240997 379.774689 -22.331701 0.000000
74.724304 379.774689 -22.331701 0.000000
88.207611 379.774689 -22.331701 0.000000
101.690918 379.774689 -22.331701 0.000000
115.174225 379.774689 -22.331701 0.000000
128.657501 379.774689 -22.331701 0.000000
142.140808 379.774689 -22.331701 0.000000
155.624115 379.774689 -22.331701 0.000000
169.107422 379.774689 -22.331701 0.000000
182.590698 379.774689 -22.331701 0.000000
196.074036 379.774689 -22.331701 0.000000
209.557312 379.774689 -22.331701 0.000000
223.040588 379.774689 -22.331701 0.000000
236.523926 379.774689 -22.331701 0.000000
250.007202 379.774689 -22.331701 0.000000
263.490540 379.774689 -22.331701 0.000000
276.973816 379.774689 -22.331701 0.000000
290.457092 379.774689 -22.331701 0.000000
303.940430 379.774689 -22.331701 0.000000
317.423706 379.774689 -22.331701 0.000000
330.907043 379.774689 -22.331701 0.000000
344.390320 379.774689 -22.331701 0.000000
-343.257996 366.291382 -22.331701 0.000000
-329.774689 366.291382 -22.331701 0.000000
-316.291382 366.291382 -22.331701 0.000000
-302.808105 366.291382 -22.331701 0.000000
-289.324799 366.291382 -22.331701 0.000000
-275.841492 366.291382 -22.331701 0.000000
-262.358185 366.291382 -22.331701 0.000000
-248.874893 366.291382 -22.331701 0.000000
-235.391602 366.291382 -22.331701 0.000000
-221.908295 366.291382 -22.331701 0.000000
-208.424988 366.291382 -22.331701 0.000000
-194.941696 366.291382 -22.331701 0.000000
-181.458389 366.291382 -22.331701 0.000000
-167.975098 366.291382 -22.331701 0.000000
-154.491791 366.291382 -22.331701 0.000000
-141.008499 366.291382 -22.331701 0.000000
-127.525192 366.291382 -22.331701 0.000000
-114.041885 366.291382 -22.331701 0.000000
-100.558594 366.291382 -22.331701 0.000000
-87.075287 366.291382 -22.331701 0.000000
-73.591980 366.291382 -22.331701 0.000000
-60.108704 366.291382 -22.331701 0.000000
-46.625397 366.291382 -22.331701 0.000000
-33.142090 366.291382 -22.331701 0.000000
-19.658783 366.291382 -22.331701 0.000000
-6.175476 366.291382 -22.331701 0.000000
7.307800 366.291382 -22.331701 0.000000
20.791107 366.291382 -22.331701 0.000000
34.274414 366.291382 -22.331701 0.000000
47.757721 366.291382 -22.331701 0.000000
61.240997 366.291382 -22.331701 0.000000
74.724304 366.291382 -22.331701 0.000000
88.207611 366.291382 -22.331701 0.000000
101.690918 366.291382 -22.331701 0.000000
115.174225 366.291382 -22.331701 0.000000
128.657501 366.291382 -22.331701 0.000000
142.140808 366.291382 -22.331701 0.000000
155.624115 366.291382 -22.331701 0.000000
169.107422 366.291382 -22.331701 0.000000
182.590698 366.291382 -22.331701 0.000000
196.074036 366.291382 -22.331701 0.000000
209.557312 366.291382 -22.331701 0.000000
223.040588 366.291382 -22.331701 0.000000
236.523926 366.291382 -22.331701 0.000000
250.007202 366.291382 -22.331701 0.000000
263.490540 366.291382 -22.331701 0.000000
276.973816 366.291382 -22.331701 0.000000
290.457092 366.291382 -22.331701 0.000000
303.940430 366.291382 -22.331701 0.000000
317.423706 366.291382 -22.331701 0.000000
330.907043 366.291382 -22.331701 0.000000
344.390320 366.291382 -22.331701 0.000000
-343.257996 352.808105 -22.331701 0.000000
-329.774689 352.808105 -22.331701 0.000000
-316.291382 352.808105 -22.331701 0.000000
-302.808105 352.808105 -22.331701 -0.004994
-289.324799 352.808105 -22.331701 -0.005898
-275.841492 352.808105 -22.331701 -0.007189
-262.358185 352.808105 -22.331701 -0.009152
-248.874893 352.808105 -22.331701 -0.010353
-235.391602 352.808105 -22.331701 -0.014569
-221.908295 352.808105 -22.331701 -0.017244
-208.424988 352.808105 -22.331701 -0.012361
-194.941696 352.808105 -22.331701 -0.009905
-181.458389 352.808105 -22.331701 0.000000
-167.975098 352.808105 -22.331701 0.000000
-154.491791 352.808105 -22.331701 0.000000
-141.008499 352.808105 -22.331701 0.000000
-127.525192 352.808105 -22.331701 0.000000
-114.041885 352.808105 -22.331701 0.000000
-100.558594 352.808105 -22.331701 0.000000
-87.075287 352.808105 -22.331701 0.000000
-73.591980 352.808105 -22.331701 0.000000
-60.108704 352.808105 -22.331701 0.000000
-46.625397 352.808105 -22.331701 0.000000
-33.142090 352.808105 -22.331701 0.000000
-19.658783 352.808105 -22.331701 0.000000
-6.175476 352.808105 -22.331701 0.000000
7.307800 352.808105 -22.331701 0.000000
20.791107 352.808105 -22.331701 0.000000
34.274414 352.808105 -22.331701 0.012491
47.757721 352.808105 -22.331701 0.000110
61.240997 352.808105 -22.331701 -0.010349
74.724304 352.808105 -22.331701 -0.021802
88.207611 352.808105 -22.331701 0.000000
101.690918 352.808105 -22.331701 0.000000
115.174225 352.808105 -22.331701 0.000000
128.657501 352.808105 -22.331701 0.000000
142.140808 352.808105 -22.331701 0.000000
155.624115 352.808105 -22.331701 0.000000
169.107422 352.808105 -22.331701 0.000000
182.590698 352.808105 -22.331701 0.000000
196.074036 352.808105 -22.331701 0.000000
209.557312 352.808105 -22.331701 0.000000
223.040588 352.808105 -22.331701 0.000000
236.523926 352.808105 -22.331701 0.000000
250.007202 352.808105 -22.331701 0.000000
263.490540 352.808105 -22.331701 0.000000
276.973816 352.808105 -22.331701 0.000000
290.457092 352.808105 -22.331701 0.000000
303.940430 352.808105 -22.331701 0.000000
317.423706 352.808105 -22.331701 0.000000
330.907043 352.808105 -22.331701 0.000000
344.390320 352.808105 -22.331701 0.000000
-343.257996 339.324799 -22.331701 0.000000
-329.774689 339.324799 -22.331701 0.000000
-316.291382 339.324799 -22.331701 0.000000
-302.808105 339.324799 -22.331701 -0.003421
-289.324799 339.324799 -22.331701 -0.005436
-275.841492 339.324799 -22.331701 -0.005991
-262.358185 339.324799 -22.331701 -0.008591
-248.874893 339.324799 -22.331701 -0.008851
-235.391602 339.324799 -22.331701 -0.011199
-221.908295 339.324799 -22.331701 -0.014007
-208.424988 339.324799 -22.331701 -0.013670
-194.941696 339.324799 -22.331701 -0.011142
-181.458389 339.324799 -22.331701 -0.019384
-167.975098 339.324799 -22.331701 -0.016184
-154.491791 339.324799 -22.331701 -0.016030
-141.008499 339.324799 -22.331701 -0.013292
-127.525192 339.324799 -22.331701 -0.003551
-114.041885 339.324799 -22.331701 0.021221
-100.558594 339.324799 -22.331701 0.039764
-87.075287 339.324799 -22.331701 0.055615
-73.591980 339.324799 -22.331701 0.060536
-60.108704 339.324799 -22.331701 0.068688
-46.625397 339.324799 -22.331701 0.084971
-33.142090 339.324799 -22.331701 0.086518
-19.658783 339.324799 -22.331701 0.064702
-6.175476 339.324799 -22.331701 0.059443
7.307800 339.324799 -22.331701 0.035062
20.791107 339.324799 -22.331701 0.022709
34.274414 339.324799 -22.331701 0.015028
47.757721 339.324799 -22.331701 0.000350
61.240997 339.324799 -22.331701 -0.011501
74.724304 339.324799 -22.331701 -0.022069
88.207611 339.324799 -22.331701 -0.036809
101.690918 339.324799 -22.331701 -0.045802
115.174225 339.324799 -22.331701 -0.056246
128.657501 339.324799 -22.331701 -0.051023
142.140808 339.324799 -22.331701 -0.040470
155.624115 339.324799 -22.331701 -0.024702
169.107422 339.324799 -22.331701 -0.012216
182.590698 339.324799 -22.331701 -0.002659
196.074036 339.324799 -22.331701 0.018250
209.557312 339.324799 -22.331701 0.023208
223.040588 339.324799 -22.331701 0.032852
236.523926 339.324799 -22.331701 0.042390
250.007202 339.324799 -22.331701 0.043457
263.490540 339.324799 -22.331701 0.041750
276.973816 339.324799 -22.331701 0.041114
290.457092 339.324799 -22.331701 0.000000
303.940430 339.324799 -22.331701 0.000000
317.423706 339.324799 -22.331701 0.000000
330.907043 339.324799 -22.331701 0.000000
344.390320 339.324799 -22.331701 0.000000
-343.257996 325.841492 -22.331701 0.000000
-329.774689 325.841492 -22.331701 0.000000
-316.291382 325.841492 -22.331701 -0.001642
-302.808105 325.841492 -22.331701 -0.003193
-289.324799 325.841492 -22.331701 -0.005007
-275.841492 325.841492 -22.331701 -0.007543
-262.358185 325.841492 -22.331701 -0.007767
-248.874893 325.841492 -22.331701 -0.009497
-235.391602 325.841492 -22.331701 -0.011681
-221.908295 325.841492 -22.331701 -0.014135
-208.424988 325.841492 -22.331701 -0.009777
-194.941696 325.841492 -22.331701 -0.012737
-181.458389 325.841492 -22.331701 -0.018086
-167.975098 325.841492 -22.331701 -0.019516
-154.491791 325.841492 -22.331701 -0.016320
-141.008499 325.841492 -22.331701 -0.016455
-127.525192 325.841492 -22.331701 -0.001762
-114.041885 325.841492 -22.331701 0.015508
-100.558594 325.841492 -22.331701 0.032655
-87.075287 325.841492 -22.331701 0.040386
-73.591980 325.841492 -22.331701 0.048244
-60.108704 325.841492 -22.331701 0.073064
-46.625397 325.841492 -22.331701 0.081817
-33.142090 325.841492 -22.331701 0.077201
-19.658783 325.841492 -22.331701 0.066993
-6.175476 325.841492 -22.331701 0.065224
7.307800 325.841492 -22.331701 0.039205
20.791107 325.841492 -22.331701 0.020525
34.274414 325.841492 -22.331701 0.015035
47.757721 325.841492 -22.331701 0.001024
61.240997 325.841492 -22.331701 -0.013142
74.724304 325.841492 -22.331701 -0.026173
88.207611 325.841492 -22.331701 -0.043679
101.690918 325.841492 -22.331701 -0.050851
115.174225 325.841492 -22.331701 -0.057232
128.657501 325.841492 -22.331701 -0.050531
142.140808 325.841492 -22.331701 -0.035090
155.624115 325.841492 -22.331701 -0.012641
169.107422 325.841492 -22.331701 -0.000426
182.590698 325.841492 -22.331701 0.009585
196.074036 325.841492 -22.331701 0.021382
209.557312 325.841492 -22.331701 0.026172
223.040588 325.841492 -22.331701 0.035724
236.523926 325.841492 -22.331701 0.043839
250.007202 325.841492 -22.331701 0.046163
263.490540 325.841492 -22.331701 0.049060
276.973816 325.841492 -22.331701 0.037272
290.457092 325.841492 -22.331701 0.000000
303.940430 325.841492 -22.331701 0.000000
317.423706 325.841492 -22.331701 0.000000
330.907043 325.841492 -22.331701 0.000000
344.390320 325.841492 -22.331701 0.000000
-343.257996 312.358185 -22.331701 0.000000
-329.774689 312.358185 -22.331701 0.000000
-316.291382 312.358185 -22.331701 -0.001695
-302.808105 312.358185 -22.331701 -0.002994
-289.324799 312.358185 -22.331701 -0.004910
-275.841492 312.358185 -22.331701 -0.006275
-262.358185 312.358185 -22.331701 -0.007489
-248.874893 312.358185 -22.331701 -0.008340
-235.391602 312.358185 -22.331701 -0.012430
-221.908295 312.358185 -22.331701 -0.014314
-208.424988 312.358185 -22.331701 -0.012502
-194.941696 312.358185 -22.331701 -0.016157
-181.458389 312.358185 -22.331701 -0.017262
-167.975098 312.358185 -22.331701 -0.018333
-154.491791 312.358185 -22.331701 -0.014883
-141.008499 312.358185 -22.331701 -0.009535
-127.525192 312.358185 -22.331701 -0.004988
-114.041885 312.358185 -22.331701 0.009779
-100.558594 312.358185 -22.331701 0.025669
-87.075287 312.358185 -22.331701 0.026316
-73.591980 312.358185 -22.331701 0.048774
-60.108704 312.358185 -22.331701 0.062068
-46.625397 312.358185 -22.331701 0.081301
-33.142090 312.358185 -22.331701 0.075954
-19.658783 312.358185 -22.331701 0.069619
-6.175476 312.358185 -22.331701 0.064605
7.307800 312.358185 -22.331701 0.047370
20.791107 312.358185 -22.331701 0.031735
34.274414 312.358185 -22.331701 0.011390
47.757721 312.358185 -22.331701 0.003691
61.240997 312.358185 -22.331701 -0.018325
74.724304 312.358185 -22.331701 -0.032117
88.207611 312.358185 -22.331701 -0.046781
101.690918 312.358185 -22.331701 -0.054408
115.174225 312.358185 -22.331701 -0.054264
128.657501 312.358185 -22.331701 -0.041496
142.140808 312.358185 -22.331701 -0.021116
155.624115 312.358185 -22.331701 -0.002095
169.107422 312.358185 -22.331701 0.010262
182.590698 312.358185 -22.331701 0.019341
196.074036 312.358185 -22.331701 0.027618
209.557312 312.358185 -22.331701 0.030382
223.040588 312.358185 -22.331701 0.038054
236.523926 312.358185 -22.331701 0.042766
250.007202 312.358185 -22.331701 0.046849
263.490540 312.358185 -22.331701 0.047626
276.973816 312.358185 -22.331701 0.037285
290.457092 312.358185 -22.331701 0.032190
303.940430 312.358185 -22.331701 0.000000
317.423706 312.358185 -22.331701 0.000000
330.907043 312.358185 -22.331701 0.000000
344.390320 312.358185 -22.331701 0.000000
-343.257996 298.874878 -22.331701 0.000000
-329.774689 298.874878 -22.331701 0.000000
-316.291382 298.874878 -22.331701 -0.002029
-302.808105 298.874878 -22.331701 -0.002275
-289.324799 298.874878 -22.331701 -0.004096
-275.841492 298.874878 -22.331701 -0.007003
-262.358185 298.874878 -22.331701 -0.008437
-248.874893 298.874878 -22.331701 -0.010921
-235.391602 298.874878 -22.331701 -0.011443
-221.908295 298.874878 -22.331701 -0.015859
-208.424988 298.874878 -22.331701 -0.013472
-194.941696 298.874878 -22.331701 -0.013424
-181.458389 298.874878 -22.331701 -0.013645
-167.975098 298.874878 -22.331701 -0.014586
-154.491791 298.874878 -22.331701 -0.005784
-141.008499 298.874878 -22.331701 -0.006824
-127.525192 298.874878 -22.331701 -0.000900
-114.041885 298.874878 -22.331701 0.004882
-100.558594 298.874878 -22.331701 0.013222
-87.075287 298.874878 -22.331701 0.023094
-73.591980 298.874878 -22.331701 0.035624
-60.108704 298.874878 -22.331701 0.050211
-46.625397 298.874878 -22.331701 0.065841
-33.142090 298.874878 -22.331701 0.066758
-19.658783 298.874878 -22.331701 0.078579
-6.175476 298.874878 -22.331701 0.061120
7.307800 298.874878 -22.331701 0.054253
20.791107 298.874878 -22.331701 0.035344
34.274414 298.874878 -22.331701 0.010064
47.757721 298.874878 -22.331701 -0.001594
61.240997 298.874878 -22.331701 -0.023683
74.724304 298.874878 -22.331701 -0.038436
88.207611 298.874878 -22.331701 -0.051028
101.690918 298.874878 -22.331701 -0.054617
115.174225 298.874878 -22.331701 -0.049497
128.657501 298.874878 -22.331701 -0.034510
142.140808 298.874878 -22.331701 -0.014932
155.624115 298.874878 -22.331701 0.007057
169.107422 298.874878 -22.331701 0.013338
182.590698 298.874878 -22.331701 0.026652
196.074036 298.874878 -22.331701 0.037455
209.557312 298.874878 -22.331701 0.040199
223.040588 298.874878 -22.331701 0.038301
236.523926 298.874878 -22.331701 0.043655
250.007202 298.874878 -22.331701 0.043190
263.490540 298.874878 -22.331701 0.040266
276.973816 298.874878 -22.331701 0.035188
290.457092 298.874878 -22.331701 0.029323
303.940430 298.874878 -22.331701 0.000000
317.423706 298.874878 -22.331701 0.000000
330.907043 298.874878 -22.331701 0.000000
344.390320 298.874878 -22.331701 0.000000
-343.257996 285.391602 -22.331701 0.000000
-329.774689 285.391602 -22.331701 0.000000
-316.291382 285.391602 -22.331701 -0.001865
-302.808105 285.391602 -22.331701 -0.001915
-289.324799 285.391602 -22.331701 -0.003237
-275.841492 285.391602 -22.331701 -0.006106
-262.358185 285.391602 -22.331701 -0.008729
-248.874893 285.391602 -22.331701 -0.010897
-235.391602 285.391602 -22.331701 -0.012518
-221.908295 285.391602 -22.331701 -0.016506
-208.424988 285.391602 -22.331701 -0.015239
-194.941696 285.391602 -22.331701 -0.016206
-181.458389 285.391602 -22.331701 -0.014740
-167.975098 285.391602 -22.331701 -0.016855
-154.491791 285.391602 -22.331701 -0.017131
-141.008499 285.391602 -22.331701 -0.004487
-127.525192 285.391602 -22.331701 0.000717
-114.041885 285.391602 -22.331701 -0.005183
-100.558594 285.391602 -22.331701 0.006155
-87.075287 285.391602 -22.331701 0.004378
-73.591980 285.391602 -22.331701 0.011833
-60.108704 285.391602 -22.331701 0.025229
-46.625397 285.391602 -22.331701 0.039116
-33.142090 285.391602 -22.331701 0.064456
-19.658783 285.391602 -22.331701 0.068324
-6.175476 285.391602 -22.331701 0.059214
7.307800 285.391602 -22.331701 0.050568
20.791107 285.391602 -22.331701 0.029477
34.274414 285.391602 -22.331701 0.011383
47.757721 285.391602 -22.331701 -0.007587
61.240997 285.391602 -22.331701 -0.034404
74.724304 285.391602 -22.331701 -0.038334
88.207611 285.391602 -22.331701 -0.061526
101.690918 285.391602 -22.331701 -0.070226
115.174225 285.391602 -22.331701 -0.045484
128.657501 285.391602 -22.331701 -0.038197
142.140808 285.391602 -22.331701 -0.008738
155.624115 285.391602 -22.331701 0.001393
169.107422 285.391602 -22.331701 0.015687
182.590698 285.391602 -22.331701 0.024735
196.074036 285.391602 -22.331701 0.033179
209.557312 285.391602 -22.331701 0.033139
223.040588 285.391602 -22.331701 0.039537
236.523926 285.391602 -22.331701 0.039550
250.007202 285.391602 -22.331701 0.035579
263.490540 285.391602 -22.331701 0.029243
276.973816 285.391602 -22.331701 0.026545
290.457092 285.391602 -22.331701 0.017965
303.940430 285.391602 -22.331701 0.013048
317.423706 285.391602 -22.331701 0.000000
330.907043 285.391602 -22.331701 0.000000
344.390320 285.391602 -22.331701 0.000000
-343.257996 271.908295 -22.331701 0.000000
-329.774689 271.908295 -22.331701 0.000000
-316.291382 271.908295 -22.331701 -0.001914
-302.808105 271.908295 -22.331701 -0.002269
-289.324799 271.908295 -22.331701 -0.002837
-275.841492 271.908295 -22.331701 -0.004954
-262.358185 271.908295 -22.331701 -0.007304
-248.874893 271.908295 -22.331701 -0.010127
-235.391602 271.908295 -22.331701 -0.013723
-221.908295 271.908295 -22.331701 -0.015946
-208.424988 271.908295 -22.331701 -0.015910
-194.941696 271.908295 -22.331701 -0.013530
-181.458389 271.908295 -22.331701 -0.016411
-167.975098 271.908295 -22.331701 -0.017433
-154.491791 271.908295 -22.331701 -0.015894
-141.008499 271.908295 -22.331701 -0.015303
-127.525192 271.908295 -22.331701 -0.010419
-114.041885 271.908295 -22.331701 -0.002002
-100.558594 271.908295 -22.331701 -0.005592
-87.075287 271.908295 -22.331701 0.001340
-73.591980 271.908295 -22.331701 0.004958
-60.108704 271.908295 -22.331701 0.021654
-46.625397 271.908295 -22.331701 0.048552
-33.142090 271.908295 -22.331701 0.069382
-19.658783 271.908295 -22.331701 0.071489
-6.175476 271.908295 -22.331701 0.050644
7.307800 271.908295 -22.331701 0.039421
20.791107 271.908295 -22.331701 0.024577
34.274414 271.908295 -22.331701 0.005988
47.757721 271.908295 -22.331701 -0.018878
61.240997 271.908295 -22.331701 -0.030316
74.724304 271.908295 -22.331701 -0.037929
88.207611 271.908295 -22.331701 -0.059107
101.690918 271.908295 -22.331701 -0.053928
115.174225 271.908295 -22.331701 -0.048039
128.657501 271.908295 -22.331701 -0.038343
142.140808 271.908295 -22.331701 -0.012667
155.624115 271.908295 -22.331701 -0.004373
169.107422 271.908295 -22.331701 0.019621
182.590698 271.908295 -22.331701 0.027769
196.074036 271.908295 -22.331701 0.029522
209.557312 271.908295 -22.331701 0.027978
223.040588 271.908295 -22.331701 0.036070
236.523926 271.908295 -22.331701 0.037537
250.007202 271.908295 -22.331701 0.027275
263.490540 271.908295 -22.331701 0.020062
276.973816 271.908295 -22.331701 0.015342
290.457092 271.908295 -22.331701 0.009197
303.940430 271.908295 -22.331701 0.007516
317.423706 271.908295 -22.331701 0.000000
330.907043 271.908295 -22.331701 0.000000
344.390320 271.908295 -22.331701 0.000000
-343.257996 258.424988 -22.331701 0.000000
-329.774689 258.424988 -22.331701 0.000000
-316.291382 258.424988 -22.331701 -0.001620
-302.808105 258.424988 -22.331701 -0.001916
-289.324799 258.424988 -22.331701 -0.002905
-275.841492 258.424988 -22.331701 -0.003865
-262.358185 258.424988 -22.331701 -0.005635
-248.874893 258.424988 -22.331701 -0.009499
-235.391602 258.424988 -22.331701 -0.012008
-221.908295 258.424988 -22.331701 -0.016889
-208.424988 258.424988 -22.331701 -0.016060
-194.941696 258.424988 -22.331701 -0.012948
-181.458389 258.424988 -22.331701 -0.016826
-167.975098 258.424988 -22.331701 -0.015009
-154.491791 258.424988 -22.331701 -0.018223
-141.008499 258.424988 -22.331701 -0.015166
-127.525192 258.424988 -22.331701 -0.016319
-114.041885 258.424988 -22.331701 -0.007648
-100.558594 258.424988 -22.331701 -0.008025
-87.075287 258.424988 -22.331701 -0.001949
-73.591980 258.424988 -22.331701 0.007779
-60.108704 258.424988 -22.331701 0.029601
-46.625397 258.424988 -22.331701 0.037870
-33.142090 258.424988 -22.331701 0.058408
-19.658783 258.424988 -22.331701 0.063223
-6.175476 258.424988 -22.331701 0.052983
7.307800 258.424988 -22.331701 0.055739
20.791107 258.424988 -22.331701 0.021506
34.274414 258.424988 -22.331701 -0.006024
47.757721 258.424988 -22.331701 -0.020366
61.240997 258.424988 -22.331701 -0.040991
74.724304 258.424988 -22.331701 -0.052365
88.207611 258.424988 -22.331701 -0.058363
101.690918 258.424988 -22.331701 -0.062313
115.174225 258.424988 -22.331701 -0.043332
128.657501 258.424988 -22.331701 -0.039870
142.140808 258.424988 -22.331701 -0.020258
155.624115 258.424988 -22.331701 0.002457
169.107422 258.424988 -22.331701 0.025989
182.590698 258.424988 -22.331701 0.030064
196.074036 258.424988 -22.331701 0.030124
209.557312 258.424988 -22.331701 0.028928
223.040588 258.424988 -22.331701 0.032988
236.523926 258.424988 -22.331701 0.028858
250.007202 258.424988 -22.331701 0.017736
263.490540 258.424988 -22.331701 0.012060
276.973816 258.424988 -22.331701 0.006350
290.457092 258.424988 -22.331701 0.005047
303.940430 258.424988 -22.331701 0.001450
317.423706 258.424988 -22.331701 0.000000
330.907043 258.424988 -22.331701 0.000000
344.390320 258.424988 -22.331701 0.000000
-343.257996 244.941696 -22.331701 0.000000
-329.774689 244.941696 -22.331701 0.000000
-316.291382 244.941696 -22.331701 -0.000197
-302.808105 244.941696 -22.331701 -0.001892
-289.324799 244.941696 -22.331701 -0.002722
-275.841492 244.941696 -22.331701 -0.002618
-262.358185 244.941696 -22.331701 -0.003385
-248.874893 244.941696 -22.331701 -0.005071
-235.391602 244.941696 -22.331701 -0.008214
-221.908295 244.941696 -22.331701 -0.010135
-208.424988 244.941696 -22.331701 -0.010494
-194.941696 244.941696 -22.331701 -0.014724
-181.458389 244.941696 -22.331701 -0.012453
-167.975098 244.941696 -22.331701 -0.021188
-154.491791 244.941696 -22.331701 -0.021085
-141.008499 244.941696 -22.331701 -0.021191
-127.525192 244.941696 -22.331701 -0.017557
-114.041885 244.941696 -22.331701 -0.011351
-100.558594 244.941696 -22.331701 -0.021182
-87.075287 244.941696 -22.331701 -0.020354
-73.591980 244.941696 -22.331701 0.000018
-60.108704 244.941696 -22.331701 0.025448
-46.625397 244.941696 -22.331701 0.033816
-33.142090 244.941696 -22.331701 0.053440
-19.658783 244.941696 -22.331701 0.063509
-6.175476 244.941696 -22.331701 0.055853
7.307800 244.941696 -22.331701 0.046286
20.791107 244.941696 -22.331701 0.013843
34.274414 244.941696 -22.331701 -0.020850
47.757721 244.941696 -22.331701 0.000000
61.240997 244.941696 -22.331701 -0.054247
74.724304 244.941696 -22.331701 -0.066565
88.207611 244.941696 -22.331701 -0.074356
101.690918 244.941696 -22.331701 -0.069168
115.174225 244.941696 -22.331701 -0.060959
128.657501 244.941696 -22.331701 -0.031306
142.140808 244.941696 -22.331701 -0.014163
155.624115 244.941696 -22.331701 0.004107
169.107422 244.941696 -22.331701 0.029617
182.590698 244.941696 -22.331701 0.026163
196.074036 244.941696 -22.331701 0.029613
209.557312 244.941696 -22.331701 0.031755
223.040588 244.941696 -22.331701 0.026869
236.523926 244.941696 -22.331701 0.010641
250.007202 244.941696 -22.331701 0.010990
263.490540 244.941696 -22.331701 0.008773
276.973816 244.941696 -22.331701 0.002012
290.457092 244.941696 -22.331701 0.000715
303.940430 244.941696 -22.331701 0.000040
317.423706 244.941696 -22.331701 -0.001007
330.907043 244.941696 -22.331701 0.000000
344.390320 244.941696 -22.331701 0.000000
-343.257996 231.458389 -22.331701 0.000000
-329.774689 231.458389 -22.331701 0.000000
-316.291382 231.458389 -22.331701 -0.000269
-302.808105 231.458389 -22.331701 -0.000789
-289.324799 231.458389 -22.331701 -0.001490
-275.841492 231.458389 -22.331701 -0.001404
-262.358185 231.458389 -22.331701 -0.001708
-248.874893 231.458389 -22.331701 -0.000560
-235.391602 231.458389 -22.331701 -0.001293
-221.908295 231.458389 -22.331701 -0.005062
-208.424988 231.458389 -22.331701 -0.009638
-194.941696 231.458389 -22.331701 -0.007716
-181.458389 231.458389 -22.331701 -0.011689
-167.975098 231.458389 -22.331701 -0.020698
-154.491791 231.458389 -22.331701 -0.024870
-141.008499 231.458389 -22.331701 -0.026711
-127.525192 231.458389 -22.331701 -0.030361
-114.041885 231.458389 -22.331701 -0.030257
-100.558594 231.458389 -22.331701 -0.034100
-87.075287 231.458389 -22.331701 -0.017840
-73.591980 231.458389 -22.331701 0.000070
-60.108704 231.458389 -22.331701 0.023335
-46.625397 231.458389 -22.331701 0.024724
-33.142090 231.458389 -22.331701 0.045609
-19.658783 231.458389 -22.331701 0.061511
-6.175476 231.458389 -22.331701 0.058374
7.307800 231.458389 -22.331701 0.027443
20.791107 231.458389 -22.331701 -0.006326
34.274414 231.458389 -22.331701 -0.039922
47.757721 231.458389 -22.331701 -0.060947
61.240997 231.458389 -22.331701 0.000000
74.724304 231.458389 -22.331701 -0.105088
88.207611 231.458389 -22.331701 -0.101925
101.690918 231.458389 -22.331701 -0.087668
115.174225 231.458389 -22.331701 -0.062438
128.657501 231.458389 -22.331701 0.000000
142.140808 231.458389 -22.331701 -0.017707
155.624115 231.458389 -22.331701 0.005789
169.107422 231.458389 -22.331701 0.012938
182.590698 231.458389 -22.331701 0.022585
196.074036 231.458389 -22.331701 0.027601
209.557312 231.458389 -22.331701 0.018087
223.040588 231.458389 -22.331701 0.009732
236.523926 231.458389 -22.331701 -0.000061
250.007202 231.458389 -22.331701 0.002949
263.490540 231.458389 -22.331701 0.001122
276.973816 231.458389 -22.331701 -0.004586
290.457092 231.458389 -22.331701 -0.004769
303.940430 231.458389 -22.331701 -0.002564
317.423706 231.458389 -22.331701 -0.002311
330.907043 231.458389 -22.331701 0.000000
344.390320 231.458389 -22.331701 0.000000
-343.257996 217.975098 -22.331701 0.000000
-329.774689 217.975098 -22.331701 0.000000
-316.291382 217.975098 -22.331701 0.000094
-302.808105 217.975098 -22.331701 0.000542
-289.324799 217.975098 -22.331701 -0.000241
-275.841492 217.975098 -22.331701 0.000502
-262.358185 217.975098 -22.331701 0.001131
-248.874893 217.975098 -22.331701 0.002890
-235.391602 217.975098 -22.331701 0.006580
-221.908295 217.975098 -22.331701 0.001477
-208.424988 217.975098 -22.331701 -0.003138
-194.941696 217.975098 -22.331701 -0.007758
-181.458389 217.975098 -22.331701 -0.010961
-167.975098 217.975098 -22.331701 -0.014342
-154.491791 217.975098 -22.331701 -0.020671
-141.008499 217.975098 -22.331701 -0.025518
-127.525192 217.975098 -22.331701 -0.046236
-114.041885 217.975098 -22.331701 -0.042442
-100.558594 217.975098 -22.331701 -0.038483
-87.075287 217.975098 -22.331701 -0.023785
-73.591980 217.975098 -22.331701 -0.005107
-60.108704 217.975098 -22.331701 0.014736
-46.625397 217.975098 -22.331701 0.027232
-33.142090 217.975098 -22.331701 0.043110
-19.658783 217.975098 -22.331701 0.048036
-6.175476 217.975098 -22.331701 0.042252
7.307800 217.975098 -22.331701 0.020530
20.791107 217.975098 -22.331701 -0.017550
34.274414 217.975098 -22.331701 -0.059072
47.757721 217.975098 -22.331701 -0.082783
61.240997 217.975098 -22.331701 -0.106635
74.724304 217.975098 -22.331701 -0.119107
88.207611 217.975098 -22.331701 -0.122776
101.690918 217.975098 -22.331701 -0.102439
115.174225 217.975098 -22.331701 -0.062492
128.657501 217.975098 -22.331701 -0.037919
142.140808 217.975098 -22.331701 -0.016855
155.624115 217.975098 -22.331701 0.009716
169.107422 217.975098 -22.331701 0.014692
182.590698 217.975098 -22.331701 0.025381
196.074036 217.975098 -22.331701 0.017258
209.557312 217.975098 -22.331701 0.009437
223.040588 217.975098 -22.331701 0.000271
236.523926 217.975098 -22.331701 -0.006654
250.007202 217.975098 -22.331701 -0.006655
263.490540 217.975098 -22.331701 -0.005730
276.973816 217.975098 -22.331701 -0.008271
290.457092 217.975098 -22.331701 -0.006391
303.940430 217.975098 -22.331701 -0.004062
317.423706 217.975098 -22.331701 -0.002442
330.907043 217.975098 -22.331701 0.000000
344.390320 217.975098 -22.331701 0.000000
-343.257996 204.491791 -22.331701 0.000000
-329.774689 204.491791 -22.331701 0.000000
-316.291382 204.491791 -22.331701 -0.000497
-302.808105 204.491791 -22.331701 -0.000237
-289.324799 204.491791 -22.331701 -0.000029
-275.841492 204.491791 -22.331701 0.000961
-262.358185 204.491791 -22.331701 0.002955
-248.874893 204.491791 -22.331701 0.004120
-235.391602 204.491791 -22.331701 0.005895
-221.908295 204.491791 -22.331701 0.004277
-208.424988 204.491791 -22.331701 -0.005439
-194.941696 204.491791 -22.331701 -0.003866
-181.458389 204.491791 -22.331701 -0.006529
-167.975098 204.491791 -22.331701 -0.017360
-154.491791 204.491791 -22.331701 -0.028674
-141.008499 204.491791 -22.331701 -0.034275
-127.525192 204.491791 -22.331701 -0.055135
-114.041885 204.491791 -22.331701 -0.058984
-100.558594 204.491791 -22.331701 -0.047446
-87.075287 204.491791 -22.331701 -0.041241
-73.591980 204.491791 -22.331701 -0.006859
-60.108704 204.491791 -22.331701 0.003444
-46.625397 204.491791 -22.331701 0.025146
-33.142090 204.491791 -22.331701 0.036419
-19.658783 204.491791 -22.331701 0.042798
-6.175476 204.491791 -22.331701 0.033009
7.307800 204.491791 -22.331701 0.004283
20.791107 204.491791 -22.331701 -0.041522
34.274414 204.491791 -22.331701 -0.082933
47.757721 204.491791 -22.331701 -0.117647
61.240997 204.491791 -22.331701 -0.129409
74.724304 204.491791 -22.331701 -0.110514
88.207611 204.491791 -22.331701 -0.108495
101.690918 204.491791 -22.331701 -0.092700
115.174225 204.491791 -22.331701 -0.066040
128.657501 204.491791 -22.331701 -0.029937
142.140808 204.491791 -22.331701 -0.003863
155.624115 204.491791 -22.331701 0.013043
169.107422 204.491791 -22.331701 0.019446
182.590698 204.491791 -22.331701 0.015180
196.074036 204.491791 -22.331701 0.013380
209.557312 204.491791 -22.331701 0.002251
223.040588 204.491791 -22.331701 -0.006268
236.523926 204.491791 -22.331701 -0.007212
250.007202 204.491791 -22.331701 -0.009773
263.490540 204.491791 -22.331701 -0.009578
276.973816 204.491791 -22.331701 -0.010129
290.457092 204.491791 -22.331701 -0.008370
303.940430 204.491791 -22.331701 -0.004984
317.423706 204.491791 -22.331701 -0.002792
330.907043 204.491791 -22.331701 0.000000
344.390320 204.491791 -22.331701 0.000000
-343.257996 191.008499 -22.331701 0.000000
-329.774689 191.008499 -22.331701 0.000000
-316.291382 191.008499 -22.331701 -0.001538
-302.808105 191.008499 -22.331701 -0.001825
-289.324799 191.008499 -22.331701 -0.001204
-275.841492 191.008499 -22.331701 0.000177
-262.358185 191.008499 -22.331701 0.003242
-248.874893 191.008499 -22.331701 0.002898
-235.391602 191.008499 -22.331701 0.002747
-221.908295 191.008499 -22.331701 0.005111
-208.424988 191.008499 -22.331701 -0.001994
-194.941696 191.008499 -22.331701 -0.008572
-181.458389 191.008499 -22.331701 -0.015371
-167.975098 191.008499 -22.331701 -0.027002
-154.491791 191.008499 -22.331701 -0.038140
-141.008499 191.008499 -22.331701 -0.050836
-127.525192 191.008499 -22.331701 -0.059777
-114.041885 191.008499 -22.331701 -0.061444
-100.558594 191.008499 -22.331701 -0.071014
-87.075287 191.008499 -22.331701 -0.044517
-73.591980 191.008499 -22.331701 -0.018646
-60.108704 191.008499 -22.331701 -0.004860
-46.625397 191.008499 -22.331701 0.021552
-33.142090 191.008499 -22.331701 0.036412
-19.658783 191.008499 -22.331701 0.030229
-6.175476 191.008499 -22.331701 0.011458
7.307800 191.008499 -22.331701 -0.024532
20.791107 191.008499 -22.331701 -0.054944
34.274414 191.008499 -22.331701 -0.098926
47.757721 191.008499 -22.331701 -0.124484
61.240997 191.008499 -22.331701 -0.124966
74.724304 191.008499 -22.331701 -0.110273
88.207611 191.008499 -22.331701 -0.086438
101.690918 191.008499 -22.331701 -0.066142
115.174225 191.008499 -22.331701 -0.052347
128.657501 191.008499 -22.331701 -0.033636
142.140808 191.008499 -22.331701 -0.007199
155.624115 191.008499 -22.331701 0.007727
169.107422 191.008499 -22.331701 0.016307
182.590698 191.008499 -22.331701 0.011503
196.074036 191.008499 -22.331701 0.006443
209.557312 191.008499 -22.331701 0.000832
223.040588 191.008499 -22.331701 -0.003157
236.523926 191.008499 -22.331701 -0.007336
250.007202 191.008499 -22.331701 -0.011270
263.490540 191.008499 -22.331701 -0.011176
276.973816 191.008499 -22.331701 -0.009800
290.457092 191.008499 -22.331701 -0.008019
303.940430 191.008499 -22.331701 -0.005061
317.423706 191.008499 -22.331701 -0.003380
330.907043 191.008499 -22.331701 0.000000
344.390320 191.008499 -22.331701 0.000000
-343.257996 177.525192 -22.331701 0.000000
-329.774689 177.525192 -22.331701 0.000000
-316.291382 177.525192 -22.331701 -0.001545
-302.808105 177.525192 -22.331701 -0.002809
-289.324799 177.525192 -22.331701 -0.001913
-275.841492 177.525192 -22.331701 -0.002339
-262.358185 177.525192 -22.331701 -0.000814
-248.874893 177.525192 -22.331701 -0.000299
-235.391602 177.525192 -22.331701 -0.000340
-221.908295 177.525192 -22.331701 -0.003552
-208.424988 177.525192 -22.331701 -0.009497
-194.941696 177.525192 -22.331701 -0.016910
-181.458389 177.525192 -22.331701 -0.028489
-167.975098 177.525192 -22.331701 -0.042313
-154.491791 177.525192 -22.331701 -0.060141
-141.008499 177.525192 -22.331701 -0.065897
-127.525192 177.525192 -22.331701 -0.070469
-114.041885 177.525192 -22.331701 -0.073247
-100.558594 177.525192 -22.331701 -0.059754
-87.075287 177.525192 -22.331701 -0.050476
-73.591980 177.525192 -22.331701 -0.022632
-60.108704 177.525192 -22.331701 -0.001681
-46.625397 177.525192 -22.331701 0.027619
-33.142090 177.525192 -22.331701 0.040563
-19.658783 177.525192 -22.331701 0.037726
-6.175476 177.525192 -22.331701 0.005320
7.307800 177.525192 -22.331701 -0.023014
20.791107 177.525192 -22.331701 -0.059248
34.274414 177.525192 -22.331701 -0.094011
47.757721 177.525192 -22.331701 -0.132643
61.240997 177.525192 -22.331701 -0.119981
74.724304 177.525192 -22.331701 -0.094681
88.207611 177.525192 -22.331701 -0.078480
101.690918 177.525192 -22.331701 -0.051055
115.174225 177.525192 -22.331701 -0.030495
128.657501 177.525192 -22.331701 -0.020777
142.140808 177.525192 -22.331701 -0.002252
155.624115 177.525192 -22.331701 0.008061
169.107422 177.525192 -22.331701 0.006890
182.590698 177.525192 -22.331701 0.004386
196.074036 177.525192 -22.331701 0.000089
209.557312 177.525192 -22.331701 -0.004815
223.040588 177.525192 -22.331701 -0.008442
236.523926 177.525192 -22.331701 -0.011059
250.007202 177.525192 -22.331701 -0.012147
263.490540 177.525192 -22.331701 -0.012925
276.973816 177.525192 -22.331701 -0.009001
290.457092 177.525192 -22.331701 -0.008115
303.940430 177.525192 -22.331701 -0.005301
317.423706 177.525192 -22.331701 -0.003112
330.907043 177.525192 -22.331701 0.000000
344.390320 177.525192 -22.331701 0.000000
-343.257996 164.041885 -22.331701 0.000000
-329.774689 164.041885 -22.331701 0.000000
-316.291382 164.041885 -22.331701 -0.002146
-302.808105 164.041885 -22.331701 -0.003095
-289.324799 164.041885 -22.331701 -0.003110
-275.841492 164.041885 -22.331701 -0.004071
-262.358185 164.041885 -22.331701 -0.004639
-248.874893 164.041885 -22.331701 -0.007995
-235.391602 164.041885 -22.331701 -0.014476
-221.908295 164.041885 -22.331701 -0.019148
-208.424988 164.041885 -22.331701 -0.028431
-194.941696 164.041885 -22.331701 -0.035139
-181.458389 164.041885 -22.331701 -0.043958
-167.975098 164.041885 -22.331701 -0.059208
-154.491791 164.041885 -22.331701 -0.067788
-141.008499 164.041885 -22.331701 -0.069769
-127.525192 164.041885 -22.331701 -0.066323
-114.041885 164.041885 -22.331701 -0.062203
-100.558594 164.041885 -22.331701 -0.035874
-87.075287 164.041885 -22.331701 -0.025601
-73.591980 164.041885 -22.331701 -0.008602
-60.108704 164.041885 -22.331701 0.008804
-46.625397 164.041885 -22.331701 0.025217
-33.142090 164.041885 -22.331701 0.032027
-19.658783 164.041885 -22.331701 0.031585
-6.175476 164.041885 -22.331701 -0.000771
7.307800 164.041885 -22.331701 -0.031973
20.791107 164.041885 -22.331701 -0.066249
34.274414 164.041885 -22.331701 -0.099794
47.757721 164.041885 -22.331701 -0.121226
61.240997 164.041885 -22.331701 -0.110911
74.724304 164.041885 -22.331701 -0.081517
88.207611 164.041885 -22.331701 -0.061687
101.690918 164.041885 -22.331701 -0.034963
115.174225 164.041885 -22.331701 -0.019802
128.657501 164.041885 -22.331701 -0.009657
142.140808 164.041885 -22.331701 0.001049
155.624115 164.041885 -22.331701 0.005615
169.107422 164.041885 -22.331701 0.002653
182.590698 164.041885 -22.331701 -0.000137
196.074036 164.041885 -22.331701 -0.004996
209.557312 164.041885 -22.331701 -0.006228
223.040588 164.041885 -22.331701 -0.009620
236.523926 164.041885 -22.331701 -0.009403
250.007202 164.041885 -22.331701 -0.010376
263.490540 164.041885 -22.331701 -0.010350
276.973816 164.041885 -22.331701 -0.009137
290.457092 164.041885 -22.331701 -0.006845
303.940430 164.041885 -22.331701 -0.004260
317.423706 164.041885 -22.331701 -0.002580
330.907043 164.041885 -22.331701 0.000000
344.390320 164.041885 -22.331701 0.000000
-343.257996 150.558594 -22.331701 0.000000
-329.774689 150.558594 -22.331701 0.000000
-316.291382 150.558594 -22.331701 -0.003219
-302.808105 150.558594 -22.331701 -0.004319
-289.324799 150.558594 -22.331701 -0.006154
-275.841492 150.558594 -22.331701 -0.008323
-262.358185 150.558594 -22.331701 -0.010265
-248.874893 150.558594 -22.331701 -0.016545
-235.391602 150.558594 -22.331701 -0.030913
-221.908295 150.558594 -22.331701 -0.041812
-208.424988 150.558594 -22.331701 -0.047959
-194.941696 150.558594 -22.331701 -0.059925
-181.458389 150.558594 -22.331701 -0.055211
-167.975098 150.558594 -22.331701 -0.066394
-154.491791 150.558594 -22.331701 -0.074622
-141.008499 150.558594 -22.331701 -0.055096
-127.525192 150.558594 -22.331701 -0.026194
-114.041885 150.558594 -22.331701 -0.028649
-100.558594 150.558594 -22.331701 -0.008410
-87.075287 150.558594 -22.331701 -0.007103
-73.591980 150.558594 -22.331701 0.000233
-60.108704 150.558594 -22.331701 0.025882
-46.625397 150.558594 -22.331701 0.023607
-33.142090 150.558594 -22.331701 0.011287
-19.658783 150.558594 -22.331701 0.012133
-6.175476 150.558594 -22.331701 -0.004280
7.307800 150.558594 -22.331701 -0.040100
20.791107 150.558594 -22.331701 -0.076842
34.274414 150.558594 -22.331701 -0.093226
47.757721 150.558594 -22.331701 -0.089009
61.240997 150.558594 -22.331701 -0.093818
74.724304 150.558594 -22.331701 -0.067942
88.207611 150.558594 -22.331701 -0.045344
101.690918 150.558594 -22.331701 -0.030709
115.174225 150.558594 -22.331701 -0.012901
128.657501 150.558594 -22.331701 -0.000526
142.140808 150.558594 -22.331701 0.004996
155.624115 150.558594 -22.331701 0.004565
169.107422 150.558594 -22.331701 0.001604
182.590698 150.558594 -22.331701 -0.000636
196.074036 150.558594 -22.331701 -0.006210
209.557312 150.558594 -22.331701 -0.007539
223.040588 150.558594 -22.331701 -0.008253
236.523926 150.558594 -22.331701 -0.007468
250.007202 150.558594 -22.331701 -0.007479
263.490540 150.558594 -22.331701 -0.008071
276.973816 150.558594 -22.331701 -0.006945
290.457092 150.558594 -22.331701 -0.005533
303.940430 150.558594 -22.331701 -0.003897
317.423706 150.558594 -22.331701 -0.003057
330.907043 150.558594 -22.331701 0.000000
344.390320 150.558594 -22.331701 0.000000
-343.257996 137.075287 -22.331701 0.000000
-329.774689 137.075287 -22.331701 0.000000
-316.291382 137.075287 -22.331701 -0.005094
-302.808105 137.075287 -22.331701 -0.006291
-289.324799 137.075287 -22.331701 -0.008158
-275.841492 137.075287 -22.331701 -0.012389
-262.358185 137.075287 -22.331701 -0.015238
-248.874893 137.075287 -22.331701 -0.022347
-235.391602 137.075287 -22.331701 -0.040190
-221.908295 137.075287 -22.331701 -0.054403
-208.424988 137.075287 -22.331701 -0.067019
-194.941696 137.075287 -22.331701 -0.086356
-181.458389 137.075287 -22.331701 -0.080182
-167.975098 137.075287 -22.331701 -0.085228
-154.491791 137.075287 -22.331701 -0.060166
-141.008499 137.075287 -22.331701 -0.039646
-127.525192 137.075287 -22.331701 0.002984
-114.041885 137.075287 -22.331701 0.009202
-100.558594 137.075287 -22.331701 0.017486
-87.075287 137.075287 -22.331701 0.013220
-73.591980 137.075287 -22.331701 0.020374
-60.108704 137.075287 -22.331701 0.029303
-46.625397 137.075287 -22.331701 0.010950
-33.142090 137.075287 -22.331701 0.013448
-19.658783 137.075287 -22.331701 0.012412
-6.175476 137.075287 -22.331701 -0.018862
7.307800 137.075287 -22.331701 -0.052925
20.791107 137.075287 -22.331701 -0.080983
34.274414 137.075287 -22.331701 -0.090297
47.757721 137.075287 -22.331701 -0.084511
61.240997 137.075287 -22.331701 -0.069713
74.724304 137.075287 -22.331701 -0.051157
88.207611 137.075287 -22.331701 -0.037677
101.690918 137.075287 -22.331701 -0.023445
115.174225 137.075287 -22.331701 -0.006018
128.657501 137.075287 -22.331701 0.003647
142.140808 137.075287 -22.331701 0.003077
155.624115 137.075287 -22.331701 -0.002371
169.107422 137.075287 -22.331701 -0.002071
182.590698 137.075287 -22.331701 -0.004950
196.074036 137.075287 -22.331701 -0.004398
209.557312 137.075287 -22.331701 -0.007731
223.040588 137.075287 -22.331701 -0.008437
236.523926 137.075287 -22.331701 -0.007781
250.007202 137.075287 -22.331701 -0.007826
263.490540 137.075287 -22.331701 -0.007325
276.973816 137.075287 -22.331701 -0.006070
290.457092 137.075287 -22.331701 -0.005124
303.940430 137.075287 -22.331701 -0.003615
317.423706 137.075287 -22.331701 -0.002783
330.907043 137.075287 -22.331701 0.000000
344.390320 137.075287 -22.331701 0.000000
-343.257996 123.591980 -22.331701 0.000000
-329.774689 123.591980 -22.331701 0.000000
-316.291382 123.591980 -22.331701 -0.006104
-302.808105 123.591980 -22.331701 -0.007328
-289.324799 123.591980 -22.331701 -0.010815
-275.841492 123.591980 -22.331701 -0.014083
-262.358185 123.591980 -22.331701 -0.018650
-248.874893 123.591980 -22.331701 -0.029585
-235.391602 123.591980 -22.331701 -0.048776
-221.908295 123.591980 -22.331701 -0.066715
-208.424988 123.591980 -22.331701 -0.075537
-194.941696 123.591980 -22.331701 -0.093703
-181.458389 123.591980 -22.331701 -0.102772
-167.975098 123.591980 -22.331701 -0.086937
-154.491791 123.591980 -22.331701 -0.032985
-141.008499 123.591980 -22.331701 -0.015526
-127.525192 123.591980 -22.331701 -0.001070
-114.041885 123.591980 -22.331701 0.030017
-100.558594 123.591980 -22.331701 0.073011
-87.075287 123.591980 -22.331701 0.047743
-73.591980 123.591980 -22.331701 0.040898
-60.108704 123.591980 -22.331701 0.034285
-46.625397 123.591980 -22.331701 0.030890
-33.142090 123.591980 -22.331701 0.019483
-19.658783 123.591980 -22.331701 0.002977
-6.175476 123.591980 -22.331701 -0.025865
7.307800 123.591980 -22.331701 -0.054708
20.791107 123.591980 -22.331701 -0.075763
34.274414 123.591980 -22.331701 -0.084401
47.757721 123.591980 -22.331701 -0.070000
61.240997 123.591980 -22.331701 -0.047983
74.724304 123.591980 -22.331701 -0.036546
88.207611 123.591980 -22.331701 -0.021548
101.690918 123.591980 -22.331701 -0.013887
115.174225 123.591980 -22.331701 -0.002206
128.657501 123.591980 -22.331701 0.002074
142.140808 123.591980 -22.331701 0.003367
155.624115 123.591980 -22.331701 -0.003472
169.107422 123.591980 -22.331701 -0.002576
182.590698 123.591980 -22.331701 -0.003469
196.074036 123.591980 -22.331701 -0.002472
209.557312 123.591980 -22.331701 -0.005953
223.040588 123.591980 -22.331701 -0.008835
236.523926 123.591980 -22.331701 -0.008264
250.007202 123.591980 -22.331701 -0.007462
263.490540 123.591980 -22.331701 -0.005718
276.973816 123.591980 -22.331701 -0.004459
290.457092 123.591980 -22.331701 -0.003932
303.940430 123.591980 -22.331701 -0.002793
317.423706 123.591980 -22.331701 -0.002323
330.907043 123.591980 -22.331701 0.000000
344.390320 123.591980 -22.331701 0.000000
-343.257996 110.108704 -22.331701 0.000000
-329.774689 110.108704 -22.331701 0.000000
-316.291382 110.108704 -22.331701 -0.005592
-302.808105 110.108704 -22.331701 -0.007734
-289.324799 110.108704 -22.331701 -0.010405
-275.841492 110.108704 -22.331701 -0.014658
-262.358185 110.108704 -22.331701 -0.021783
-248.874893 110.108704 -22.331701 -0.032110
-235.391602 110.108704 -22.331701 -0.046814
-221.908295 110.108704 -22.331701 -0.055780
-208.424988 110.108704 -22.331701 -0.068880
-194.941696 110.108704 -22.331701 -0.097360
-181.458389 110.108704 -22.331701 -0.102836
-167.975098 110.108704 -22.331701 -0.075031
-154.491791 110.108704 -22.331701 -0.055291
-141.008499 110.108704 -22.331701 -0.025912
-127.525192 110.108704 -22.331701 0.016286
-114.041885 110.108704 -22.331701 0.039544
-100.558594 110.108704 -22.331701 0.070470
-87.075287 110.108704 -22.331701 0.072519
-73.591980 110.108704 -22.331701 0.063902
-60.108704 110.108704 -22.331701 0.034893
-46.625397 110.108704 -22.331701 0.032688
-33.142090 110.108704 -22.331701 0.017744
-19.658783 110.108704 -22.331701 -0.015517
-6.175476 110.108704 -22.331701 -0.039907
7.307800 110.108704 -22.331701 -0.066950
20.791107 110.108704 -22.331701 -0.071632
34.274414 110.108704 -22.331701 -0.067947
47.757721 110.108704 -22.331701 -0.051093
61.240997 110.108704 -22.331701 -0.033675
74.724304 110.108704 -22.331701 -0.018447
88.207611 110.108704 -22.331701 -0.005359
101.690918 110.108704 -22.331701 -0.004951
115.174225 110.108704 -22.331701 0.000060
128.657501 110.108704 -22.331701 -0.001047
142.140808 110.108704 -22.331701 0.003819
155.624115 110.108704 -22.331701 0.001398
169.107422 110.108704 -22.331701 -0.000405
182.590698 110.108704 -22.331701 -0.003593
196.074036 110.108704 -22.331701 -0.003145
209.557312 110.108704 -22.331701 -0.005533
223.040588 110.108704 -22.331701 -0.008245
236.523926 110.108704 -22.331701 -0.006886
250.007202 110.108704 -22.331701 -0.005839
263.490540 110.108704 -22.331701 -0.004661
276.973816 110.108704 -22.331701 -0.002944
290.457092 110.108704 -22.331701 -0.002583
303.940430 110.108704 -22.331701 -0.002070
317.423706 110.108704 -22.331701 -0.001816
330.907043 110.108704 -22.331701 0.000000
344.390320 110.108704 -22.331701 0.000000
-343.257996 96.625397 -22.331701 0.000000
-329.774689 96.625397 -22.331701 0.000000
-316.291382 96.625397 -22.331701 -0.005426
-302.808105 96.625397 -22.331701 -0.007217
-289.324799 96.625397 -22.331701 -0.010127
-275.841492 96.625397 -22.331701 -0.014311
-262.358185 96.625397 -22.331701 -0.023144
-248.874893 96.625397 -22.331701 -0.034186
-235.391602 96.625397 -22.331701 -0.043639
-221.908295 96.625397 -22.331701 -0.056619
-208.424988 96.625397 -22.331701 -0.068567
-194.941696 96.625397 -22.331701 -0.091635
-181.458389 96.625397 -22.331701 -0.093430
-167.975098 96.625397 -22.331701 -0.079937
-154.491791 96.625397 -22.331701 -0.042944
-141.008499 96.625397 -22.331701 -0.024631
-127.525192 96.625397 -22.331701 0.012382
-114.041885 96.625397 -22.331701 0.039545
-100.558594 96.625397 -22.331701 0.058139
-87.075287 96.625397 -22.331701 0.048906
-73.591980 96.625397 -22.331701 0.039023
-60.108704 96.625397 -22.331701 0.019531
-46.625397 96.625397 -22.331701 -0.008087
-33.142090 96.625397 -22.331701 -0.036405
-19.658783 96.625397 -22.331701 -0.042736
-6.175476 96.625397 -22.331701 -0.060625
7.307800 96.625397 -22.331701 -0.065389
20.791107 96.625397 -22.331701 -0.064572
34.274414 96.625397 -22.331701 -0.053993
47.757721 96.625397 -22.331701 -0.035439
61.240997 96.625397 -22.331701 -0.014438
74.724304 96.625397 -22.331701 0.004731
88.207611 96.625397 -22.331701 0.004259
101.690918 96.625397 -22.331701 0.002135
115.174225 96.625397 -22.331701 0.005088
128.657501 96.625397 -22.331701 0.006016
142.140808 96.625397 -22.331701 0.006964
155.624115 96.625397 -22.331701 0.002690
169.107422 96.625397 -22.331701 -0.001482
182.590698 96.625397 -22.331701 -0.002563
196.074036 96.625397 -22.331701 -0.004287
209.557312 96.625397 -22.331701 -0.004173
223.040588 96.625397 -22.331701 -0.005001
236.523926 96.625397 -22.331701 -0.005094
250.007202 96.625397 -22.331701 -0.004418
263.490540 96.625397 -22.331701 -0.003261
276.973816 96.625397 -22.331701 -0.002321
290.457092 96.625397 -22.331701 -0.001861
303.940430 96.625397 -22.331701 -0.001647
317.423706 96.625397 -22.331701 -0.001601
330.907043 96.625397 -22.331701 0.000000
344.390320 96.625397 -22.331701 0.000000
-343.257996 83.142090 -22.331701 0.000000
-329.774689 83.142090 -22.331701 0.000000
-316.291382 83.142090 -22.331701 -0.005306
-302.808105 83.142090 -22.331701 -0.006528
-289.324799 83.142090 -22.331701 -0.009580
-275.841492 83.142090 -22.331701 -0.015065
-262.358185 83.142090 -22.331701 -0.021555
-248.874893 83.142090 -22.331701 -0.035031
-235.391602 83.142090 -22.331701 -0.047341
-221.908295 83.142090 -22.331701 -0.064933
-208.424988 83.142090 -22.331701 -0.074216
-194.941696 83.142090 -22.331701 -0.087547
-181.458389 83.142090 -22.331701 -0.088845
-167.975098 83.142090 -22.331701 -0.077315
-154.491791 83.142090 -22.331701 -0.052190
-141.008499 83.142090 -22.331701 -0.028035
-127.525192 83.142090 -22.331701 -0.008377
-114.041885 83.142090 -22.331701 0.032543
-100.558594 83.142090 -22.331701 0.049430
-87.075287 83.142090 -22.331701 0.034680
-73.591980 83.142090 -22.331701 0.007326
-60.108704 83.142090 -22.331701 -0.009757
-46.625397 83.142090 -22.331701 -0.030040
-33.142090 83.142090 -22.331701 -0.049842
-19.658783 83.142090 -22.331701 -0.068448
-6.175476 83.142090 -22.331701 -0.070610
7.307800 83.142090 -22.331701 -0.076237
20.791107 83.142090 -22.331701 -0.074003
34.274414 83.142090 -22.331701 -0.051743
47.757721 83.142090 -22.331701 -0.013094
61.240997 83.142090 -22.331701 0.004317
74.724304 83.142090 -22.331701 0.014229
88.207611 83.142090 -22.331701 0.018080
101.690918 83.142090 -22.331701 0.012206
115.174225 83.142090 -22.331701 0.007240
128.657501 83.142090 -22.331701 0.005512
142.140808 83.142090 -22.331701 0.011386
155.624115 83.142090 -22.331701 0.004973
169.107422 83.142090 -22.331701 0.002064
182.590698 83.142090 -22.331701 -0.001742
196.074036 83.142090 -22.331701 -0.001354
209.557312 83.142090 -22.331701 -0.002218
223.040588 83.142090 -22.331701 -0.003108
236.523926 83.142090 -22.331701 -0.003023
250.007202 83.142090 -22.331701 -0.003073
263.490540 83.142090 -22.331701 -0.002280
276.973816 83.142090 -22.331701 -0.001634
290.457092 83.142090 -22.331701 -0.001425
303.940430 83.142090 -22.331701 -0.001432
317.423706 83.142090 -22.331701 -0.001303
330.907043 83.142090 -22.331701 0.000000
344.390320 83.142090 -22.331701 0.000000
-343.257996 69.658783 -22.331701 0.000000
-329.774689 69.658783 -22.331701 0.000000
-316.291382 69.658783 -22.331701 -0.005225
-302.808105 69.658783 -22.331701 -0.006172
-289.324799 69.658783 -22.331701 -0.007319
-275.841492 69.658783 -22.331701 -0.012208
-262.358185 69.658783 -22.331701 -0.020620
-248.874893 69.658783 -22.331701 -0.030331
-235.391602 69.658783 -22.331701 -0.035883
-221.908295 69.658783 -22.331701 -0.052978
-208.424988 69.658783 -22.331701 -0.078280
-194.941696 69.658783 -22.331701 -0.082109
-181.458389 69.658783 -22.331701 -0.090753
-167.975098 69.658783 -22.331701 -0.077927
-154.491791 69.658783 -22.331701 -0.059690
-141.008499 69.658783 -22.331701 -0.026657
-127.525192 69.658783 -22.331701 0.022538
-114.041885 69.658783 -22.331701 0.050930
-100.558594 69.658783 -22.331701 0.044489
-87.075287 69.658783 -22.331701 0.010275
-73.591980 69.658783 -22.331701 -0.004892
-60.108704 69.658783 -22.331701 -0.006384
-46.625397 69.658783 -22.331701 -0.034276
-33.142090 69.658783 -22.331701 -0.055606
-19.658783 69.658783 -22.331701 -0.078795
-6.175476 69.658783 -22.331701 -0.086791
7.307800 69.658783 -22.331701 -0.077866
20.791107 69.658783 -22.331701 -0.083954
34.274414 69.658783 -22.331701 -0.039460
47.757721 69.658783 -22.331701 -0.003984
61.240997 69.658783 -22.331701 0.015552
74.724304 69.658783 -22.331701 0.026115
88.207611 69.658783 -22.331701 0.023991
101.690918 69.658783 -22.331701 0.019773
115.174225 69.658783 -22.331701 0.014272
128.657501 69.658783 -22.331701 0.012061
142.140808 69.658783 -22.331701 0.014233
155.624115 69.658783 -22.331701 0.009448
169.107422 69.658783 -22.331701 0.006281
182.590698 69.658783 -22.331701 0.002473
196.074036 69.658783 -22.331701 0.001440
209.557312 69.658783 -22.331701 -0.000026
223.040588 69.658783 -22.331701 -0.001006
236.523926 69.658783 -22.331701 -0.001432
250.007202 69.658783 -22.331701 -0.001486
263.490540 69.658783 -22.331701 -0.001427
276.973816 69.658783 -22.331701 -0.001259
290.457092 69.658783 -22.331701 -0.001025
303.940430 69.658783 -22.331701 -0.001053
317.423706 69.658783 -22.331701 -0.001242
330.907043 69.658783 -22.331701 0.000000
344.390320 69.658783 -22.331701 0.000000
-343.257996 56.175476 -22.331701 0.000000
-329.774689 56.175476 -22.331701 0.000000
-316.291382 56.175476 -22.331701 -0.003215
-302.808105 56.175476 -22.331701 -0.004199
-289.324799 56.175476 -22.331701 -0.005912
-275.841492 56.175476 -22.331701 -0.008842
-262.358185 56.175476 -22.331701 -0.012013
-248.874893 56.175476 -22.331701 -0.020818
-235.391602 56.175476 -22.331701 -0.034465
-221.908295 56.175476 -22.331701 -0.051544
-208.424988 56.175476 -22.331701 -0.068791
-194.941696 56.175476 -22.331701 -0.078963
-181.458389 56.175476 -22.331701 -0.091515
-167.975098 56.175476 -22.331701 -0.072007
-154.491791 56.175476 -22.331701 -0.052798
-141.008499 56.175476 -22.331701 -0.028885
-127.525192 56.175476 -22.331701 0.019955
-114.041885 56.175476 -22.331701 0.049970
-100.558594 56.175476 -22.331701 0.051968
-87.075287 56.175476 -22.331701 0.001712
-73.591980 56.175476 -22.331701 -0.020366
-60.108704 56.175476 -22.331701 -0.029934
-46.625397 56.175476 -22.331701 -0.052963
-33.142090 56.175476 -22.331701 -0.076280
-19.658783 56.175476 -22.331701 -0.090573
-6.175476 56.175476 -22.331701 -0.093185
7.307800 56.175476 -22.331701 -0.082581
20.791107 56.175476 -22.331701 -0.088077
34.274414 56.175476 -22.331701 -0.037587
47.757721 56.175476 -22.331701 -0.001801
61.240997 56.175476 -22.331701 0.027554
74.724304 56.175476 -22.331701 0.029511
88.207611 56.175476 -22.331701 0.032601
101.690918 56.175476 -22.331701 0.023542
115.174225 56.175476 -22.331701 0.021199
128.657501 56.175476 -22.331701 0.022043
142.140808 56.175476 -22.331701 0.020531
155.624115 56.175476 -22.331701 0.015494
169.107422 56.175476 -22.331701 0.013788
182.590698 56.175476 -22.331701 0.011382
196.074036 56.175476 -22.331701 0.006607
209.557312 56.175476 -22.331701 0.003792
223.040588 56.175476 -22.331701 0.001778
236.523926 56.175476 -22.331701 0.000001
250.007202 56.175476 -22.331701 -0.000340
263.490540 56.175476 -22.331701 -0.000946
276.973816 56.175476 -22.331701 -0.000923
290.457092 56.175476 -22.331701 -0.000694
303.940430 56.175476 -22.331701 -0.001078
317.423706 56.175476 -22.331701 -0.001222
330.907043 56.175476 -22.331701 0.000000
344.390320 56.175476 -22.331701 0.000000
-343.257996 42.692200 -22.331701 0.000000
-329.774689 42.692200 -22.331701 0.000000
-316.291382 42.692200 -22.331701 -0.001850
-302.808105 42.692200 -22.331701 -0.002109
-289.324799 42.692200 -22.331701 -0.003606
-275.841492 42.692200 -22.331701 -0.004402
-262.358185 42.692200 -22.331701 -0.006871
-248.874893 42.692200 -22.331701 -0.016075
-235.391602 42.692200 -22.331701 -0.021915
-221.908295 42.692200 -22.331701 -0.042492
-208.424988 42.692200 -22.331701 -0.059353
-194.941696 42.692200 -22.331701 -0.082570
-181.458389 42.692200 -22.331701 -0.090332
-167.975098 42.692200 -22.331701 -0.075686
-154.491791 42.692200 -22.331701 -0.044585
-141.008499 42.692200 -22.331701 -0.036927
-127.525192 42.692200 -22.331701 0.022282
-114.041885 42.692200 -22.331701 0.043100
-100.558594 42.692200 -22.331701 0.016525
-87.075287 42.692200 -22.331701 -0.023973
-73.591980 42.692200 -22.331701 -0.026861
-60.108704 42.692200 -22.331701 -0.033683
-46.625397 42.692200 -22.331701 -0.054667
-33.142090 42.692200 -22.331701 -0.077401
-19.658783 42.692200 -22.331701 -0.085570
-6.175476 42.692200 -22.331701 -0.099985
7.307800 42.692200 -22.331701 -0.100480
20.791107 42.692200 -22.331701 -0.085712
34.274414 42.692200 -22.331701 -0.040770
47.757721 42.692200 -22.331701 -0.006461
61.240997 42.692200 -22.331701 0.024874
74.724304 42.692200 -22.331701 0.026799
88.207611 42.692200 -22.331701 0.031242
101.690918 42.692200 -22.331701 0.027059
115.174225 42.692200 -22.331701 0.024770
128.657501 42.692200 -22.331701 0.025003
142.140808 42.692200 -22.331701 0.024955
155.624115 42.692200 -22.331701 0.025198
169.107422 42.692200 -22.331701 0.022401
182.590698 42.692200 -22.331701 0.018406
196.074036 42.692200 -22.331701 0.013297
209.557312 42.692200 -22.331701 0.008038
223.040588 42.692200 -22.331701 0.004470
236.523926 42.692200 -22.331701 0.001816
250.007202 42.692200 -22.331701 0.000502
263.490540 42.692200 -22.331701 -0.000209
276.973816 42.692200 -22.331701 -0.000568
290.457092 42.692200 -22.331701 -0.000700
303.940430 42.692200 -22.331701 -0.001103
317.423706 42.692200 -22.331701 -0.001179
330.907043 42.692200 -22.331701 0.000000
344.390320 42.692200 -22.331701 0.000000
-343.257996 29.208893 -22.331701 0.000000
-329.774689 29.208893 -22.331701 0.000000
-316.291382 29.208893 -22.331701 -0.000512
-302.808105 29.208893 -22.331701 0.000781
-289.324799 29.208893 -22.331701 0.001321
-275.841492 29.208893 -22.331701 0.003311
-262.358185 29.208893 -22.331701 0.000944
-248.874893 29.208893 -22.331701 -0.002289
-235.391602 29.208893 -22.331701 -0.009992
-221.908295 29.208893 -22.331701 -0.019171
-208.424988 29.208893 -22.331701 -0.066958
-194.941696 29.208893 -22.331701 -0.067005
-181.458389 29.208893 -22.331701 -0.071958
-167.975098 29.208893 -22.331701 -0.071794
-154.491791 29.208893 -22.331701 -0.056953
-141.008499 29.208893 -22.331701 -0.058203
-127.525192 29.208893 -22.331701 -0.000371
-114.041885 29.208893 -22.331701 0.017577
-100.558594 29.208893 -22.331701 -0.002396
-87.075287 29.208893 -22.331701 -0.031838
-73.591980 29.208893 -22.331701 -0.032190
-60.108704 29.208893 -22.331701 -0.046540
-46.625397 29.208893 -22.331701 -0.053594
-33.142090 29.208893 -22.331701 -0.077841
-19.658783 29.208893 -22.331701 -0.080908
-6.175476 29.208893 -22.331701 -0.102070
7.307800 29.208893 -22.331701 -0.112573
20.791107 29.208893 -22.331701 -0.080399
34.274414 29.208893 -22.331701 -0.043233
47.757721 29.208893 -22.331701 -0.018151
61.240997 29.208893 -22.331701 0.006325
74.724304 29.208893 -22.331701 0.023237
88.207611 29.208893 -22.331701 0.024907
101.690918 29.208893 -22.331701 0.029964
115.174225 29.208893 -22.331701 0.031040
128.657501 29.208893 -22.331701 0.028909
142.140808 29.208893 -22.331701 0.031744
155.624115 29.208893 -22.331701 0.036817
169.107422 29.208893 -22.331701 0.031694
182.590698 29.208893 -22.331701 0.026853
196.074036 29.208893 -22.331701 0.019186
209.557312 29.208893 -22.331701 0.011832
223.040588 29.208893 -22.331701 0.007632
236.523926 29.208893 -22.331701 0.003541
250.007202 29.208893 -22.331701 0.001680
263.490540 29.208893 -22.331701 0.000640
276.973816 29.208893 -22.331701 0.000198
290.457092 29.208893 -22.331701 -0.000635
303.940430 29.208893 -22.331701 -0.001018
317.423706 29.208893 -22.331701 -0.001340
330.907043 29.208893 -22.331701 0.000000
344.390320 29.208893 -22.331701 0.000000
-343.257996 15.725586 -22.331701 0.000000
-329.774689 15.725586 -22.331701 0.000000
-316.291382 15.725586 -22.331701 0.002038
-302.808105 15.725586 -22.331701 0.004769
-289.324799 15.725586 -22.331701 0.004749
-275.841492 15.725586 -22.331701 0.007421
-262.358185 15.725586 -22.331701 0.009625
-248.874893 15.725586 -22.331701 0.013605
-235.391602 15.725586 -22.331701 0.002271
-221.908295 15.725586 -22.331701 -0.004896
-208.424988 15.725586 -22.331701 -0.041399
-194.941696 15.725586 -22.331701 -0.048878
-181.458389 15.725586 -22.331701 -0.053592
-167.975098 15.725586 -22.331701 -0.050454
-154.491791 15.725586 -22.331701 -0.034178
-141.008499 15.725586 -22.331701 -0.054406
-127.525192 15.725586 -22.331701 -0.010732
-114.041885 15.725586 -22.331701 -0.006854
-100.558594 15.725586 -22.331701 -0.003202
-87.075287 15.725586 -22.331701 -0.027751
-73.591980 15.725586 -22.331701 -0.038216
-60.108704 15.725586 -22.331701 -0.044480
-46.625397 15.725586 -22.331701 -0.061697
-33.142090 15.725586 -22.331701 -0.062390
-19.658783 15.725586 -22.331701 -0.079791
-6.175476 15.725586 -22.331701 -0.076363
7.307800 15.725586 -22.331701 -0.091542
20.791107 15.725586 -22.331701 -0.087796
34.274414 15.725586 -22.331701 -0.056130
47.757721 15.725586 -22.331701 -0.025848
61.240997 15.725586 -22.331701 0.007093
74.724304 15.725586 -22.331701 0.025249
88.207611 15.725586 -22.331701 0.022869
101.690918 15.725586 -22.331701 0.028053
115.174225 15.725586 -22.331701 0.030341
128.657501 15.725586 -22.331701 0.034129
142.140808 15.725586 -22.331701 0.038093
155.624115 15.725586 -22.331701 0.040532
169.107422 15.725586 -22.331701 0.037488
182.590698 15.725586 -22.331701 0.031924
196.074036 15.725586 -22.331701 0.023467
209.557312 15.725586 -22.331701 0.015267
223.040588 15.725586 -22.331701 0.008985
236.523926 15.725586 -22.331701 0.004712
250.007202 15.725586 -22.331701 0.002727
263.490540 15.725586 -22.331701 0.001453
276.973816 15.725586 -22.331701 0.000379
290.457092 15.725586 -22.331701 -0.000135
303.940430 15.725586 -22.331701 -0.000660
317.423706 15.725586 -22.331701 -0.000647
330.907043 15.725586 -22.331701 0.000000
344.390320 15.725586 -22.331701 0.000000
-343.257996 2.242279 -22.331701 0.000000
-329.774689 2.242279 -22.331701 0.000000
-316.291382 2.242279 -22.331701 0.004095
-302.808105 2.242279 -22.331701 0.007619
-289.324799 2.242279 -22.331701 0.008532
-275.841492 2.242279 -22.331701 0.011356
-262.358185 2.242279 -22.331701 0.017030
-248.874893 2.242279 -22.331701 0.026882
-235.391602 2.242279 -22.331701 0.025433
-221.908295 2.242279 -22.331701 0.022039
-208.424988 2.242279 -22.331701 -0.014870
-194.941696 2.242279 -22.331701 -0.023680
-181.458389 2.242279 -22.331701 -0.028774
-167.975098 2.242279 -22.331701 -0.049441
-154.491791 2.242279 -22.331701 -0.020853
-141.008499 2.242279 -22.331701 -0.021297
-127.525192 2.242279 -22.331701 -0.020666
-114.041885 2.242279 -22.331701 -0.025786
-100.558594 2.242279 -22.331701 -0.019882
-87.075287 2.242279 -22.331701 -0.021480
-73.591980 2.242279 -22.331701 -0.026490
-60.108704 2.242279 -22.331701 -0.038689
-46.625397 2.242279 -22.331701 -0.044601
-33.142090 2.242279 -22.331701 -0.060050
-19.658783 2.242279 -22.331701 -0.065865
-6.175476 2.242279 -22.331701 -0.062179
7.307800 2.242279 -22.331701 -0.081232
20.791107 2.242279 -22.331701 -0.092107
34.274414 2.242279 -22.331701 -0.068259
47.757721 2.242279 -22.331701 -0.027070
61.240997 2.242279 -22.331701 0.003432
74.724304 2.242279 -22.331701 0.013199
88.207611 2.242279 -22.331701 0.025516
101.690918 2.242279 -22.331701 0.022719
115.174225 2.242279 -22.331701 0.028474
128.657501 2.242279 -22.331701 0.028908
142.140808 2.242279 -22.331701 0.032880
155.624115 2.242279 -22.331701 0.038322
169.107422 2.242279 -22.331701 0.036279
182.590698 2.242279 -22.331701 0.032737
196.074036 2.242279 -22.331701 0.025927
209.557312 2.242279 -22.331701 0.015549
223.040588 2.242279 -22.331701 0.009544
236.523926 2.242279 -22.331701 0.005870
250.007202 2.242279 -22.331701 0.003252
263.490540 2.242279 -22.331701 0.001832
276.973816 2.242279 -22.331701 0.000983
290.457092 2.242279 -22.331701 0.000700
303.940430 2.242279 -22.331701 0.000246
317.423706 2.242279 -22.331701 -0.000040
330.907043 2.242279 -22.331701 0.000000
344.390320 2.242279 -22.331701 0.000000
-343.257996 -11.240997 -22.331701 0.000000
-329.774689 -11.240997 -22.331701 0.000000
-316.291382 -11.240997 -22.331701 0.005917
-302.808105 -11.240997 -22.331701 0.009042
-289.324799 -11.240997 -22.331701 0.012224
-275.841492 -11.240997 -22.331701 0.020692
-262.358185 -11.240997 -22.331701 0.023689
-248.874893 -11.240997 -22.331701 0.034933
-235.391602 -11.240997 -22.331701 0.029368
-221.908295 -11.240997 -22.331701 0.029116
-208.424988 -11.240997 -22.331701 0.010222
-194.941696 -11.240997 -22.331701 -0.037690
-181.458389 -11.240997 -22.331701 -0.025520
-167.975098 -11.240997 -22.331701 -0.018403
-154.491791 -11.240997 -22.331701 -0.020760
-141.008499 -11.240997 -22.331701 -0.019033
-127.525192 -11.240997 -22.331701 -0.022160
-114.041885 -11.240997 -22.331701 -0.020204
-100.558594 -11.240997 -22.331701 -0.022415
-87.075287 -11.240997 -22.331701 -0.029308
-73.591980 -11.240997 -22.331701 -0.019613
-60.108704 -11.240997 -22.331701 -0.042873
-46.625397 -11.240997 -22.331701 -0.039033
-33.142090 -11.240997 -22.331701 -0.057346
-19.658783 -11.240997 -22.331701 -0.087957
-6.175476 -11.240997 -22.331701 -0.086367
7.307800 -11.240997 -22.331701 -0.086943
20.791107 -11.240997 -22.331701 -0.086319
34.274414 -11.240997 -22.331701 -0.074999
47.757721 -11.240997 -22.331701 -0.045884
61.240997 -11.240997 -22.331701 -0.010090
74.724304 -11.240997 -22.331701 0.005677
88.207611 -11.240997 -22.331701 0.017232
101.690918 -11.240997 -22.331701 0.019570
115.174225 -11.240997 -22.331701 0.019315
128.657501 -11.240997 -22.331701 0.027437
142.140808 -11.240997 -22.331701 0.029834
155.624115 -11.240997 -22.331701 0.032177
169.107422 -11.240997 -22.331701 0.036093
182.590698 -11.240997 -22.331701 0.033645
196.074036 -11.240997 -22.331701 0.028953
209.557312 -11.240997 -22.331701 0.018131
223.040588 -11.240997 -22.331701 0.011515
236.523926 -11.240997 -22.331701 0.006332
250.007202 -11.240997 -22.331701 0.003582
263.490540 -11.240997 -22.331701 0.002025
276.973816 -11.240997 -22.331701 0.000867
290.457092 -11.240997 -22.331701 0.000465
303.940430 -11.240997 -22.331701 0.000423
317.423706 -11.240997 -22.331701 0.000389
330.907043 -11.240997 -22.331701 0.000000
344.390320 -11.240997 -22.331701 0.000000
-343.257996 -24.724304 -22.331701 0.000000
-329.774689 -24.724304 -22.331701 0.000000
-316.291382 -24.724304 -22.331701 0.009622
-302.808105 -24.724304 -22.331701 0.012573
-289.324799 -24.724304 -22.331701 0.017505
-275.841492 -24.724304 -22.331701 0.024439
-262.358185 -24.724304 -22.331701 0.035316
-248.874893 -24.724304 -22.331701 0.044999
-235.391602 -24.724304 -22.331701 0.038744
-221.908295 -24.724304 -22.331701 0.029585
-208.424988 -24.724304 -22.331701 0.014541
-194.941696 -24.724304 -22.331701 -0.033282
-181.458389 -24.724304 -22.331701 -0.053274
-167.975098 -24.724304 -22.331701 -0.008091
-154.491791 -24.724304 -22.331701 0.000786
-141.008499 -24.724304 -22.331701 0.009517
-127.525192 -24.724304 -22.331701 -0.013129
-114.041885 -24.724304 -22.331701 -0.015782
-100.558594 -24.724304 -22.331701 -0.022640
-87.075287 -24.724304 -22.331701 -0.019072
-73.591980 -24.724304 -22.331701 -0.015582
-60.108704 -24.724304 -22.331701 -0.034918
-46.625397 -24.724304 -22.331701 0.000000
-33.142090 -24.724304 -22.331701 -0.058523
-19.658783 -24.724304 -22.331701 -0.083602
-6.175476 -24.724304 -22.331701 -0.098140
7.307800 -24.724304 -22.331701 -0.113034
20.791107 -24.724304 -22.331701 -0.096824
34.274414 -24.724304 -22.331701 -0.074106
47.757721 -24.724304 -22.331701 -0.033725
61.240997 -24.724304 -22.331701 -0.009933
74.724304 -24.724304 -22.331701 0.001791
88.207611 -24.724304 -22.331701 0.002236
101.690918 -24.724304 -22.331701 0.005770
115.174225 -24.724304 -22.331701 0.011593
128.657501 -24.724304 -22.331701 0.012327
142.140808 -24.724304 -22.331701 0.018484
155.624115 -24.724304 -22.331701 0.028236
169.107422 -24.724304 -22.331701 0.031870
182.590698 -24.724304 -22.331701 0.033800
196.074036 -24.724304 -22.331701 0.028106
209.557312 -24.724304 -22.331701 0.018279
223.040588 -24.724304 -22.331701 0.013111
236.523926 -24.724304 -22.331701 0.007779
250.007202 -24.724304 -22.331701 0.004258
263.490540 -24.724304 -22.331701 0.002170
276.973816 -24.724304 -22.331701 0.000894
290.457092 -24.724304 -22.331701 0.000327
303.940430 -24.724304 -22.331701 0.000334
317.423706 -24.724304 -22.331701 0.000335
330.907043 -24.724304 -22.331701 0.000000
344.390320 -24.724304 -22.331701 0.000000
-343.257996 -38.207611 -22.331701 0.000000
-329.774689 -38.207611 -22.331701 0.000000
-316.291382 -38.207611 -22.331701 0.011440
-302.808105 -38.207611 -22.331701 0.015568
-289.324799 -38.207611 -22.331701 0.025251
-275.841492 -38.207611 -22.331701 0.029006
-262.358185 -38.207611 -22.331701 0.035898
-248.874893 -38.207611 -22.331701 0.046998
-235.391602 -38.207611 -22.331701 0.042565
-221.908295 -38.207611 -22.331701 0.038511
-208.424988 -38.207611 -22.331701 0.013021
-194.941696 -38.207611 -22.331701 -0.032370
-181.458389 -38.207611 -22.331701 -0.019107
-167.975098 -38.207611 -22.331701 -0.018252
-154.491791 -38.207611 -22.331701 -0.002805
-141.008499 -38.207611 -22.331701 -0.013006
-127.525192 -38.207611 -22.331701 -0.037291
-114.041885 -38.207611 -22.331701 -0.028075
-100.558594 -38.207611 -22.331701 -0.037335
-87.075287 -38.207611 -22.331701 -0.037337
-73.591980 -38.207611 -22.331701 -0.035991
-60.108704 -38.207611 -22.331701 -0.031990
-46.625397 -38.207611 -22.331701 -0.047673
-33.142090 -38.207611 -22.331701 -0.073892
-19.658783 -38.207611 -22.331701 -0.095508
-6.175476 -38.207611 -22.331701 -0.105931
7.307800 -38.207611 -22.331701 -0.114141
20.791107 -38.207611 -22.331701 -0.106670
34.274414 -38.207611 -22.331701 -0.073852
47.757721 -38.207611 -22.331701 -0.027845
61.240997 -38.207611 -22.331701 -0.019894
74.724304 -38.207611 -22.331701 -0.009430
88.207611 -38.207611 -22.331701 -0.008270
101.690918 -38.207611 -22.331701 -0.001479
115.174225 -38.207611 -22.331701 0.000609
128.657501 -38.207611 -22.331701 0.005312
142.140808 -38.207611 -22.331701 0.010683
155.624115 -38.207611 -22.331701 0.018072
169.107422 -38.207611 -22.331701 0.024981
182.590698 -38.207611 -22.331701 0.027211
196.074036 -38.207611 -22.331701 0.023365
209.557312 -38.207611 -22.331701 0.017582
223.040588 -38.207611 -22.331701 0.012605
236.523926 -38.207611 -22.331701 0.008113
250.007202 -38.207611 -22.331701 0.004119
263.490540 -38.207611 -22.331701 0.002411
276.973816 -38.207611 -22.331701 0.000667
290.457092 -38.207611 -22.331701 0.000390
303.940430 -38.207611 -22.331701 0.000105
317.423706 -38.207611 -22.331701 0.000207
330.907043 -38.207611 -22.331701 0.000000
344.390320 -38.207611 -22.331701 0.000000
-343.257996 -51.690918 -22.331701 0.000000
-329.774689 -51.690918 -22.331701 0.000000
-316.291382 -51.690918 -22.331701 0.000000
-302.808105 -51.690918 -22.331701 0.015864
-289.324799 -51.690918 -22.331701 0.022673
-275.841492 -51.690918 -22.331701 0.033972
-262.358185 -51.690918 -22.331701 0.045122
-248.874893 -51.690918 -22.331701 0.050882
-235.391602 -51.690918 -22.331701 0.047009
-221.908295 -51.690918 -22.331701 0.037910
-208.424988 -51.690918 -22.331701 0.020824
-194.941696 -51.690918 -22.331701 0.004590
-181.458389 -51.690918 -22.331701 -0.023280
-167.975098 -51.690918 -22.331701 -0.020806
-154.491791 -51.690918 -22.331701 -0.020598
-141.008499 -51.690918 -22.331701 -0.048628
-127.525192 -51.690918 -22.331701 -0.055784
-114.041885 -51.690918 -22.331701 -0.046229
-100.558594 -51.690918 -22.331701 -0.030816
-87.075287 -51.690918 -22.331701 -0.046557
-73.591980 -51.690918 -22.331701 -0.037369
-60.108704 -51.690918 -22.331701 -0.056476
-46.625397 -51.690918 -22.331701 -0.073385
-33.142090 -51.690918 -22.331701 -0.072931
-19.658783 -51.690918 -22.331701 -0.089296
-6.175476 -51.690918 -22.331701 -0.103661
7.307800 -51.690918 -22.331701 -0.096777
20.791107 -51.690918 -22.331701 -0.086709
34.274414 -51.690918 -22.331701 -0.063746
47.757721 -51.690918 -22.331701 -0.037707
61.240997 -51.690918 -22.331701 -0.024096
74.724304 -51.690918 -22.331701 -0.012038
88.207611 -51.690918 -22.331701 -0.015000
101.690918 -51.690918 -22.331701 -0.010831
115.174225 -51.690918 -22.331701 -0.009721
128.657501 -51.690918 -22.331701 -0.004153
142.140808 -51.690918 -22.331701 -0.000327
155.624115 -51.690918 -22.331701 0.005824
169.107422 -51.690918 -22.331701 0.011174
182.590698 -51.690918 -22.331701 0.015747
196.074036 -51.690918 -22.331701 0.016219
209.557312 -51.690918 -22.331701 0.011586
223.040588 -51.690918 -22.331701 0.008781
236.523926 -51.690918 -22.331701 0.007104
250.007202 -51.690918 -22.331701 0.004420
263.490540 -51.690918 -22.331701 0.002488
276.973816 -51.690918 -22.331701 0.000871
290.457092 -51.690918 -22.331701 0.000435
303.940430 -51.690918 -22.331701 0.000112
317.423706 -51.690918 -22.331701 0.000120
330.907043 -51.690918 -22.331701 0.000000
344.390320 -51.690918 -22.331701 0.000000
-343.257996 -65.174225 -22.331701 0.000000
-329.774689 -65.174225 -22.331701 0.000000
-316.291382 -65.174225 -22.331701 0.000000
-302.808105 -65.174225 -22.331701 0.000000
-289.324799 -65.174225 -22.331701 0.019690
-275.841492 -65.174225 -22.331701 0.000000
-262.358185 -65.174225 -22.331701 0.000000
-248.874893 -65.174225 -22.331701 0.000000
-235.391602 -65.174225 -22.331701 0.000000
-221.908295 -65.174225 -22.331701 0.018440
-208.424988 -65.174225 -22.331701 0.016322
-194.941696 -65.174225 -22.331701 -0.014630
-181.458389 -65.174225 -22.331701 -0.031578
-167.975098 -65.174225 -22.331701 -0.057508
-154.491791 -65.174225 -22.331701 -0.050428
-141.008499 -65.174225 -22.331701 -0.024374
-127.525192 -65.174225 -22.331701 -0.069749
-114.041885 -65.174225 -22.331701 -0.042116
-100.558594 -65.174225 -22.331701 -0.031041
-87.075287 -65.174225 -22.331701 -0.046122
-73.591980 -65.174225 -22.331701 -0.057820
-60.108704 -65.174225 -22.331701 -0.064529
-46.625397 -65.174225 -22.331701 -0.073664
-33.142090 -65.174225 -22.331701 -0.075893
-19.658783 -65.174225 -22.331701 -0.073652
-6.175476 -65.174225 -22.331701 -0.075953
7.307800 -65.174225 -22.331701 -0.084034
20.791107 -65.174225 -22.331701 -0.079964
34.274414 -65.174225 -22.331701 -0.056092
47.757721 -65.174225 -22.331701 -0.032529
61.240997 -65.174225 -22.331701 -0.015928
74.724304 -65.174225 -22.331701 -0.013538
88.207611 -65.174225 -22.331701 -0.011410
101.690918 -65.174225 -22.331701 -0.012020
115.174225 -65.174225 -22.331701 -0.008603
128.657501 -65.174225 -22.331701 -0.005801
142.140808 -65.174225 -22.331701 -0.006110
155.624115 -65.174225 -22.331701 -0.003611
169.107422 -65.174225 -22.331701 -0.002889
182.590698 -65.174225 -22.331701 -0.000114
196.074036 -65.174225 -22.331701 0.002829
209.557312 -65.174225 -22.331701 0.001691
223.040588 -65.174225 -22.331701 0.004051
236.523926 -65.174225 -22.331701 0.004875
250.007202 -65.174225 -22.331701 0.003143
263.490540 -65.174225 -22.331701 0.001841
276.973816 -65.174225 -22.331701 0.001017
290.457092 -65.174225 -22.331701 0.000154
303.940430 -65.174225 -22.331701 0.000109
317.423706 -65.174225 -22.331701 -0.000210
330.907043 -65.174225 -22.331701 0.000000
344.390320 -65.174225 -22.331701 0.000000
-343.257996 -78.657501 -22.331701 0.000000
-329.774689 -78.657501 -22.331701 0.000000
-316.291382 -78.657501 -22.331701 0.000000
-302.808105 -78.657501 -22.331701 0.000000
-289.324799 -78.657501 -22.331701 0.000000
-275.841492 -78.657501 -22.331701 0.000000
-262.358185 -78.657501 -22.331701 0.000000
-248.874893 -78.657501 -22.331701 0.000000
-235.391602 -78.657501 -22.331701 0.000000
-221.908295 -78.657501 -22.331701 0.000000
-208.424988 -78.657501 -22.331701 0.011662
-194.941696 -78.657501 -22.331701 -0.031105
-181.458389 -78.657501 -22.331701 -0.038254
-167.975098 -78.657501 -22.331701 -0.062358
-154.491791 -78.657501 -22.331701 -0.049172
-141.008499 -78.657501 -22.331701 -0.062427
-127.525192 -78.657501 -22.331701 0.000000
-114.041885 -78.657501 -22.331701 -0.059725
-100.558594 -78.657501 -22.331701 -0.063714
-87.075287 -78.657501 -22.331701 -0.038440
-73.591980 -78.657501 -22.331701 -0.047113
-60.108704 -78.657501 -22.331701 -0.043922
-46.625397 -78.657501 -22.331701 -0.051853
-33.142090 -78.657501 -22.331701 -0.048881
-19.658783 -78.657501 -22.331701 -0.057482
-6.175476 -78.657501 -22.331701 -0.059693
7.307800 -78.657501 -22.331701 -0.065059
20.791107 -78.657501 -22.331701 -0.069858
34.274414 -78.657501 -22.331701 -0.048253
47.757721 -78.657501 -22.331701 -0.029683
61.240997 -78.657501 -22.331701 -0.019857
74.724304 -78.657501 -22.331701 -0.014298
88.207611 -78.657501 -22.331701 -0.010707
101.690918 -78.657501 -22.331701 -0.006966
115.174225 -78.657501 -22.331701 -0.006582
128.657501 -78.657501 -22.331701 -0.008129
142.140808 -78.657501 -22.331701 -0.010162
155.624115 -78.657501 -22.331701 -0.009194
169.107422 -78.657501 -22.331701 -0.014499
182.590698 -78.657501 -22.331701 -0.013721
196.074036 -78.657501 -22.331701 -0.010267
209.557312 -78.657501 -22.331701 -0.009091
223.040588 -78.657501 -22.331701 -0.001563
236.523926 -78.657501 -22.331701 0.001581
250.007202 -78.657501 -22.331701 0.000982
263.490540 -78.657501 -22.331701 0.000170
276.973816 -78.657501 -22.331701 0.000615
290.457092 -78.657501 -22.331701 0.000266
303.940430 -78.657501 -22.331701 0.000024
317.423706 -78.657501 -22.331701 -0.000333
330.907043 -78.657501 -22.331701 0.000000
344.390320 -78.657501 -22.331701 0.000000
-343.257996 -92.140808 -22.331701 0.000000
-329.774689 -92.140808 -22.331701 0.000000
-316.291382 -92.140808 -22.331701 0.000000
-302.808105 -92.140808 -22.331701 0.000000
-289.324799 -92.140808 -22.331701 0.000000
-275.841492 -92.140808 -22.331701 0.000000
-262.358185 -92.140808 -22.331701 0.000000
-248.874893 -92.140808 -22.331701 0.000000
-235.391602 -92.140808 -22.331701 0.000000
-221.908295 -92.140808 -22.331701 0.000000
-208.424988 -92.140808 -22.331701 0.000000
-194.941696 -92.140808 -22.331701 -0.013008
-181.458389 -92.140808 -22.331701 0.000000
-167.975098 -92.140808 -22.331701 0.000000
-154.491791 -92.140808 -22.331701 0.000000
-141.008499 -92.140808 -22.331701 -0.064534
-127.525192 -92.140808 -22.331701 0.000000
-114.041885 -92.140808 -22.331701 -0.048777
-100.558594 -92.140808 -22.331701 -0.052539
-87.075287 -92.140808 -22.331701 -0.038882
-73.591980 -92.140808 -22.331701 -0.022948
-60.108704 -92.140808 -22.331701 -0.024085
-46.625397 -92.140808 -22.331701 -0.033020
-33.142090 -92.140808 -22.331701 -0.047401
-19.658783 -92.140808 -22.331701 -0.056210
-6.175476 -92.140808 -22.331701 -0.056323
7.307800 -92.140808 -22.331701 -0.055641
20.791107 -92.140808 -22.331701 -0.048221
34.274414 -92.140808 -22.331701 -0.046804
47.757721 -92.140808 -22.331701 -0.034071
61.240997 -92.140808 -22.331701 -0.015286
74.724304 -92.140808 -22.331701 -0.009907
88.207611 -92.140808 -22.331701 -0.006672
101.690918 -92.140808 -22.331701 -0.006626
115.174225 -92.140808 -22.331701 -0.006769
128.657501 -92.140808 -22.331701 -0.009638
142.140808 -92.140808 -22.331701 -0.011809
155.624115 -92.140808 -22.331701 -0.018195
169.107422 -92.140808 -22.331701 -0.022113
182.590698 -92.140808 -22.331701 -0.028940
196.074036 -92.140808 -22.331701 -0.026748
209.557312 -92.140808 -22.331701 -0.019746
223.040588 -92.140808 -22.331701 -0.009256
236.523926 -92.140808 -22.331701 -0.002727
250.007202 -92.140808 -22.331701 0.000387
263.490540 -92.140808 -22.331701 -0.000259
276.973816 -92.140808 -22.331701 0.000650
290.457092 -92.140808 -22.331701 0.000191
303.940430 -92.140808 -22.331701 -0.000631
317.423706 -92.140808 -22.331701 -0.000696
330.907043 -92.140808 -22.331701 0.000000
344.390320 -92.140808 -22.331701 0.000000
-343.257996 -105.624115 -22.331701 0.000000
-329.774689 -105.624115 -22.331701 0.000000
-316.291382 -105.624115 -22.331701 0.000000
-302.808105 -105.624115 -22.331701 0.000000
-289.324799 -105.624115 -22.331701 0.000000
-275.841492 -105.624115 -22.331701 0.000000
-262.358185 -105.624115 -22.331701 0.000000
-248.874893 -105.624115 -22.331701 0.000000
-235.391602 -105.624115 -22.331701 0.000000
-221.908295 -105.624115 -22.331701 0.000000
-208.424988 -105.624115 -22.331701 0.000000
-194.941696 -105.624115 -22.331701 -0.005153
-181.458389 -105.624115 -22.331701 0.000000
-167.975098 -105.624115 -22.331701 0.000000
-154.491791 -105.624115 -22.331701 0.000000
-141.008499 -105.624115 -22.331701 -0.057527
-127.525192 -105.624115 -22.331701 0.000000
-114.041885 -105.624115 -22.331701 0.000000
-100.558594 -105.624115 -22.331701 -0.037347
-87.075287 -105.624115 -22.331701 0.000000
-73.591980 -105.624115 -22.331701 0.000000
-60.108704 -105.624115 -22.331701 0.000000
-46.625397 -105.624115 -22.331701 -0.000167
-33.142090 -105.624115 -22.331701 -0.025380
-19.658783 -105.624115 -22.331701 -0.032362
-6.175476 -105.624115 -22.331701 -0.044737
7.307800 -105.624115 -22.331701 -0.052513
20.791107 -105.624115 -22.331701 -0.044419
34.274414 -105.624115 -22.331701 -0.035312
47.757721 -105.624115 -22.331701 -0.019949
61.240997 -105.624115 -22.331701 -0.010580
74.724304 -105.624115 -22.331701 -0.008814
88.207611 -105.624115 -22.331701 -0.001635
101.690918 -105.624115 -22.331701 -0.003772
115.174225 -105.624115 -22.331701 -0.005556
128.657501 -105.624115 -22.331701 -0.010913
142.140808 -105.624115 -22.331701 -0.016069
155.624115 -105.624115 -22.331701 -0.023776
169.107422 -105.624115 -22.331701 -0.034127
182.590698 -105.624115 -22.331701 -0.041552
196.074036 -105.624115 -22.331701 -0.042046
209.557312 -105.624115 -22.331701 -0.033387
223.040588 -105.624115 -22.331701 -0.019172
236.523926 -105.624115 -22.331701 -0.005733
250.007202 -105.624115 -22.331701 -0.002122
263.490540 -105.624115 -22.331701 -0.001507
276.973816 -105.624115 -22.331701 -0.000077
290.457092 -105.624115 -22.331701 0.000665
303.940430 -105.624115 -22.331701 0.000104
317.423706 -105.624115 -22.331701 -0.000124
330.907043 -105.624115 -22.331701 0.000000
344.390320 -105.624115 -22.331701 0.000000
-343.257996 -119.107422 -22.331701 0.000000
-329.774689 -119.107422 -22.331701 0.000000
-316.291382 -119.107422 -22.331701 0.000000
-302.808105 -119.107422 -22.331701 0.000000
-289.324799 -119.107422 -22.331701 0.000000
-275.841492 -119.107422 -22.331701 0.000000
-262.358185 -119.107422 -22.331701 0.000000
-248.874893 -119.107422 -22.331701 0.000000
-235.391602 -119.107422 -22.331701 0.000000
-221.908295 -119.107422 -22.331701 0.000000
-208.424988 -119.107422 -22.331701 0.000000
-194.941696 -119.107422 -22.331701 0.000000
-181.458389 -119.107422 -22.331701 0.000000
-167.975098 -119.107422 -22.331701 0.000000
-154.491791 -119.107422 -22.331701 -0.017873
-141.008499 -119.107422 -22.331701 -0.027992
-127.525192 -119.107422 -22.331701 0.000000
-114.041885 -119.107422 -22.331701 0.000000
-100.558594 -119.107422 -22.331701 -0.025715
-87.075287 -119.107422 -22.331701 0.000000
-73.591980 -119.107422 -22.331701 0.011465
-60.108704 -119.107422 -22.331701 0.000000
-46.625397 -119.107422 -22.331701 0.008215
-33.142090 -119.107422 -22.331701 -0.011121
-19.658783 -119.107422 -22.331701 -0.019905
-6.175476 -119.107422 -22.331701 -0.027783
7.307800 -119.107422 -22.331701 -0.045555
20.791107 -119.107422 -22.331701 -0.031608
34.274414 -119.107422 -22.331701 -0.029764
47.757721 -119.107422 -22.331701 -0.024812
61.240997 -119.107422 -22.331701 -0.009128
74.724304 -119.107422 -22.331701 -0.000860
88.207611 -119.107422 -22.331701 -0.000733
101.690918 -119.107422 -22.331701 0.000015
115.174225 -119.107422 -22.331701 -0.006384
128.657501 -119.107422 -22.331701 -0.010702
142.140808 -119.107422 -22.331701 -0.017937
155.624115 -119.107422 -22.331701 -0.028868
169.107422 -119.107422 -22.331701 -0.038918
182.590698 -119.107422 -22.331701 -0.048752
196.074036 -119.107422 -22.331701 -0.052463
209.557312 -119.107422 -22.331701 -0.047760
223.040588 -119.107422 -22.331701 -0.032295
236.523926 -119.107422 -22.331701 -0.012198
250.007202 -119.107422 -22.331701 -0.006907
263.490540 -119.107422 -22.331701 -0.002463
276.973816 -119.107422 -22.331701 -0.001065
290.457092 -119.107422 -22.331701 -0.000358
303.940430 -119.107422 -22.331701 -0.000452
317.423706 -119.107422 -22.331701 0.000042
330.907043 -119.107422 -22.331701 0.000000
344.390320 -119.107422 -22.331701 0.000000
-343.257996 -132.590698 -22.331701 0.000000
-329.774689 -132.590698 -22.331701 0.000000
-316.291382 -132.590698 -22.331701 0.000000
-302.808105 -132.590698 -22.331701 0.000000
-289.324799 -132.590698 -22.331701 0.000000
-275.841492 -132.590698 -22.331701 0.000000
-262.358185 -132.590698 -22.331701 0.000000
-248.874893 -132.590698 -22.331701 0.000000
-235.391602 -132.590698 -22.331701 0.000000
-221.908295 -132.590698 -22.331701 0.000000
-208.424988 -132.590698 -22.331701 0.000000
-194.941696 -132.590698 -22.331701 0.000000
-181.458389 -132.590698 -22.331701 0.024967
-167.975098 -132.590698 -22.331701 -0.000769
-154.491791 -132.590698 -22.331701 -0.024047
-141.008499 -132.590698 -22.331701 -0.016316
-127.525192 -132.590698 -22.331701 -0.003176
-114.041885 -132.590698 -22.331701 -0.016373
-100.558594 -132.590698 -22.331701 -0.015466
-87.075287 -132.590698 -22.331701 0.003621
-73.591980 -132.590698 -22.331701 0.010443
-60.108704 -132.590698 -22.331701 0.000000
-46.625397 -132.590698 -22.331701 0.000000
-33.142090 -132.590698 -22.331701 0.000000
-19.658783 -132.590698 -22.331701 -0.010899
-6.175476 -132.590698 -22.331701 0.000000
7.307800 -132.590698 -22.331701 0.000000
20.791107 -132.590698 -22.331701 -0.040736
34.274414 -132.590698 -22.331701 0.000000
47.757721 -132.590698 -22.331701 -0.024867
61.240997 -132.590698 -22.331701 -0.003512
74.724304 -132.590698 -22.331701 -0.001824
88.207611 -132.590698 -22.331701 0.001370
101.690918 -132.590698 -22.331701 0.001806
115.174225 -132.590698 -22.331701 -0.001326
128.657501 -132.590698 -22.331701 -0.011684
142.140808 -132.590698 -22.331701 -0.020364
155.624115 -132.590698 -22.331701 -0.033504
169.107422 -132.590698 -22.331701 -0.045725
182.590698 -132.590698 -22.331701 -0.056837
196.074036 -132.590698 -22.331701 -0.064917
209.557312 -132.590698 -22.331701 -0.061990
223.040588 -132.590698 -22.331701 -0.046763
236.523926 -132.590698 -22.331701 -0.023044
250.007202 -132.590698 -22.331701 -0.010304
263.490540 -132.590698 -22.331701 -0.006912
276.973816 -132.590698 -22.331701 -0.003147
290.457092 -132.590698 -22.331701 -0.002259
303.940430 -132.590698 -22.331701 0.000000
317.423706 -132.590698 -22.331701 0.000000
330.907043 -132.590698 -22.331701 0.000000
344.390320 -132.590698 -22.331701 0.000000
-343.257996 -146.074036 -22.331701 0.000000
-329.774689 -146.074036 -22.331701 0.000000
-316.291382 -146.074036 -22.331701 0.000000
-302.808105 -146.074036 -22.331701 0.000000
-289.324799 -146.074036 -22.331701 0.000000
-275.841492 -146.074036 -22.331701 0.000000
-262.358185 -146.074036 -22.331701 0.000000
-248.874893 -146.074036 -22.331701 0.000000
-235.391602 -146.074036 -22.331701 0.000000
-221.908295 -146.074036 -22.331701 0.000000
-208.424988 -146.074036 -22.331701 0.000000
-194.941696 -146.074036 -22.331701 0.000000
-181.458389 -146.074036 -22.331701 0.000000
-167.975098 -146.074036 -22.331701 0.000000
-154.491791 -146.074036 -22.331701 0.000000
-141.008499 -146.074036 -22.331701 0.000000
-127.525192 -146.074036 -22.331701 0.000000
-114.041885 -146.074036 -22.331701 0.000000
-100.558594 -146.074036 -22.331701 0.000000
-87.075287 -146.074036 -22.331701 0.000000
-73.591980 -146.074036 -22.331701 0.000000
-60.108704 -146.074036 -22.331701 0.000000
-46.625397 -146.074036 -22.331701 0.000000
-33.142090 -146.074036 -22.331701 0.000000
-19.658783 -146.074036 -22.331701 0.000000
-6.175476 -146.074036 -22.331701 0.000000
7.307800 -146.074036 -22.331701 0.000000
20.791107 -146.074036 -22.331701 0.000000
34.274414 -146.074036 -22.331701 0.000000
47.757721 -146.074036 -22.331701 0.000000
61.240997 -146.074036 -22.331701 0.000000
74.724304 -146.074036 -22.331701 0.000000
88.207611 -146.074036 -22.331701 0.000000
101.690918 -146.074036 -22.331701 0.000000
115.174225 -146.074036 -22.331701 0.000000
128.657501 -146.074036 -22.331701 -0.014332
142.140808 -146.074036 -22.331701 -0.024920
155.624115 -146.074036 -22.331701 -0.034648
169.107422 -146.074036 -22.331701 -0.057212
182.590698 -146.074036 -22.331701 -0.068538
196.074036 -146.074036 -22.331701 -0.076833
209.557312 -146.074036 -22.331701 -0.078679
223.040588 -146.074036 -22.331701 -0.061511
236.523926 -146.074036 -22.331701 0.000000
250.007202 -146.074036 -22.331701 -0.022190
263.490540 -146.074036 -22.331701 -0.013599
276.973816 -146.074036 -22.331701 0.000000
290.457092 -146.074036 -22.331701 0.000000
303.940430 -146.074036 -22.331701 0.000000
317.423706 -146.074036 -22.331701 0.000000
330.907043 -146.074036 -22.331701 0.000000
344.390320 -146.074036 -22.331701 0.000000
-343.257996 -159.557312 -22.331701 0.000000
-329.774689 -159.557312 -22.331701 0.000000
-316.291382 -159.557312 -22.331701 0.000000
-302.808105 -159.557312 -22.331701 0.000000
-289.324799 -159.557312 -22.331701 0.000000
-275.841492 -159.557312 -22.331701 0.000000
-262.358185 -159.557312 -22.331701 0.000000
-248.874893 -159.557312 -22.331701 0.000000
-235.391602 -159.557312 -22.331701 0.000000
-221.908295 -159.557312 -22.331701 0.000000
-208.424988 -159.557312 -22.331701 0.000000
-194.941696 -159.557312 -22.331701 0.000000
-181.458389 -159.557312 -22.331701 0.000000
-167.975098 -159.557312 -22.331701 0.000000
-154.491791 -159.557312 -22.331701 0.000000
-141.008499 -159.557312 -22.331701 0.000000
-127.525192 -159.557312 -22.331701 0.000000
-114.041885 -159.557312 -22.331701 0.000000
-100.558594 -159.557312 -22.331701 0.000000
-87.075287 -159.557312 -22.331701 0.000000
-73.591980 -159.557312 -22.331701 0.000000
-60.108704 -159.557312 -22.331701 0.000000
-46.625397 -159.557312 -22.331701 0.000000
-33.142090 -159.557312 -22.331701 0.000000
-19.658783 -159.557312 -22.331701 0.000000
-6.175476 -159.557312 -22.331701 0.000000
7.307800 -159.557312 -22.331701 0.000000
20.791107 -159.557312 -22.331701 0.000000
34.274414 -159.557312 -22.331701 0.000000
47.757721 -159.557312 -22.331701 0.000000
61.240997 -159.557312 -22.331701 0.000000
74.724304 -159.557312 -22.331701 0.000000
88.207611 -159.557312 -22.331701 0.000000
101.690918 -159.557312 -22.331701 0.000000
115.174225 -159.557312 -22.331701 0.000000
128.657501 -159.557312 -22.331701 0.000000
142.140808 -159.557312 -22.331701 0.000000
155.624115 -159.557312 -22.331701 0.000000
169.107422 -159.557312 -22.331701 0.000000
182.590698 -159.557312 -22.331701 0.000000
196.074036 -159.557312 -22.331701 0.000000
209.557312 -159.557312 -22.331701 0.000000
223.040588 -159.557312 -22.331701 0.000000
236.523926 -159.557312 -22.331701 0.000000
250.007202 -159.557312 -22.331701 0.000000
263.490540 -159.557312 -22.331701 0.000000
276.973816 -159.557312 -22.331701 0.000000
290.457092 -159.557312 -22.331701 0.000000
303.940430 -159.557312 -22.331701 0.000000
317.423706 -159.557312 -22.331701 0.000000
330.907043 -159.557312 -22.331701 0.000000
344.390320 -159.557312 -22.331701 0.000000
-343.257996 -173.040588 -22.331701 0.000000
-329.774689 -173.040588 -22.331701 0.000000
-316.291382 -173.040588 -22.331701 0.000000
-302.808105 -173.040588 -22.331701 0.000000
-289.324799 -173.040588 -22.331701 0.000000
-275.841492 -173.040588 -22.331701 0.000000
-262.358185 -173.040588 -22.331701 0.000000
-248.874893 -173.040588 -22.331701 0.000000
-235.391602 -173.040588 -22.331701 0.000000
-221.908295 -173.040588 -22.331701 0.000000
-208.424988 -173.040588 -22.331701 0.000000
-194.941696 -173.040588 -22.331701 0.000000
-181.458389 -173.040588 -22.331701 0.000000
-167.975098 -173.040588 -22.331701 0.000000
-154.491791 -173.040588 -22.331701 0.000000
-141.008499 -173.040588 -22.331701 0.000000
-127.525192 -173.040588 -22.331701 0.000000
-114.041885 -173.040588 -22.331701 0.000000
-100.558594 -173.040588 -22.331701 0.000000
-87.075287 -173.040588 -22.331701 0.000000
-73.591980 -173.040588 -22.331701 0.000000
-60.108704 -173.040588 -22.331701 0.000000
-46.625397 -173.040588 -22.331701 0.000000
-33.142090 -173.040588 -22.331701 0.000000
-19.658783 -173.040588 -22.331701 0.000000
-6.175476 -173.040588 -22.331701 0.000000
7.307800 -173.040588 -22.331701 0.000000
20.791107 -173.040588 -22.331701 0.000000
34.274414 -173.040588 -22.331701 0.000000
47.757721 -173.040588 -22.331701 0.000000
61.240997 -173.040588 -22.331701 0.000000
74.724304 -173.040588 -22.331701 0.000000
88.207611 -173.040588 -22.331701 0.000000
101.690918 -173.040588 -22.331701 0.000000
115.174225 -173.040588 -22.331701 0.000000
128.657501 -173.040588 -22.331701 0.000000
142.140808 -173.040588 -22.331701 0.000000
155.624115 -173.040588 -22.331701 0.000000
169.107422 -173.040588 -22.331701 0.000000
182.590698 -173.040588 -22.331701 0.000000
196.074036 -173.040588 -22.331701 0.000000
209.557312 -173.040588 -22.331701 0.000000
223.040588 -173.040588 -22.331701 0.000000
236.523926 -173.040588 -22.331701 0.000000
250.007202 -173.040588 -22.331701 0.000000
263.490540 -173.040588 -22.331701 0.000000
276.973816 -173.040588 -22.331701 0.000000
290.457092 -173.040588 -22.331701 0.000000
303.940430 -173.040588 -22.331701 0.000000
317.423706 -173.040588 -22.331701 0.000000
330.907043 -173.040588 -22.331701 0.000000
344.390320 -173.040588 -22.331701 0.000000
-343.257996 -186.523926 -22.331701 0.000000
-329.774689 -186.523926 -22.331701 0.000000
-316.291382 -186.523926 -22.331701 0.000000
-302.808105 -186.523926 -22.331701 0.000000
-289.324799 -186.523926 -22.331701 0.000000
-275.841492 -186.523926 -22.331701 0.000000
-262.358185 -186.523926 -22.331701 0.000000
-248.874893 -186.523926 -22.331701 0.000000
-235.391602 -186.523926 -22.331701 0.000000
-221.908295 -186.523926 -22.331701 0.000000
-208.424988 -186.523926 -22.331701 0.000000
-194.941696 -186.523926 -22.331701 0.000000
-181.458389 -186.523926 -22.331701 0.000000
-167.975098 -186.523926 -22.331701 0.000000
-154.491791 -186.523926 -22.331701 0.000000
-141.008499 -186.523926 -22.331701 0.000000
-127.525192 -186.523926 -22.331701 0.000000
-114.041885 -186.523926 -22.331701 0.000000
-100.558594 -186.523926 -22.331701 0.000000
-87.075287 -186.523926 -22.331701 0.000000
-73.591980 -186.523926 -22.331701 0.000000
-60.108704 -186.523926 -22.331701 0.000000
-46.625397 -186.523926 -22.331701 0.000000
-33.142090 -186.523926 -22.331701 0.000000
-19.658783 -186.523926 -22.331701 0.000000
-6.175476 -186.523926 -22.331701 0.000000
7.307800 -186.523926 -22.331701 0.000000
20.791107 -186.523926 -22.331701 0.000000
34.274414 -186.523926 -22.331701 0.000000
47.757721 -186.523926 -22.331701 0.000000
61.240997 -186.523926 -22.331701 0.000000
74.724304 -186.523926 -22.331701 0.000000
88.207611 -186.523926 -22.331701 0.000000
101.690918 -186.523926 -22.331701 0.000000
115.174225 -186.523926 -22.331701 0.000000
128.657501 -186.523926 -22.331701 0.000000
142.140808 -186.523926 -22.331701 0.000000
155.624115 -186.523926 -22.331701 0.000000
169.107422 -186.523926 -22.331701 0.000000
182.590698 -186.523926 -22.331701 0.000000
196.074036 -186.523926 -22.331701 0.000000
209.557312 -186.523926 -22.331701 0.000000
223.040588 -186.523926 -22.331701 0.000000
236.523926 -186.523926 -22.331701 0.000000
250.007202 -186.523926 -22.331701 0.000000
263.490540 -186.523926 -22.331701 0.000000
276.973816 -186.523926 -22.331701 0.000000
290.457092 -186.523926 -22.331701 0.000000
303.940430 -186.523926 -22.331701 0.000000
317.423706 -186.523926 -22.331701 0.000000
330.907043 -186.523926 -22.331701 0.000000
344.390320 -186.523926 -22.331701 0.000000
-343.257996 -200.007202 -22.331701 0.000000
-329.774689 -200.007202 -22.331701 0.000000
-316.291382 -200.007202 -22.331701 0.000000
-302.808105 -200.007202 -22.331701 0.000000
-289.324799 -200.007202 -22.331701 0.000000
-275.841492 -200.007202 -22.331701 0.000000
-262.358185 -200.007202 -22.331701 0.000000
-248.874893 -200.007202 -22.331701 0.000000
-235.391602 -200.007202 -22.331701 0.000000
-221.908295 -200.007202 -22.331701 0.000000
-208.424988 -200.007202 -22.331701 0.000000
-194.941696 -200.007202 -22.331701 0.000000
-181.458389 -200.007202 -22.331701 0.000000
-167.975098 -200.007202 -22.331701 0.000000
-154.491791 -200.007202 -22.331701 0.000000
-141.008499 -200.007202 -22.331701 0.000000
-127.525192 -200.007202 -22.331701 0.000000
-114.041885 -200.007202 -22.331701 0.000000
-100.558594 -200.007202 -22.331701 0.000000
-87.075287 -200.007202 -22.331701 0.000000
-73.591980 -200.007202 -22.331701 0.000000
-60.108704 -200.007202 -22.331701 0.000000
-46.625397 -200.007202 -22.331701 0.000000
-33.142090 -200.007202 -22.331701 0.000000
-19.658783 -200.007202 -22.331701 0.000000
-6.175476 -200.007202 -22.331701 0.000000
7.307800 -200.007202 -22.331701 0.000000
20.791107 -200.007202 -22.331701 0.000000
34.274414 -200.007202 -22.331701 0.000000
47.757721 -200.007202 -22.331701 0.000000
61.240997 -200.007202 -22.331701 0.000000
74.724304 -200.007202 -22.331701 0.000000
88.207611 -200.007202 -22.331701 0.000000
101.690918 -200.007202 -22.331701 0.000000
115.174225 -200.007202 -22.331701 0.000000
128.657501 -200.007202 -22.331701 0.000000
142.140808 -200.007202 -22.331701 0.000000
155.624115 -200.007202 -22.331701 0.000000
169.107422 -200.007202 -22.331701 0.000000
182.590698 -200.007202 -22.331701 0.000000
196.074036 -200.007202 -22.331701 0.000000
209.557312 -200.007202 -22.331701 0.000000
223.040588 -200.007202 -22.331701 0.000000
236.523926 -200.007202 -22.331701 0.000000
250.007202 -200.007202 -22.331701 0.000000
263.490540 -200.007202 -22.331701 0.000000
276.973816 -200.007202 -22.331701 0.000000
290.457092 -200.007202 -22.331701 0.000000
303.940430 -200.007202 -22.331701 0.000000
317.423706 -200.007202 -22.331701 0.000000
330.907043 -200.007202 -22.331701 0.000000
344.390320 -200.007202 -22.331701 0.000000
-343.257996 393.257996 -8.848400 0.000000
-329.774689 393.257996 -8.848400 0.000000
-316.291382 393.257996 -8.848400 0.000000
-302.808105 393.257996 -8.848400 0.000000
-289.324799 393.257996 -8.848400 0.000000
-275.841492 393.257996 -8.848400 0.000000
-262.358185 393.257996 -8.848400 0.000000
-248.874893 393.257996 -8.848400 0.000000
-235.391602 393.257996 -8.848400 0.000000
-221.908295 393.257996 -8.848400 0.000000
-208.424988 393.257996 -8.848400 0.000000
-194.941696 393.257996 -8.848400 0.000000
-181.458389 393.257996 -8.848400 0.000000
-167.975098 393.257996 -8.848400 0.000000
-154.491791 393.257996 -8.848400 0.000000
-141.008499 393.257996 -8.848400 0.000000
-127.525192 393.257996 -8.848400 0.000000
-114.041885 393.257996 -8.848400 0.000000
-100.558594 393.257996 -8.848400 0.000000
-87.075287 393.257996 -8.848400 0.000000
-73.591980 393.257996 -8.848400 0.000000
-60.108704 393.257996 -8.848400 0.000000
-46.625397 393.257996 -8.848400 0.000000
-33.142090 393.257996 -8.848400 0.000000
-19.658783 393.257996 -8.848400 0.000000
-6.175476 393.257996 -8.848400 0.000000
7.307800 393.257996 -8.848400 0.000000
20.791107 393.257996 -8.848400 0.000000
34.274414 393.257996 -8.848400 0.000000
47.757721 393.257996 -8.848400 0.000000
61.240997 393.257996 -8.848400 0.000000
74.724304 393.257996 -8.848400 0.000000
88.207611 393.257996 -8.848400 0.000000
101.690918 393.257996 -8.848400 0.000000
115.174225 393.257996 -8.848400 0.000000
128.657501 393.257996 -8.848400 0.000000
142.140808 393.257996 -8.848400 0.000000
155.624115 393.257996 -8.848400 0.000000
169.107422 393.257996 -8.848400 0.000000
182.590698 393.257996 -8.848400 0.000000
196.074036 393.257996 -8.848400 0.000000
209.557312 393.257996 -8.848400 0.000000
223.040588 393.257996 -8.848400 0.000000
236.523926 393.257996 -8.848400 0.000000
250.007202 393.257996 -8.848400 0.000000
263.490540 393.257996 -8.848400 0.000000
276.973816 393.257996 -8.848400 0.000000
290.457092 393.257996 -8.848400 0.000000
303.940430 393.257996 -8.848400 0.000000
317.423706 393.257996 -8.848400 0.000000
330.907043 393.257996 -8.848400 0.000000
344.390320 393.257996 -8.848400 0.000000
-343.257996 379.774689 -8.848400 0.000000
-329.774689 379.774689 -8.848400 0.000000
-316.291382 379.774689 -8.848400 0.000000
-302.808105 379.774689 -8.848400 0.000000
-289.324799 379.774689 -8.848400 0.000000
-275.841492 379.774689 -8.848400 0.000000
-262.358185 379.774689 -8.848400 0.000000
-248.874893 379.774689 -8.848400 0.000000
-235.391602 379.774689 -8.848400 0.000000
-221.908295 379.774689 -8.848400 0.000000
-208.424988 379.774689 -8.848400 0.000000
-194.941696 379.774689 -8.848400 0.000000
-181.458389 379.774689 -8.848400 0.000000
-167.975098 379.774689 -8.848400 0.000000
-154.491791 379.774689 -8.848400 0.000000
-141.008499 379.774689 -8.848400 0.000000
-127.525192 379.774689 -8.848400 0.000000
-114.041885 379.774689 -8.848400 0.000000
-100.558594 379.774689 -8.848400 0.000000
-87.075287 379.774689 -8.848400 0.000000
-73.591980 379.774689 -8.848400 0.000000
-60.108704 379.774689 -8.848400 0.000000
-46.625397 379.774689 -8.848400 0.000000
-33.142090 379.774689 -8.848400 0.000000
-19.658783 379.774689 -8.848400 0.000000
-6.175476 379.774689 -8.848400 0.000000
7.307800 379.774689 -8.848400 0.000000
20.791107 379.774689 -8.848400 0.000000
34.274414 379.774689 -8.848400 0.000000
47.757721 379.774689 -8.848400 0.000000
61.240997 379.774689 -8.848400 0.000000
74.724304 379.774689 -8.848400 0.000000
88.207611 379.774689 -8.848400 0.000000
101.690918 379.774689 -8.848400 0.000000
115.174225 379.774689 -8.848400 0.000000
128.657501 379.774689 -8.848400 0.000000
142.140808 379.774689 -8.848400 0.000000
155.624115 379.774689 -8.848400 0.000000
169.107422 379.774689 -8.848400 0.000000
182.590698 379.774689 -8.848400 0.000000
196.074036 379.774689 -8.848400 0.000000
209.557312 379.774689 -8.848400 0.000000
223.040588 379.774689 -8.848400 0.000000
236.523926 379.774689 -8.848400 0.000000
250.007202 379.774689 -8.848400 0.000000
263.490540 379.774689 -8.848400 0.000000
276.973816 379.774689 -8.848400 0.000000
290.457092 379.774689 -8.848400 0.000000
303.940430 379.774689 -8.848400 0.000000
317.423706 379.774689 -8.848400 0.000000
330.907043 379.774689 -8.848400 0.000000
344.390320 379.774689 -8.848400 0.000000
-343.257996 366.291382 -8.848400 0.000000
-329.774689 366.291382 -8.848400 0.000000
-316.291382 366.291382 -8.848400 0.000000
-302.808105 366.291382 -8.848400 0.000000
-289.324799 366.291382 -8.848400 0.000000
-275.841492 366.291382 -8.848400 0.000000
-262.358185 366.291382 -8.848400 0.000000
-248.874893 366.291382 -8.848400 0.000000
-235.391602 366.291382 -8.848400 0.000000
-221.908295 366.291382 -8.848400 0.000000
-208.424988 366.291382 -8.848400 0.000000
-194.941696 366.291382 -8.848400 0.000000
-181.458389 366.291382 -8.848400 0.000000
-167.975098 366.291382 -8.848400 0.000000
-154.491791 366.291382 -8.848400 0.000000
-141.008499 366.291382 -8.848400 0.000000
-127.525192 366.291382 -8.848400 0.000000
-114.041885 366.291382 -8.848400 0.000000
-100.558594 366.291382 -8.848400 0.000000
-87.075287 366.291382 -8.848400 0.000000
-73.591980 366.291382 -8.848400 0.000000
-60.108704 366.291382 -8.848400 0.000000
-46.625397 366.291382 -8.848400 0.000000
-33.142090 366.291382 -8.848400 0.000000
-19.658783 366.291382 -8.848400 0.000000
-6.175476 366.291382 -8.848400 0.000000
7.307800 366.291382 -8.848400 0.000000
20.791107 366.291382 -8.848400 0.000000
34.274414 366.291382 -8.848400 0.000000
47.757721 366.291382 -8.848400 0.000000
61.240997 366.291382 -8.848400 0.000000
74.724304 366.291382 -8.848400 0.000000
88.207611 366.291382 -8.848400 0.000000
101.690918 366.291382 -8.848400 0.000000
115.174225 366.291382 -8.848400 0.000000
128.657501 366.291382 -8.848400 0.000000
142.140808 366.291382 -8.848400 0.000000
155.624115 366.291382 -8.848400 0.000000
169.107422 366.291382 -8.848400 0.000000
182.590698 366.291382 -8.848400 0.000000
196.074036 366.291382 -8.848400 0.000000
209.557312 366.291382 -8.848400 0.000000
223.040588 366.291382 -8.848400 0.000000
236.523926 366.291382 -8.848400 0.000000
250.007202 366.291382 -8.848400 0.000000
263.490540 366.291382 -8.848400 0.000000
276.973816 366.291382 -8.848400 0.000000
290.457092 366.291382 -8.848400 0.000000
303.940430 366.291382 -8.848400 0.000000
317.423706 366.291382 -8.848400 0.000000
330.907043 366.291382 -8.848400 0.000000
344.390320 366.291382 -8.848400 0.000000
-343.257996 352.808105 -8.848400 0.000000
-329.774689 352.808105 -8.848400 0.000000
-316.291382 352.808105 -8.848400 0.000000
-302.808105 352.808105 -8.848400 0.000000
-289.324799 352.808105 -8.848400 0.000000
-275.841492 352.808105 -8.848400 0.000000
-262.358185 352.808105 -8.848400 0.000000
-248.874893 352.808105 -8.848400 0.000000
-235.391602 352.808105 -8.848400 0.000000
-221.908295 352.808105 -8.848400 0.000000
-208.424988 352.808105 -8.848400 0.000000
-194.941696 352.808105 -8.848400 0.000000
-181.458389 352.808105 -8.848400 0.000000
-167.975098 352.808105 -8.848400 0.000000
-154.491791 352.808105 -8.848400 0.000000
-141.008499 352.808105 -8.848400 0.000000
-127.525192 352.808105 -8.848400 0.000000
-114.041885 352.808105 -8.848400 0.000000
-100.558594 352.808105 -8.848400 0.000000
-87.075287 352.808105 -8.848400 0.000000
-73.591980 352.808105 -8.848400 0.000000
-60.108704 352.808105 -8.848400 0.000000
-46.625397 352.808105 -8.848400 0.000000
-33.142090 352.808105 -8.848400 0.000000
-19.658783 352.808105 -8.848400 0.000000
-6.175476 352.808105 -8.848400 0.000000
7.307800 352.808105 -8.848400 0.000000
20.791107 352.808105 -8.848400 0.000000
34.274414 352.808105 -8.848400 0.000000
47.757721 352.808105 -8.848400 0.000000
61.240997 352.808105 -8.848400 0.000000
74.724304 352.808105 -8.848400 0.000000
88.207611 352.808105 -8.848400 0.000000
101.690918 352.808105 -8.848400 0.000000
115.174225 352.808105 -8.848400 0.000000
128.657501 352.808105 -8.848400 0.000000
142.140808 352.808105 -8.848400 0.000000
155.624115 352.808105 -8.848400 0.000000
169.107422 352.808105 -8.848400 0.000000
182.590698 352.808105 -8.848400 0.000000
196.074036 352.808105 -8.848400 0.000000
209.557312 352.808105 -8.848400 0.000000
223.040588 352.808105 -8.848400 0.000000
236.523926 352.808105 -8.848400 0.000000
250.007202 352.808105 -8.848400 0.000000
263.490540 352.808105 -8.848400 0.000000
276.973816 352.808105 -8.848400 0.000000
290.457092 352.808105 -8.848400 0.000000
303.940430 352.808105 -8.848400 0.000000
317.423706 352.808105 -8.848400 0.000000
330.907043 352.808105 -8.848400 0.000000
344.390320 352.808105 -8.848400 0.000000
-343.257996 339.324799 -8.848400 0.000000
-329.774689 339.324799 -8.848400 0.000000
-316.291382 339.324799 -8.848400 0.000000
-302.808105 339.324799 -8.848400 0.000000
-289.324799 339.324799 -8.848400 0.000000
-275.841492 339.324799 -8.848400 0.000000
-262.358185 339.324799 -8.848400 0.000000
-248.874893 339.324799 -8.848400 0.000000
-235.391602 339.324799 -8.848400 0.000000
-221.908295 339.324799 -8.848400 0.000000
-208.424988 339.324799 -8.848400 0.000000
-194.941696 339.324799 -8.848400 0.000000
-181.458389 339.324799 -8.848400 0.000000
-167.975098 339.324799 -8.848400 0.000000
-154.491791 339.324799 -8.848400 0.000000
-141.008499 339.324799 -8.848400 0.000000
-127.525192 339.324799 -8.848400 0.000000
-114.041885 339.324799 -8.848400 0.000000
-100.558594 339.324799 -8.848400 0.000000
-87.075287 339.324799 -8.848400 0.000000
-73.591980 339.324799 -8.848400 0.000000
-60.108704 339.324799 -8.848400 0.000000
-46.625397 339.324799 -8.848400 0.080260
-33.142090 339.324799 -8.848400 0.089287
-19.658783 339.324799 -8.848400 0.065672
-6.175476 339.324799 -8.848400 0.060959
7.307800 339.324799 -8.848400 0.038482
20.791107 339.324799 -8.848400 0.000000
34.274414 339.324799 -8.848400 0.000000
47.757721 339.324799 -8.848400 0.000000
61.240997 339.324799 -8.848400 0.000000
74.724304 339.324799 -8.848400 0.000000
88.207611 339.324799 -8.848400 0.000000
101.690918 339.324799 -8.848400 0.000000
115.174225 339.324799 -8.848400 0.000000
128.657501 339.324799 -8.848400 0.000000
142.140808 339.324799 -8.848400 0.000000
155.624115 339.324799 -8.848400 0.000000
169.107422 339.324799 -8.848400 0.000000
182.590698 339.324799 -8.848400 0.000000
196.074036 339.324799 -8.848400 0.000000
209.557312 339.324799 -8.848400 0.000000
223.040588 339.324799 -8.848400 0.000000
236.523926 339.324799 -8.848400 0.000000
250.007202 339.324799 -8.848400 0.000000
263.490540 339.324799 -8.848400 0.000000
276.973816 339.324799 -8.848400 0.000000
290.457092 339.324799 -8.848400 0.000000
303.940430 339.324799 -8.848400 0.000000
317.423706 339.324799 -8.848400 0.000000
330.907043 339.324799 -8.848400 0.000000
344.390320 339.324799 -8.848400 0.000000
-343.257996 325.841492 -8.848400 0.000000
-329.774689 325.841492 -8.848400 0.000000
-316.291382 325.841492 -8.848400 0.000000
-302.808105 325.841492 -8.848400 0.000000
-289.324799 325.841492 -8.848400 0.000000
-275.841492 325.841492 -8.848400 0.000000
-262.358185 325.841492 -8.848400 0.000000
-248.874893 325.841492 -8.848400 0.000000
-235.391602 325.841492 -8.848400 0.000000
-221.908295 325.841492 -8.848400 0.000000
-208.424988 325.841492 -8.848400 0.000000
-194.941696 325.841492 -8.848400 0.000000
-181.458389 325.841492 -8.848400 0.000000
-167.975098 325.841492 -8.848400 0.000000
-154.491791 325.841492 -8.848400 0.000000
-141.008499 325.841492 -8.848400 0.000000
-127.525192 325.841492 -8.848400 0.000000
-114.041885 325.841492 -8.848400 0.000000
-100.558594 325.841492 -8.848400 0.035266
-87.075287 325.841492 -8.848400 0.041269
-73.591980 325.841492 -8.848400 0.049215
-60.108704 325.841492 -8.848400 0.069362
-46.625397 325.841492 -8.848400 0.084140
-33.142090 325.841492 -8.848400 0.074739
-19.658783 325.841492 -8.848400 0.066486
-6.175476 325.841492 -8.848400 0.061775
7.307800 325.841492 -8.848400 0.040448
20.791107 325.841492 -8.848400 0.024963
34.274414 325.841492 -8.848400 0.000000
47.757721 325.841492 -8.848400 0.000000
61.240997 325.841492 -8.848400 0.000000
74.724304 325.841492 -8.848400 0.000000
88.207611 325.841492 -8.848400 0.000000
101.690918 325.841492 -8.848400 0.000000
115.174225 325.841492 -8.848400 0.000000
128.657501 325.841492 -8.848400 0.000000
142.140808 325.841492 -8.848400 0.000000
155.624115 325.841492 -8.848400 0.000000
169.107422 325.841492 -8.848400 0.000000
182.590698 325.841492 -8.848400 0.000000
196.074036 325.841492 -8.848400 0.000000
209.557312 325.841492 -8.848400 0.000000
223.040588 325.841492 -8.848400 0.000000
236.523926 325.841492 -8.848400 0.000000
250.007202 325.841492 -8.848400 0.000000
263.490540 325.841492 -8.848400 0.000000
276.973816 325.841492 -8.848400 0.000000
290.457092 325.841492 -8.848400 0.000000
303.940430 325.841492 -8.848400 0.000000
317.423706 325.841492 -8.848400 0.000000
330.907043 325.841492 -8.848400 0.000000
344.390320 325.841492 -8.848400 0.000000
-343.257996 312.358185 -8.848400 0.000000
-329.774689 312.358185 -8.848400 0.000000
-316.291382 312.358185 -8.848400 0.000000
-302.808105 312.358185 -8.848400 0.000000
-289.324799 312.358185 -8.848400 0.000000
-275.841492 312.358185 -8.848400 0.000000
-262.358185 312.358185 -8.848400 0.000000
-248.874893 312.358185 -8.848400 0.000000
-235.391602 312.358185 -8.848400 0.000000
-221.908295 312.358185 -8.848400 0.000000
-208.424988 312.358185 -8.848400 0.000000
-194.941696 312.358185 -8.848400 0.000000
-181.458389 312.358185 -8.848400 0.000000
-167.975098 312.358185 -8.848400 0.000000
-154.491791 312.358185 -8.848400 0.000000
-141.008499 312.358185 -8.848400 0.000000
-127.525192 312.358185 -8.848400 0.000000
-114.041885 312.358185 -8.848400 0.017086
-100.558594 312.358185 -8.848400 0.021161
-87.075287 312.358185 -8.848400 0.031620
-73.591980 312.358185 -8.848400 0.053129
-60.108704 312.358185 -8.848400 0.069059
-46.625397 312.358185 -8.848400 0.085705
-33.142090 312.358185 -8.848400 0.079870
-19.658783 312.358185 -8.848400 0.073504
-6.175476 312.358185 -8.848400 0.064088
7.307800 312.358185 -8.848400 0.043625
20.791107 312.358185 -8.848400 0.030168
34.274414 312.358185 -8.848400 0.008761
47.757721 312.358185 -8.848400 0.000000
61.240997 312.358185 -8.848400 0.000000
74.724304 312.358185 -8.848400 0.000000
88.207611 312.358185 -8.848400 0.000000
101.690918 312.358185 -8.848400 0.000000
115.174225 312.358185 -8.848400 0.000000
128.657501 312.358185 -8.848400 0.000000
142.140808 312.358185 -8.848400 0.000000
155.624115 312.358185 -8.848400 0.000000
169.107422 312.358185 -8.848400 0.000000
182.590698 312.358185 -8.848400 0.000000
196.074036 312.358185 -8.848400 0.000000
209.557312 312.358185 -8.848400 0.000000
223.040588 312.358185 -8.848400 0.000000
236.523926 312.358185 -8.848400 0.000000
250.007202 312.358185 -8.848400 0.000000
263.490540 312.358185 -8.848400 0.000000
276.973816 312.358185 -8.848400 0.000000
290.457092 312.358185 -8.848400 0.000000
303.940430 312.358185 -8.848400 0.000000
317.423706 312.358185 -8.848400 0.000000
330.907043 312.358185 -8.848400 0.000000
344.390320 312.358185 -8.848400 0.000000
-343.257996 298.874878 -8.848400 0.000000
-329.774689 298.874878 -8.848400 0.000000
-316.291382 298.874878 -8.848400 0.000000
-302.808105 298.874878 -8.848400 0.000000
-289.324799 298.874878 -8.848400 0.000000
-275.841492 298.874878 -8.848400 0.000000
-262.358185 298.874878 -8.848400 0.000000
-248.874893 298.874878 -8.848400 0.000000
-235.391602 298.874878 -8.848400 0.000000
-221.908295 298.874878 -8.848400 0.000000
-208.424988 298.874878 -8.848400 0.000000
-194.941696 298.874878 -8.848400 0.000000
-181.458389 298.874878 -8.848400 0.000000
-167.975098 298.874878 -8.848400 0.000000
-154.491791 298.874878 -8.848400 0.000000
-141.008499 298.874878 -8.848400 0.000000
-127.525192 298.874878 -8.848400 0.000000
-114.041885 298.874878 -8.848400 0.012060
-100.558594 298.874878 -8.848400 0.015684
-87.075287 298.874878 -8.848400 0.022070
-73.591980 298.874878 -8.848400 0.035734
-60.108704 298.874878 -8.848400 0.048617
-46.625397 298.874878 -8.848400 0.064345
-33.142090 298.874878 -8.848400 0.069938
-19.658783 298.874878 -8.848400 0.079941
-6.175476 298.874878 -8.848400 0.061457
7.307800 298.874878 -8.848400 0.052699
20.791107 298.874878 -8.848400 0.036263
34.274414 298.874878 -8.848400 0.009318
47.757721 298.874878 -8.848400 -0.007561
61.240997 298.874878 -8.848400 0.000000
74.724304 298.874878 -8.848400 0.000000
88.207611 298.874878 -8.848400 0.000000
101.690918 298.874878 -8.848400 0.000000
115.174225 298.874878 -8.848400 0.000000
128.657501 298.874878 -8.848400 0.000000
142.140808 298.874878 -8.848400 0.000000
155.624115 298.874878 -8.848400 0.000000
169.107422 298.874878 -8.848400 0.000000
182.590698 298.874878 -8.848400 0.000000
196.074036 298.874878 -8.848400 0.000000
209.557312 298.874878 -8.848400 0.000000
223.040588 298.874878 -8.848400 0.000000
236.523926 298.874878 -8.848400 0.000000
250.007202 298.874878 -8.848400 0.000000
263.490540 298.874878 -8.848400 0.000000
276.973816 298.874878 -8.848400 0.000000
290.457092 298.874878 -8.848400 0.000000
303.940430 298.874878 -8.848400 0.000000
317.423706 298.874878 -8.848400 0.000000
330.907043 298.874878 -8.848400 0.000000
344.390320 298.874878 -8.848400 0.000000
-343.257996 285.391602 -8.848400 0.000000
-329.774689 285.391602 -8.848400 0.000000
-316.291382 285.391602 -8.848400 0.000000
-302.808105 285.391602 -8.848400 0.000000
-289.324799 285.391602 -8.848400 0.000000
-275.841492 285.391602 -8.848400 0.000000
-262.358185 285.391602 -8.848400 0.000000
-248.874893 285.391602 -8.848400 0.000000
-235.391602 285.391602 -8.848400 0.000000
-221.908295 285.391602 -8.848400 0.000000
-208.424988 285.391602 -8.848400 0.000000
-194.941696 285.391602 -8.848400 0.000000
-181.458389 285.391602 -8.848400 0.000000
-167.975098 285.391602 -8.848400 0.000000
-154.491791 285.391602 -8.848400 0.000000
-141.008499 285.391602 -8.848400 0.000000
-127.525192 285.391602 -8.848400 0.000000
-114.041885 285.391602 -8.848400 -0.000913
-100.558594 285.391602 -8.848400 0.004016
-87.075287 285.391602 -8.848400 -0.000935
-73.591980 285.391602 -8.848400 0.015033
-60.108704 285.391602 -8.848400 0.024303
-46.625397 285.391602 -8.848400 0.044996
-33.142090 285.391602 -8.848400 0.067831
-19.658783 285.391602 -8.848400 0.072949
-6.175476 285.391602 -8.848400 0.062904
7.307800 285.391602 -8.848400 0.050853
20.791107 285.391602 -8.848400 0.029584
34.274414 285.391602 -8.848400 0.009643
47.757721 285.391602 -8.848400 -0.013938
61.240997 285.391602 -8.848400 0.000000
74.724304 285.391602 -8.848400 0.000000
88.207611 285.391602 -8.848400 0.000000
101.690918 285.391602 -8.848400 -0.070753
115.174225 285.391602 -8.848400 -0.049403
128.657501 285.391602 -8.848400 -0.042236
142.140808 285.391602 -8.848400 -0.015939
155.624115 285.391602 -8.848400 -0.006239
169.107422 285.391602 -8.848400 0.005408
182.590698 285.391602 -8.848400 0.000000
196.074036 285.391602 -8.848400 0.000000
209.557312 285.391602 -8.848400 0.000000
223.040588 285.391602 -8.848400 0.000000
236.523926 285.391602 -8.848400 0.000000
250.007202 285.391602 -8.848400 0.000000
263.490540 285.391602 -8.848400 0.000000
276.973816 285.391602 -8.848400 0.000000
290.457092 285.391602 -8.848400 0.000000
303.940430 285.391602 -8.848400 0.000000
317.423706 285.391602 -8.848400 0.000000
330.907043 285.391602 -8.848400 0.000000
344.390320 285.391602 -8.848400 0.000000
-343.257996 271.908295 -8.848400 0.000000
-329.774689 271.908295 -8.848400 0.000000
-316.291382 271.908295 -8.848400 0.000000
-302.808105 271.908295 -8.848400 0.000000
-289.324799 271.908295 -8.848400 0.000000
-275.841492 271.908295 -8.848400 0.000000
-262.358185 271.908295 -8.848400 0.000000
-248.874893 271.908295 -8.848400 0.000000
-235.391602 271.908295 -8.848400 0.000000
-221.908295 271.908295 -8.848400 0.000000
-208.424988 271.908295 -8.848400 0.000000
-194.941696 271.908295 -8.848400 0.000000
-181.458389 271.908295 -8.848400 0.000000
-167.975098 271.908295 -8.848400 0.000000
-154.491791 271.908295 -8.848400 0.000000
-141.008499 271.908295 -8.848400 0.000000
-127.525192 271.908295 -8.848400 0.000000
-114.041885 271.908295 -8.848400 0.001561
-100.558594 271.908295 -8.848400 -0.004729
-87.075287 271.908295 -8.848400 0.003227
-73.591980 271.908295 -8.848400 0.002790
-60.108704 271.908295 -8.848400 0.026424
-46.625397 271.908295 -8.848400 0.050641
-33.142090 271.908295 -8.848400 0.072225
-19.658783 271.908295 -8.848400 0.074911
-6.175476 271.908295 -8.848400 0.050174
7.307800 271.908295 -8.848400 0.039837
20.791107 271.908295 -8.848400 0.027320
34.274414 271.908295 -8.848400 0.010601
47.757721 271.908295 -8.848400 -0.018322
61.240997 271.908295 -8.848400 0.000000
74.724304 271.908295 -8.848400 0.000000
88.207611 271.908295 -8.848400 -0.057525
101.690918 271.908295 -8.848400 -0.051392
115.174225 271.908295 -8.848400 -0.047202
128.657501 271.908295 -8.848400 -0.029359
142.140808 271.908295 -8.848400 0.000000
155.624115 271.908295 -8.848400 -0.005489
169.107422 271.908295 -8.848400 0.013238
182.590698 271.908295 -8.848400 0.000000
196.074036 271.908295 -8.848400 0.000000
209.557312 271.908295 -8.848400 0.000000
223.040588 271.908295 -8.848400 0.000000
236.523926 271.908295 -8.848400 0.000000
250.007202 271.908295 -8.848400 0.000000
263.490540 271.908295 -8.848400 0.000000
276.973816 271.908295 -8.848400 0.000000
290.457092 271.908295 -8.848400 0.000000
303.940430 271.908295 -8.848400 0.000000
317.423706 271.908295 -8.848400 0.000000
330.907043 271.908295 -8.848400 0.000000
344.390320 271.908295 -8.848400 0.000000
-343.257996 258.424988 -8.848400 0.000000
-329.774689 258.424988 -8.848400 0.000000
-316.291382 258.424988 -8.848400 0.000000
-302.808105 258.424988 -8.848400 0.000000
-289.324799 258.424988 -8.848400 0.000000
-275.841492 258.424988 -8.848400 0.000000
-262.358185 258.424988 -8.848400 0.000000
-248.874893 258.424988 -8.848400 0.000000
-235.391602 258.424988 -8.848400 0.000000
-221.908295 258.424988 -8.848400 0.000000
-208.424988 258.424988 -8.848400 0.000000
-194.941696 258.424988 -8.848400 0.000000
-181.458389 258.424988 -8.848400 0.000000
-167.975098 258.424988 -8.848400 0.000000
-154.491791 258.424988 -8.848400 0.000000
-141.008499 258.424988 -8.848400 0.000000
-127.525192 258.424988 -8.848400 -0.006861
-114.041885 258.424988 -8.848400 0.001282
-100.558594 258.424988 -8.848400 -0.002236
-87.075287 258.424988 -8.848400 -0.005243
-73.591980 258.424988 -8.848400 0.005762
-60.108704 258.424988 -8.848400 0.033041
-46.625397 258.424988 -8.848400 0.040143
-33.142090 258.424988 -8.848400 0.057302
-19.658783 258.424988 -8.848400 0.064195
-6.175476 258.424988 -8.848400 0.050334
7.307800 258.424988 -8.848400 0.055808
20.791107 258.424988 -8.848400 0.025728
34.274414 258.424988 -8.848400 0.000000
47.757721 258.424988 -8.848400 0.000000
61.240997 258.424988 -8.848400 0.000000
74.724304 258.424988 -8.848400 0.000000
88.207611 258.424988 -8.848400 -0.057106
101.690918 258.424988 -8.848400 -0.057241
115.174225 258.424988 -8.848400 -0.040821
128.657501 258.424988 -8.848400 -0.040206
142.140808 258.424988 -8.848400 -0.022629
155.624115 258.424988 -8.848400 0.003638
169.107422 258.424988 -8.848400 0.021724
182.590698 258.424988 -8.848400 0.025622
196.074036 258.424988 -8.848400 0.000000
209.557312 258.424988 -8.848400 0.000000
223.040588 258.424988 -8.848400 0.000000
236.523926 258.424988 -8.848400 0.000000
250.007202 258.424988 -8.848400 0.000000
263.490540 258.424988 -8.848400 0.000000
276.973816 258.424988 -8.848400 0.000000
290.457092 258.424988 -8.848400 0.000000
303.940430 258.424988 -8.848400 0.000000
317.423706 258.424988 -8.848400 0.000000
330.907043 258.424988 -8.848400 0.000000
344.390320 258.424988 -8.848400 0.000000
-343.257996 244.941696 -8.848400 0.000000
-329.774689 244.941696 -8.848400 0.000000
-316.291382 244.941696 -8.848400 0.000000
-302.808105 244.941696 -8.848400 0.000000
-289.324799 244.941696 -8.848400 0.000000
-275.841492 244.941696 -8.848400 0.000000
-262.358185 244.941696 -8.848400 0.000000
-248.874893 244.941696 -8.848400 0.000000
-235.391602 244.941696 -8.848400 0.000000
-221.908295 244.941696 -8.848400 0.000000
-208.424988 244.941696 -8.848400 0.000000
-194.941696 244.941696 -8.848400 0.000000
-181.458389 244.941696 -8.848400 0.000000
-167.975098 244.941696 -8.848400 0.000000
-154.491791 244.941696 -8.848400 0.000000
-141.008499 244.941696 -8.848400 0.000000
-127.525192 244.941696 -8.848400 -0.012749
-114.041885 244.941696 -8.848400 -0.016123
-100.558594 244.941696 -8.848400 -0.020586
-87.075287 244.941696 -8.848400 -0.010526
-73.591980 244.941696 -8.848400 0.005500
-60.108704 244.941696 -8.848400 0.028053
-46.625397 244.941696 -8.848400 0.033507
-33.142090 244.941696 -8.848400 0.053046
-19.658783 244.941696 -8.848400 0.063223
-6.175476 244.941696 -8.848400 0.058572
7.307800 244.941696 -8.848400 0.048347
20.791107 244.941696 -8.848400 0.010063
34.274414 244.941696 -8.848400 -0.018764
47.757721 244.941696 -8.848400 0.000000
61.240997 244.941696 -8.848400 0.000000
74.724304 244.941696 -8.848400 0.000000
88.207611 244.941696 -8.848400 -0.073228
101.690918 244.941696 -8.848400 -0.064325
115.174225 244.941696 -8.848400 0.000000
128.657501 244.941696 -8.848400 0.000000
142.140808 244.941696 -8.848400 0.000000
155.624115 244.941696 -8.848400 0.000000
169.107422 244.941696 -8.848400 0.023662
182.590698 244.941696 -8.848400 0.022768
196.074036 244.941696 -8.848400 0.024597
209.557312 244.941696 -8.848400 0.000000
223.040588 244.941696 -8.848400 0.000000
236.523926 244.941696 -8.848400 0.000000
250.007202 244.941696 -8.848400 0.000000
263.490540 244.941696 -8.848400 0.000000
276.973816 244.941696 -8.848400 0.000000
290.457092 244.941696 -8.848400 0.000000
303.940430 244.941696 -8.848400 0.000000
317.423706 244.941696 -8.848400 0.000000
330.907043 244.941696 -8.848400 0.000000
344.390320 244.941696 -8.848400 0.000000
-343.257996 231.458389 -8.848400 0.000000
-329.774689 231.458389 -8.848400 0.000000
-316.291382 231.458389 -8.848400 0.000000
-302.808105 231.458389 -8.848400 0.000000
-289.324799 231.458389 -8.848400 0.000000
-275.841492 231.458389 -8.848400 0.000000
-262.358185 231.458389 -8.848400 0.000000
-248.874893 231.458389 -8.848400 0.000000
-235.391602 231.458389 -8.848400 0.000000
-221.908295 231.458389 -8.848400 0.000000
-208.424988 231.458389 -8.848400 0.000000
-194.941696 231.458389 -8.848400 0.000000
-181.458389 231.458389 -8.848400 0.000000
-167.975098 231.458389 -8.848400 0.000000
-154.491791 231.458389 -8.848400 0.000000
-141.008499 231.458389 -8.848400 0.000000
-127.525192 231.458389 -8.848400 -0.025154
-114.041885 231.458389 -8.848400 -0.032683
-100.558594 231.458389 -8.848400 -0.026154
-87.075287 231.458389 -8.848400 -0.017869
-73.591980 231.458389 -8.848400 0.001384
-60.108704 231.458389 -8.848400 0.027004
-46.625397 231.458389 -8.848400 0.026169
-33.142090 231.458389 -8.848400 0.043780
-19.658783 231.458389 -8.848400 0.060893
-6.175476 231.458389 -8.848400 0.065474
7.307800 231.458389 -8.848400 0.031677
20.791107 231.458389 -8.848400 0.002201
34.274414 231.458389 -8.848400 -0.039106
47.757721 231.458389 -8.848400 0.000000
61.240997 231.458389 -8.848400 0.000000
74.724304 231.458389 -8.848400 -0.102924
88.207611 231.458389 -8.848400 -0.102444
101.690918 231.458389 -8.848400 -0.083926
115.174225 231.458389 -8.848400 0.000000
128.657501 231.458389 -8.848400 0.000000
142.140808 231.458389 -8.848400 -0.014903
155.624115 231.458389 -8.848400 0.003545
169.107422 231.458389 -8.848400 0.010072
182.590698 231.458389 -8.848400 0.016636
196.074036 231.458389 -8.848400 0.018182
209.557312 231.458389 -8.848400 0.000000
223.040588 231.458389 -8.848400 0.000000
236.523926 231.458389 -8.848400 0.000000
250.007202 231.458389 -8.848400 0.000000
263.490540 231.458389 -8.848400 0.000000
276.973816 231.458389 -8.848400 0.000000
290.457092 231.458389 -8.848400 0.000000
303.940430 231.458389 -8.848400 0.000000
317.423706 231.458389 -8.848400 0.000000
330.907043 231.458389 -8.848400 0.000000
344.390320 231.458389 -8.848400 0.000000
-343.257996 217.975098 -8.848400 0.000000
-329.774689 217.975098 -8.848400 0.000000
-316.291382 217.975098 -8.848400 0.000000
-302.808105 217.975098 -8.848400 0.000000
-289.324799 217.975098 -8.848400 0.000000
-275.841492 217.975098 -8.848400 0.000000
-262.358185 217.975098 -8.848400 0.000000
-248.874893 217.975098 -8.848400 0.000000
-235.391602 217.975098 -8.848400 0.000000
-221.908295 217.975098 -8.848400 0.000000
-208.424988 217.975098 -8.848400 0.000000
-194.941696 217.975098 -8.848400 0.000000
-181.458389 217.975098 -8.848400 0.000000
-167.975098 217.975098 -8.848400 0.000000
-154.491791 217.975098 -8.848400 0.000000
-141.008499 217.975098 -8.848400 -0.025125
-127.525192 217.975098 -8.848400 -0.045151
-114.041885 217.975098 -8.848400 -0.044368
-100.558594 217.975098 -8.848400 -0.039833
-87.075287 217.975098 -8.848400 -0.024127
-73.591980 217.975098 -8.848400 -0.005890
-60.108704 217.975098 -8.848400 0.012142
-46.625397 217.975098 -8.848400 0.027587
-33.142090 217.975098 -8.848400 0.038321
-19.658783 217.975098 -8.848400 0.041805
-6.175476 217.975098 -8.848400 0.044962
7.307800 217.975098 -8.848400 0.023744
20.791107 217.975098 -8.848400 -0.016668
34.274414 217.975098 -8.848400 -0.058965
47.757721 217.975098 -8.848400 0.000000
61.240997 217.975098 -8.848400 -0.107645
74.724304 217.975098 -8.848400 -0.113461
88.207611 217.975098 -8.848400 -0.118817
101.690918 217.975098 -8.848400 -0.094154
115.174225 217.975098 -8.848400 0.000000
128.657501 217.975098 -8.848400 -0.039372
142.140808 217.975098 -8.848400 -0.015539
155.624115 217.975098 -8.848400 0.008452
169.107422 217.975098 -8.848400 0.017345
182.590698 217.975098 -8.848400 0.019955
196.074036 217.975098 -8.848400 0.000000
209.557312 217.975098 -8.848400 0.000000
223.040588 217.975098 -8.848400 0.000000
236.523926 217.975098 -8.848400 0.000000
250.007202 217.975098 -8.848400 0.000000
263.490540 217.975098 -8.848400 0.000000
276.973816 217.975098 -8.848400 0.000000
290.457092 217.975098 -8.848400 0.000000
303.940430 217.975098 -8.848400 0.000000
317.423706 217.975098 -8.848400 0.000000
330.907043 217.975098 -8.848400 0.000000
344.390320 217.975098 -8.848400 0.000000
-343.257996 204.491791 -8.848400 0.000000
-329.774689 204.491791 -8.848400 0.000000
-316.291382 204.491791 -8.848400 0.000000
-302.808105 204.491791 -8.848400 0.000000
-289.324799 204.491791 -8.848400 0.000000
-275.841492 204.491791 -8.848400 0.000000
-262.358185 204.491791 -8.848400 0.000000
-248.874893 204.491791 -8.848400 0.000000
-235.391602 204.491791 -8.848400 0.000000
-221.908295 204.491791 -8.848400 0.000000
-208.424988 204.491791 -8.848400 0.000000
-194.941696 204.491791 -8.848400 0.000000
-181.458389 204.491791 -8.848400 0.000000
-167.975098 204.491791 -8.848400 0.000000
-154.491791 204.491791 -8.848400 0.000000
-141.008499 204.491791 -8.848400 -0.038086
-127.525192 204.491791 -8.848400 -0.049902
-114.041885 204.491791 -8.848400 -0.053769
-100.558594 204.491791 -8.848400 -0.042165
-87.075287 204.491791 -8.848400 -0.040217
-73.591980 204.491791 -8.848400 -0.010183
-60.108704 204.491791 -8.848400 0.000257
-46.625397 204.491791 -8.848400 0.024775
-33.142090 204.491791 -8.848400 0.036520
-19.658783 204.491791 -8.848400 0.039803
-6.175476 204.491791 -8.848400 0.031904
7.307800 204.491791 -8.848400 0.008337
20.791107 204.491791 -8.848400 -0.044543
34.274414 204.491791 -8.848400 -0.083774
47.757721 204.491791 -8.848400 -0.120346
61.240997 204.491791 -8.848400 -0.135293
74.724304 204.491791 -8.848400 -0.111468
88.207611 204.491791 -8.848400 -0.110575
101.690918 204.491791 -8.848400 -0.087263
115.174225 204.491791 -8.848400 -0.067071
128.657501 204.491791 -8.848400 -0.031411
142.140808 204.491791 -8.848400 -0.016505
155.624115 204.491791 -8.848400 0.012913
169.107422 204.491791 -8.848400 0.019881
182.590698 204.491791 -8.848400 0.000000
196.074036 204.491791 -8.848400 0.000000
209.557312 204.491791 -8.848400 0.000000
223.040588 204.491791 -8.848400 0.000000
236.523926 204.491791 -8.848400 0.000000
250.007202 204.491791 -8.848400 0.000000
263.490540 204.491791 -8.848400 0.000000
276.973816 204.491791 -8.848400 0.000000
290.457092 204.491791 -8.848400 0.000000
303.940430 204.491791 -8.848400 0.000000
317.423706 204.491791 -8.848400 0.000000
330.907043 204.491791 -8.848400 0.000000
344.390320 204.491791 -8.848400 0.000000
-343.257996 191.008499 -8.848400 0.000000
-329.774689 191.008499 -8.848400 0.000000
-316.291382 191.008499 -8.848400 0.000000
-302.808105 191.008499 -8.848400 0.000000
-289.324799 191.008499 -8.848400 0.000000
-275.841492 191.008499 -8.848400 0.000000
-262.358185 191.008499 -8.848400 0.000000
-248.874893 191.008499 -8.848400 0.000000
-235.391602 191.008499 -8.848400 0.000000
-221.908295 191.008499 -8.848400 0.000000
-208.424988 191.008499 -8.848400 0.000000
-194.941696 191.008499 -8.848400 0.000000
-181.458389 191.008499 -8.848400 0.000000
-167.975098 191.008499 -8.848400 0.000000
-154.491791 191.008499 -8.848400 0.000000
-141.008499 191.008499 -8.848400 -0.055418
-127.525192 191.008499 -8.848400 -0.051702
-114.041885 191.008499 -8.848400 -0.063189
-100.558594 191.008499 -8.848400 -0.059020
-87.075287 191.008499 -8.848400 -0.042650
-73.591980 191.008499 -8.848400 -0.026067
-60.108704 191.008499 -8.848400 -0.003917
-46.625397 191.008499 -8.848400 0.019829
-33.142090 191.008499 -8.848400 0.038254
-19.658783 191.008499 -8.848400 0.035943
-6.175476 191.008499 -8.848400 0.007994
7.307800 191.008499 -8.848400 -0.026306
20.791107 191.008499 -8.848400 -0.051485
34.274414 191.008499 -8.848400 -0.107519
47.757721 191.008499 -8.848400 -0.131807
61.240997 191.008499 -8.848400 -0.132827
74.724304 191.008499 -8.848400 -0.115552
88.207611 191.008499 -8.848400 -0.086005
101.690918 191.008499 -8.848400 -0.065309
115.174225 191.008499 -8.848400 -0.054060
128.657501 191.008499 -8.848400 -0.032598
142.140808 191.008499 -8.848400 -0.003943
155.624115 191.008499 -8.848400 0.007603
169.107422 191.008499 -8.848400 0.022111
182.590698 191.008499 -8.848400 0.000000
196.074036 191.008499 -8.848400 0.000000
209.557312 191.008499 -8.848400 0.000000
223.040588 191.008499 -8.848400 0.000000
236.523926 191.008499 -8.848400 0.000000
250.007202 191.008499 -8.848400 0.000000
263.490540 191.008499 -8.848400 0.000000
276.973816 191.008499 -8.848400 0.000000
290.457092 191.008499 -8.848400 0.000000
303.940430 191.008499 -8.848400 0.000000
317.423706 191.008499 -8.848400 0.000000
330.907043 191.008499 -8.848400 0.000000
344.390320 191.008499 -8.848400 0.000000
-343.257996 177.525192 -8.848400 0.000000
-329.774689 177.525192 -8.848400 0.000000
-316.291382 177.525192 -8.848400 0.000000
-302.808105 177.525192 -8.848400 0.000000
-289.324799 177.525192 -8.848400 0.000000
-275.841492 177.525192 -8.848400 0.000000
-262.358185 177.525192 -8.848400 0.000000
-248.874893 177.525192 -8.848400 0.000000
-235.391602 177.525192 -8.848400 0.000000
-221.908295 177.525192 -8.848400 0.000000
-208.424988 177.525192 -8.848400 0.000000
-194.941696 177.525192 -8.848400 0.000000
-181.458389 177.525192 -8.848400 0.000000
-167.975098 177.525192 -8.848400 0.000000
-154.491791 177.525192 -8.848400 0.000000
-141.008499 177.525192 -8.848400 -0.072912
-127.525192 177.525192 -8.848400 -0.067991
-114.041885 177.525192 -8.848400 -0.071192
-100.558594 177.525192 -8.848400 -0.058424
-87.075287 177.525192 -8.848400 -0.047109
-73.591980 177.525192 -8.848400 -0.025780
-60.108704 177.525192 -8.848400 -0.001126
-46.625397 177.525192 -8.848400 0.023489
-33.142090 177.525192 -8.848400 0.042815
-19.658783 177.525192 -8.848400 0.043046
-6.175476 177.525192 -8.848400 0.008823
7.307800 177.525192 -8.848400 -0.030607
20.791107 177.525192 -8.848400 -0.058208
34.274414 177.525192 -8.848400 -0.104061
47.757721 177.525192 -8.848400 -0.132739
61.240997 177.525192 -8.848400 -0.129788
74.724304 177.525192 -8.848400 -0.093015
88.207611 177.525192 -8.848400 -0.077204
101.690918 177.525192 -8.848400 -0.051074
115.174225 177.525192 -8.848400 -0.027689
128.657501 177.525192 -8.848400 -0.017331
142.140808 177.525192 -8.848400 0.001195
155.624115 177.525192 -8.848400 0.013537
169.107422 177.525192 -8.848400 0.000000
182.590698 177.525192 -8.848400 0.000000
196.074036 177.525192 -8.848400 0.000000
209.557312 177.525192 -8.848400 0.000000
223.040588 177.525192 -8.848400 0.000000
236.523926 177.525192 -8.848400 0.000000
250.007202 177.525192 -8.848400 0.000000
263.490540 177.525192 -8.848400 0.000000
276.973816 177.525192 -8.848400 0.000000
290.457092 177.525192 -8.848400 0.000000
303.940430 177.525192 -8.848400 0.000000
317.423706 177.525192 -8.848400 0.000000
330.907043 177.525192 -8.848400 0.000000
344.390320 177.525192 -8.848400 0.000000
-343.257996 164.041885 -8.848400 0.000000
-329.774689 164.041885 -8.848400 0.000000
-316.291382 164.041885 -8.848400 0.000000
-302.808105 164.041885 -8.848400 0.000000
-289.324799 164.041885 -8.848400 0.000000
-275.841492 164.041885 -8.848400 0.000000
-262.358185 164.041885 -8.848400 0.000000
-248.874893 164.041885 -8.848400 0.000000
-235.391602 164.041885 -8.848400 0.000000
-221.908295 164.041885 -8.848400 0.000000
-208.424988 164.041885 -8.848400 0.000000
-194.941696 164.041885 -8.848400 0.000000
-181.458389 164.041885 -8.848400 0.000000
-167.975098 164.041885 -8.848400 0.000000
-154.491791 164.041885 -8.848400 0.000000
-141.008499 164.041885 -8.848400 -0.069223
-127.525192 164.041885 -8.848400 -0.062043
-114.041885 164.041885 -8.848400 -0.055336
-100.558594 164.041885 -8.848400 -0.032032
-87.075287 164.041885 -8.848400 -0.024623
-73.591980 164.041885 -8.848400 -0.012558
-60.108704 164.041885 -8.848400 0.006872
-46.625397 164.041885 -8.848400 0.026777
-33.142090 164.041885 -8.848400 0.037488
-19.658783 164.041885 -8.848400 0.031630
-6.175476 164.041885 -8.848400 -0.000423
7.307800 164.041885 -8.848400 -0.031404
20.791107 164.041885 -8.848400 -0.063416
34.274414 164.041885 -8.848400 -0.100267
47.757721 164.041885 -8.848400 -0.112766
61.240997 164.041885 -8.848400 -0.103480
74.724304 164.041885 -8.848400 -0.076315
88.207611 164.041885 -8.848400 -0.062068
101.690918 164.041885 -8.848400 -0.033755
115.174225 164.041885 -8.848400 -0.020016
128.657501 164.041885 -8.848400 -0.008392
142.140808 164.041885 -8.848400 0.000000
155.624115 164.041885 -8.848400 0.000000
169.107422 164.041885 -8.848400 0.000000
182.590698 164.041885 -8.848400 0.000000
196.074036 164.041885 -8.848400 0.000000
209.557312 164.041885 -8.848400 0.000000
223.040588 164.041885 -8.848400 0.000000
236.523926 164.041885 -8.848400 0.000000
250.007202 164.041885 -8.848400 0.000000
263.490540 164.041885 -8.848400 0.000000
276.973816 164.041885 -8.848400 0.000000
290.457092 164.041885 -8.848400 0.000000
303.940430 164.041885 -8.848400 0.000000
317.423706 164.041885 -8.848400 0.000000
330.907043 164.041885 -8.848400 0.000000
344.390320 164.041885 -8.848400 0.000000
-343.257996 150.558594 -8.848400 0.000000
-329.774689 150.558594 -8.848400 0.000000
-316.291382 150.558594 -8.848400 0.000000
-302.808105 150.558594 -8.848400 0.000000
-289.324799 150.558594 -8.848400 0.000000
-275.841492 150.558594 -8.848400 0.000000
-262.358185 150.558594 -8.848400 0.000000
-248.874893 150.558594 -8.848400 0.000000
-235.391602 150.558594 -8.848400 0.000000
-221.908295 150.558594 -8.848400 0.000000
-208.424988 150.558594 -8.848400 0.000000
-194.941696 150.558594 -8.848400 0.000000
-181.458389 150.558594 -8.848400 0.000000
-167.975098 150.558594 -8.848400 0.000000
-154.491791 150.558594 -8.848400 0.000000
-141.008499 150.558594 -8.848400 -0.054326
-127.525192 150.558594 -8.848400 -0.028363
-114.041885 150.558594 -8.848400 -0.026427
-100.558594 150.558594 -8.848400 -0.004744
-87.075287 150.558594 -8.848400 -0.008361
-73.591980 150.558594 -8.848400 0.003776
-60.108704 150.558594 -8.848400 0.021373
-46.625397 150.558594 -8.848400 0.019038
-33.142090 150.558594 -8.848400 0.014092
-19.658783 150.558594 -8.848400 0.005978
-6.175476 150.558594 -8.848400 -0.005732
7.307800 150.558594 -8.848400 -0.039480
20.791107 150.558594 -8.848400 -0.079234
34.274414 150.558594 -8.848400 -0.098504
47.757721 150.558594 -8.848400 -0.091480
61.240997 150.558594 -8.848400 -0.093508
74.724304 150.558594 -8.848400 -0.065147
88.207611 150.558594 -8.848400 -0.041696
101.690918 150.558594 -8.848400 -0.023412
115.174225 150.558594 -8.848400 -0.004753
128.657501 150.558594 -8.848400 0.000000
142.140808 150.558594 -8.848400 0.000000
155.624115 150.558594 -8.848400 0.000000
169.107422 150.558594 -8.848400 0.000000
182.590698 150.558594 -8.848400 0.000000
196.074036 150.558594 -8.848400 0.000000
209.557312 150.558594 -8.848400 0.000000
223.040588 150.558594 -8.848400 0.000000
236.523926 150.558594 -8.848400 0.000000
250.007202 150.558594 -8.848400 0.000000
263.490540 150.558594 -8.848400 0.000000
276.973816 150.558594 -8.848400 0.000000
290.457092 150.558594 -8.848400 0.000000
303.940430 150.558594 -8.848400 0.000000
317.423706 150.558594 -8.848400 0.000000
330.907043 150.558594 -8.848400 0.000000
344.390320 150.558594 -8.848400 0.000000
-343.257996 137.075287 -8.848400 0.000000
-329.774689 137.075287 -8.848400 0.000000
-316.291382 137.075287 -8.848400 0.000000
-302.808105 137.075287 -8.848400 0.000000
-289.324799 137.075287 -8.848400 0.000000
-275.841492 137.075287 -8.848400 0.000000
-262.358185 137.075287 -8.848400 0.000000
-248.874893 137.075287 -8.848400 0.000000
-235.391602 137.075287 -8.848400 0.000000
-221.908295 137.075287 -8.848400 0.000000
-208.424988 137.075287 -8.848400 0.000000
-194.941696 137.075287 -8.848400 0.000000
-181.458389 137.075287 -8.848400 0.000000
-167.975098 137.075287 -8.848400 0.000000
-154.491791 137.075287 -8.848400 0.000000
-141.008499 137.075287 -8.848400 -0.036776
-127.525192 137.075287 -8.848400 -0.004290
-114.041885 137.075287 -8.848400 0.021966
-100.558594 137.075287 -8.848400 0.020929
-87.075287 137.075287 -8.848400 0.011659
-73.591980 137.075287 -8.848400 0.014520
-60.108704 137.075287 -8.848400 0.028115
-46.625397 137.075287 -8.848400 0.015786
-33.142090 137.075287 -8.848400 0.011149
-19.658783 137.075287 -8.848400 0.008677
-6.175476 137.075287 -8.848400 -0.012868
7.307800 137.075287 -8.848400 -0.047410
20.791107 137.075287 -8.848400 -0.081061
34.274414 137.075287 -8.848400 -0.087834
47.757721 137.075287 -8.848400 -0.078461
61.240997 137.075287 -8.848400 -0.071138
74.724304 137.075287 -8.848400 -0.048054
88.207611 137.075287 -8.848400 -0.038524
101.690918 137.075287 -8.848400 0.000000
115.174225 137.075287 -8.848400 0.000000
128.657501 137.075287 -8.848400 0.000000
142.140808 137.075287 -8.848400 0.000000
155.624115 137.075287 -8.848400 0.000000
169.107422 137.075287 -8.848400 0.000000
182.590698 137.075287 -8.848400 0.000000
196.074036 137.075287 -8.848400 0.000000
209.557312 137.075287 -8.848400 0.000000
223.040588 137.075287 -8.848400 0.000000
236.523926 137.075287 -8.848400 0.000000
250.007202 137.075287 -8.848400 0.000000
263.490540 137.075287 -8.848400 0.000000
276.973816 137.075287 -8.848400 0.000000
290.457092 137.075287 -8.848400 0.000000
303.940430 137.075287 -8.848400 0.000000
317.423706 137.075287 -8.848400 0.000000
330.907043 137.075287 -8.848400 0.000000
344.390320 137.075287 -8.848400 0.000000
-343.257996 123.591980 -8.848400 0.000000
-329.774689 123.591980 -8.848400 0.000000
-316.291382 123.591980 -8.848400 0.000000
-302.808105 123.591980 -8.848400 0.000000
-289.324799 123.591980 -8.848400 0.000000
-275.841492 123.591980 -8.848400 0.000000
-262.358185 123.591980 -8.848400 0.000000
-248.874893 123.591980 -8.848400 0.000000
-235.391602 123.591980 -8.848400 0.000000
-221.908295 123.591980 -8.848400 0.000000
-208.424988 123.591980 -8.848400 0.000000
-194.941696 123.591980 -8.848400 0.000000
-181.458389 123.591980 -8.848400 0.000000
-167.975098 123.591980 -8.848400 0.000000
-154.491791 123.591980 -8.848400 0.000000
-141.008499 123.591980 -8.848400 -0.009527
-127.525192 123.591980 -8.848400 -0.000589
-114.041885 123.591980 -8.848400 0.042701
-100.558594 123.591980 -8.848400 0.072685
-87.075287 123.591980 -8.848400 0.045701
-73.591980 123.591980 -8.848400 0.035756
-60.108704 123.591980 -8.848400 0.036578
-46.625397 123.591980 -8.848400 0.030985
-33.142090 123.591980 -8.848400 0.014325
-19.658783 123.591980 -8.848400 0.003733
-6.175476 123.591980 -8.848400 -0.019607
7.307800 123.591980 -8.848400 -0.048451
20.791107 123.591980 -8.848400 -0.080752
34.274414 123.591980 -8.848400 -0.081074
47.757721 123.591980 -8.848400 -0.068848
61.240997 123.591980 -8.848400 -0.044816
74.724304 123.591980 -8.848400 -0.029568
88.207611 123.591980 -8.848400 0.000000
101.690918 123.591980 -8.848400 0.000000
115.174225 123.591980 -8.848400 0.000000
128.657501 123.591980 -8.848400 0.000000
142.140808 123.591980 -8.848400 0.000000
155.624115 123.591980 -8.848400 0.000000
169.107422 123.591980 -8.848400 0.000000
182.590698 123.591980 -8.848400 0.000000
196.074036 123.591980 -8.848400 0.000000
209.557312 123.591980 -8.848400 0.000000
223.040588 123.591980 -8.848400 0.000000
236.523926 123.591980 -8.848400 0.000000
250.007202 123.591980 -8.848400 0.000000
263.490540 123.591980 -8.848400 0.000000
276.973816 123.591980 -8.848400 0.000000
290.457092 123.591980 -8.848400 0.000000
303.940430 123.591980 -8.848400 0.000000
317.423706 123.591980 -8.848400 0.000000
330.907043 123.591980 -8.848400 0.000000
344.390320 123.591980 -8.848400 0.000000
-343.257996 110.108704 -8.848400 0.000000
-329.774689 110.108704 -8.848400 0.000000
-316.291382 110.108704 -8.848400 0.000000
-302.808105 110.108704 -8.848400 0.000000
-289.324799 110.108704 -8.848400 0.000000
-275.841492 110.108704 -8.848400 0.000000
-262.358185 110.108704 -8.848400 0.000000
-248.874893 110.108704 -8.848400 0.000000
-235.391602 110.108704 -8.848400 0.000000
-221.908295 110.108704 -8.848400 0.000000
-208.424988 110.108704 -8.848400 0.000000
-194.941696 110.108704 -8.848400 0.000000
-181.458389 110.108704 -8.848400 0.000000
-167.975098 110.108704 -8.848400 0.000000
-154.491791 110.108704 -8.848400 0.000000
-141.008499 110.108704 -8.848400 -0.013244
-127.525192 110.108704 -8.848400 0.025726
-114.041885 110.108704 -8.848400 0.034499
-100.558594 110.108704 -8.848400 0.073847
-87.075287 110.108704 -8.848400 0.066262
-73.591980 110.108704 -8.848400 0.062817
-60.108704 110.108704 -8.848400 0.040620
-46.625397 110.108704 -8.848400 0.031966
-33.142090 110.108704 -8.848400 0.016193
-19.658783 110.108704 -8.848400 -0.012558
-6.175476 110.108704 -8.848400 -0.043104
7.307800 110.108704 -8.848400 -0.060475
20.791107 110.108704 -8.848400 -0.067040
34.274414 110.108704 -8.848400 -0.067285
47.757721 110.108704 -8.848400 -0.051967
61.240997 110.108704 -8.848400 -0.032754
74.724304 110.108704 -8.848400 0.000000
88.207611 110.108704 -8.848400 0.000000
101.690918 110.108704 -8.848400 0.000000
115.174225 110.108704 -8.848400 0.000000
128.657501 110.108704 -8.848400 0.000000
142.140808 110.108704 -8.848400 0.000000
155.624115 110.108704 -8.848400 0.000000
169.107422 110.108704 -8.848400 0.000000
182.590698 110.108704 -8.848400 0.000000
196.074036 110.108704 -8.848400 0.000000
209.557312 110.108704 -8.848400 0.000000
223.040588 110.108704 -8.848400 0.000000
236.523926 110.108704 -8.848400 0.000000
250.007202 110.108704 -8.848400 0.000000
263.490540 110.108704 -8.848400 0.000000
276.973816 110.108704 -8.848400 0.000000
290.457092 110.108704 -8.848400 0.000000
303.940430 110.108704 -8.848400 0.000000
317.423706 110.108704 -8.848400 0.000000
330.907043 110.108704 -8.848400 0.000000
344.390320 110.108704 -8.848400 0.000000
-343.257996 96.625397 -8.848400 0.000000
-329.774689 96.625397 -8.848400 0.000000
-316.291382 96.625397 -8.848400 0.000000
-302.808105 96.625397 -8.848400 0.000000
-289.324799 96.625397 -8.848400 0.000000
-275.841492 96.625397 -8.848400 0.000000
-262.358185 96.625397 -8.848400 0.000000
-248.874893 96.625397 -8.848400 0.000000
-235.391602 96.625397 -8.848400 0.000000
-221.908295 96.625397 -8.848400 0.000000
-208.424988 96.625397 -8.848400 0.000000
-194.941696 96.625397 -8.848400 0.000000
-181.458389 96.625397 -8.848400 0.000000
-167.975098 96.625397 -8.848400 0.000000
-154.491791 96.625397 -8.848400 0.000000
-141.008499 96.625397 -8.848400 -0.026451
-127.525192 96.625397 -8.848400 0.016711
-114.041885 96.625397 -8.848400 0.032258
-100.558594 96.625397 -8.848400 0.055973
-87.075287 96.625397 -8.848400 0.043312
-73.591980 96.625397 -8.848400 0.033908
-60.108704 96.625397 -8.848400 0.013979
-46.625397 96.625397 -8.848400 -0.009332
-33.142090 96.625397 -8.848400 -0.030269
-19.658783 96.625397 -8.848400 -0.039981
-6.175476 96.625397 -8.848400 -0.057356
7.307800 96.625397 -8.848400 -0.066885
20.791107 96.625397 -8.848400 -0.065761
34.274414 96.625397 -8.848400 -0.051091
47.757721 96.625397 -8.848400 -0.032678
61.240997 96.625397 -8.848400 -0.011512
74.724304 96.625397 -8.848400 0.000000
88.207611 96.625397 -8.848400 0.000000
101.690918 96.625397 -8.848400 0.000000
115.174225 96.625397 -8.848400 0.000000
128.657501 96.625397 -8.848400 0.000000
142.140808 96.625397 -8.848400 0.000000
155.624115 96.625397 -8.848400 0.000000
169.107422 96.625397 -8.848400 0.000000
182.590698 96.625397 -8.848400 0.000000
196.074036 96.625397 -8.848400 0.000000
209.557312 96.625397 -8.848400 0.000000
223.040588 96.625397 -8.848400 0.000000
236.523926 96.625397 -8.848400 0.000000
250.007202 96.625397 -8.848400 0.000000
263.490540 96.625397 -8.848400 0.000000
276.973816 96.625397 -8.848400 0.000000
290.457092 96.625397 -8.848400 0.000000
303.940430 96.625397 -8.848400 0.000000
317.423706 96.625397 -8.848400 0.000000
330.907043 96.625397 -8.848400 0.000000
344.390320 96.625397 -8.848400 0.000000
-343.257996 83.142090 -8.848400 0.000000
-329.774689 83.142090 -8.848400 0.000000
-316.291382 83.142090 -8.848400 0.000000
-302.808105 83.142090 -8.848400 0.000000
-289.324799 83.142090 -8.848400 0.000000
-275.841492 83.142090 -8.848400 0.000000
-262.358185 83.142090 -8.848400 0.000000
-248.874893 83.142090 -8.848400 0.000000
-235.391602 83.142090 -8.848400 0.000000
-221.908295 83.142090 -8.848400 0.000000
-208.424988 83.142090 -8.848400 0.000000
-194.941696 83.142090 -8.848400 0.000000
-181.458389 83.142090 -8.848400 0.000000
-167.975098 83.142090 -8.848400 0.000000
-154.491791 83.142090 -8.848400 0.000000
-141.008499 83.142090 -8.848400 -0.023834
-127.525192 83.142090 -8.848400 -0.002309
-114.041885 83.142090 -8.848400 0.031277
-100.558594 83.142090 -8.848400 0.048261
-87.075287 83.142090 -8.848400 0.027753
-73.591980 83.142090 -8.848400 0.002301
-60.108704 83.142090 -8.848400 -0.008121
-46.625397 83.142090 -8.848400 -0.028798
-33.142090 83.142090 -8.848400 -0.045317
-19.658783 83.142090 -8.848400 -0.065744
-6.175476 83.142090 -8.848400 -0.073167
7.307800 83.142090 -8.848400 -0.073769
20.791107 83.142090 -8.848400 -0.072684
34.274414 83.142090 -8.848400 -0.047606
47.757721 83.142090 -8.848400 -0.013322
61.240997 83.142090 -8.848400 0.000000
74.724304 83.142090 -8.848400 0.000000
88.207611 83.142090 -8.848400 0.000000
101.690918 83.142090 -8.848400 0.000000
115.174225 83.142090 -8.848400 0.000000
128.657501 83.142090 -8.848400 0.000000
142.140808 83.142090 -8.848400 0.000000
155.624115 83.142090 -8.848400 0.000000
169.107422 83.142090 -8.848400 0.000000
182.590698 83.142090 -8.848400 0.000000
196.074036 83.142090 -8.848400 0.000000
209.557312 83.142090 -8.848400 0.000000
223.040588 83.142090 -8.848400 0.000000
236.523926 83.142090 -8.848400 0.000000
250.007202 83.142090 -8.848400 0.000000
263.490540 83.142090 -8.848400 0.000000
276.973816 83.142090 -8.848400 0.000000
290.457092 83.142090 -8.848400 0.000000
303.940430 83.142090 -8.848400 0.000000
317.423706 83.142090 -8.848400 0.000000
330.907043 83.142090 -8.848400 0.000000
344.390320 83.142090 -8.848400 0.000000
-343.257996 69.658783 -8.848400 0.000000
-329.774689 69.658783 -8.848400 0.000000
-316.291382 69.658783 -8.848400 0.000000
-302.808105 69.658783 -8.848400 0.000000
-289.324799 69.658783 -8.848400 0.000000
-275.841492 69.658783 -8.848400 0.000000
-262.358185 69.658783 -8.848400 0.000000
-248.874893 69.658783 -8.848400 0.000000
-235.391602 69.658783 -8.848400 0.000000
-221.908295 69.658783 -8.848400 0.000000
-208.424988 69.658783 -8.848400 0.000000
-194.941696 69.658783 -8.848400 0.000000
-181.458389 69.658783 -8.848400 0.000000
-167.975098 69.658783 -8.848400 0.000000
-154.491791 69.658783 -8.848400 0.000000
-141.008499 69.658783 -8.848400 -0.017245
-127.525192 69.658783 -8.848400 0.020307
-114.041885 69.658783 -8.848400 0.051324
-100.558594 69.658783 -8.848400 0.039396
-87.075287 69.658783 -8.848400 0.010676
-73.591980 69.658783 -8.848400 -0.005658
-60.108704 69.658783 -8.848400 -0.002116
-46.625397 69.658783 -8.848400 -0.030635
-33.142090 69.658783 -8.848400 -0.054409
-19.658783 69.658783 -8.848400 -0.071372
-6.175476 69.658783 -8.848400 -0.083189
7.307800 69.658783 -8.848400 -0.083205
20.791107 69.658783 -8.848400 -0.078557
34.274414 69.658783 -8.848400 -0.042287
47.757721 69.658783 -8.848400 0.004365
61.240997 69.658783 -8.848400 0.000000
74.724304 69.658783 -8.848400 0.000000
88.207611 69.658783 -8.848400 0.000000
101.690918 69.658783 -8.848400 0.000000
115.174225 69.658783 -8.848400 0.000000
128.657501 69.658783 -8.848400 0.000000
142.140808 69.658783 -8.848400 0.000000
155.624115 69.658783 -8.848400 0.000000
169.107422 69.658783 -8.848400 0.000000
182.590698 69.658783 -8.848400 0.000000
196.074036 69.658783 -8.848400 0.000000
209.557312 69.658783 -8.848400 0.000000
223.040588 69.658783 -8.848400 0.000000
236.523926 69.658783 -8.848400 0.000000
250.007202 69.658783 -8.848400 0.000000
263.490540 69.658783 -8.848400 0.000000
276.973816 69.658783 -8.848400 0.000000
290.457092 69.658783 -8.848400 0.000000
303.940430 69.658783 -8.848400 0.000000
317.423706 69.658783 -8.848400 0.000000
330.907043 69.658783 -8.848400 0.000000
344.390320 69.658783 -8.848400 0.000000
-343.257996 56.175476 -8.848400 0.000000
-329.774689 56.175476 -8.848400 0.000000
-316.291382 56.175476 -8.848400 0.000000
-302.808105 56.175476 -8.848400 0.000000
-289.324799 56.175476 -8.848400 0.000000
-275.841492 56.175476 -8.848400 0.000000
-262.358185 56.175476 -8.848400 0.000000
-248.874893 56.175476 -8.848400 0.000000
-235.391602 56.175476 -8.848400 0.000000
-221.908295 56.175476 -8.848400 0.000000
-208.424988 56.175476 -8.848400 0.000000
-194.941696 56.175476 -8.848400 0.000000
-181.458389 56.175476 -8.848400 0.000000
-167.975098 56.175476 -8.848400 0.000000
-154.491791 56.175476 -8.848400 0.000000
-141.008499 56.175476 -8.848400 -0.012795
-127.525192 56.175476 -8.848400 0.019263
-114.041885 56.175476 -8.848400 0.050822
-100.558594 56.175476 -8.848400 0.046071
-87.075287 56.175476 -8.848400 0.002081
-73.591980 56.175476 -8.848400 -0.021908
-60.108704 56.175476 -8.848400 -0.029612
-46.625397 56.175476 -8.848400 -0.048120
-33.142090 56.175476 -8.848400 -0.069278
-19.658783 56.175476 -8.848400 -0.086209
-6.175476 56.175476 -8.848400 -0.095601
7.307800 56.175476 -8.848400 -0.082197
20.791107 56.175476 -8.848400 -0.083731
34.274414 56.175476 -8.848400 -0.038835
47.757721 56.175476 -8.848400 0.006989
61.240997 56.175476 -8.848400 0.000000
74.724304 56.175476 -8.848400 0.000000
88.207611 56.175476 -8.848400 0.000000
101.690918 56.175476 -8.848400 0.000000
115.174225 56.175476 -8.848400 0.000000
128.657501 56.175476 -8.848400 0.000000
142.140808 56.175476 -8.848400 0.000000
155.624115 56.175476 -8.848400 0.000000
169.107422 56.175476 -8.848400 0.000000
182.590698 56.175476 -8.848400 0.000000
196.074036 56.175476 -8.848400 0.000000
209.557312 56.175476 -8.848400 0.000000
223.040588 56.175476 -8.848400 0.000000
236.523926 56.175476 -8.848400 0.000000
250.007202 56.175476 -8.848400 0.000000
263.490540 56.175476 -8.848400 0.000000
276.973816 56.175476 -8.848400 0.000000
290.457092 56.175476 -8.848400 0.000000
303.940430 56.175476 -8.848400 0.000000
317.423706 56.175476 -8.848400 0.000000
330.907043 56.175476 -8.848400 0.000000
344.390320 56.175476 -8.848400 0.000000
-343.257996 42.692200 -8.848400 0.000000
-329.774689 42.692200 -8.848400 0.000000
-316.291382 42.692200 -8.848400 0.000000
-302.808105 42.692200 -8.848400 0.000000
-289.324799 42.692200 -8.848400 0.000000
-275.841492 42.692200 -8.848400 0.000000
-262.358185 42.692200 -8.848400 0.000000
-248.874893 42.692200 -8.848400 0.000000
-235.391602 42.692200 -8.848400 0.000000
-221.908295 42.692200 -8.848400 0.000000
-208.424988 42.692200 -8.848400 0.000000
-194.941696 42.692200 -8.848400 0.000000
-181.458389 42.692200 -8.848400 0.000000
-167.975098 42.692200 -8.848400 0.000000
-154.491791 42.692200 -8.848400 0.000000
-141.008499 42.692200 -8.848400 -0.032965
-127.525192 42.692200 -8.848400 0.027819
-114.041885 42.692200 -8.848400 0.040842
-100.558594 42.692200 -8.848400 0.009491
-87.075287 42.692200 -8.848400 -0.016860
-73.591980 42.692200 -8.848400 -0.032168
-60.108704 42.692200 -8.848400 -0.036406
-46.625397 42.692200 -8.848400 -0.058394
-33.142090 42.692200 -8.848400 -0.074961
-19.658783 42.692200 -8.848400 -0.081405
-6.175476 42.692200 -8.848400 -0.100096
7.307800 42.692200 -8.848400 -0.093824
20.791107 42.692200 -8.848400 -0.083332
34.274414 42.692200 -8.848400 -0.046784
47.757721 42.692200 -8.848400 -0.007626
61.240997 42.692200 -8.848400 0.000000
74.724304 42.692200 -8.848400 0.000000
88.207611 42.692200 -8.848400 0.000000
101.690918 42.692200 -8.848400 0.000000
115.174225 42.692200 -8.848400 0.000000
128.657501 42.692200 -8.848400 0.000000
142.140808 42.692200 -8.848400 0.000000
155.624115 42.692200 -8.848400 0.000000
169.107422 42.692200 -8.848400 0.000000
182.590698 42.692200 -8.848400 0.000000
196.074036 42.692200 -8.848400 0.000000
209.557312 42.692200 -8.848400 0.000000
223.040588 42.692200 -8.848400 0.000000
236.523926 42.692200 -8.848400 0.000000
250.007202 42.692200 -8.848400 0.000000
263.490540 42.692200 -8.848400 0.000000
276.973816 42.692200 -8.848400 0.000000
290.457092 42.692200 -8.848400 0.000000
303.940430 42.692200 -8.848400 0.000000
317.423706 42.692200 -8.848400 0.000000
330.907043 42.692200 -8.848400 0.000000
344.390320 42.692200 -8.848400 0.000000
-343.257996 29.208893 -8.848400 0.000000
-329.774689 29.208893 -8.848400 0.000000
-316.291382 29.208893 -8.848400 0.000000
-302.808105 29.208893 -8.848400 0.000000
-289.324799 29.208893 -8.848400 0.000000
-275.841492 29.208893 -8.848400 0.000000
-262.358185 29.208893 -8.848400 0.000000
-248.874893 29.208893 -8.848400 0.000000
-235.391602 29.208893 -8.848400 0.000000
-221.908295 29.208893 -8.848400 0.000000
-208.424988 29.208893 -8.848400 0.000000
-194.941696 29.208893 -8.848400 0.000000
-181.458389 29.208893 -8.848400 0.000000
-167.975098 29.208893 -8.848400 0.000000
-154.491791 29.208893 -8.848400 -0.058891
-141.008499 29.208893 -8.848400 -0.051681
-127.525192 29.208893 -8.848400 0.001419
-114.041885 29.208893 -8.848400 0.018474
-100.558594 29.208893 -8.848400 -0.007959
-87.075287 29.208893 -8.848400 -0.028463
-73.591980 29.208893 -8.848400 -0.033385
-60.108704 29.208893 -8.848400 -0.052119
-46.625397 29.208893 -8.848400 -0.055622
-33.142090 29.208893 -8.848400 -0.077028
-19.658783 29.208893 -8.848400 -0.085149
-6.175476 29.208893 -8.848400 -0.100285
7.307800 29.208893 -8.848400 -0.109335
20.791107 29.208893 -8.848400 -0.077585
34.274414 29.208893 -8.848400 -0.045089
47.757721 29.208893 -8.848400 -0.022630
61.240997 29.208893 -8.848400 0.000000
74.724304 29.208893 -8.848400 0.000000
88.207611 29.208893 -8.848400 0.000000
101.690918 29.208893 -8.848400 0.000000
115.174225 29.208893 -8.848400 0.000000
128.657501 29.208893 -8.848400 0.000000
142.140808 29.208893 -8.848400 0.000000
155.624115 29.208893 -8.848400 0.000000
169.107422 29.208893 -8.848400 0.000000
182.590698 29.208893 -8.848400 0.000000
196.074036 29.208893 -8.848400 0.000000
209.557312 29.208893 -8.848400 0.000000
223.040588 29.208893 -8.848400 0.000000
236.523926 29.208893 -8.848400 0.000000
250.007202 29.208893 -8.848400 0.000000
263.490540 29.208893 -8.848400 0.000000
276.973816 29.208893 -8.848400 0.000000
290.457092 29.208893 -8.848400 0.000000
303.940430 29.208893 -8.848400 0.000000
317.423706 29.208893 -8.848400 0.000000
330.907043 29.208893 -8.848400 0.000000
344.390320 29.208893 -8.848400 0.000000
-343.257996 15.725586 -8.848400 0.000000
-329.774689 15.725586 -8.848400 0.000000
-316.291382 15.725586 -8.848400 0.000000
-302.808105 15.725586 -8.848400 0.000000
-289.324799 15.725586 -8.848400 0.000000
-275.841492 15.725586 -8.848400 0.000000
-262.358185 15.725586 -8.848400 0.000000
-248.874893 15.725586 -8.848400 0.000000
-235.391602 15.725586 -8.848400 0.000000
-221.908295 15.725586 -8.848400 0.000000
-208.424988 15.725586 -8.848400 0.000000
-194.941696 15.725586 -8.848400 0.000000
-181.458389 15.725586 -8.848400 0.000000
-167.975098 15.725586 -8.848400 0.000000
-154.491791 15.725586 -8.848400 -0.034205
-141.008499 15.725586 -8.848400 -0.049333
-127.525192 15.725586 -8.848400 -0.011267
-114.041885 15.725586 -8.848400 -0.004465
-100.558594 15.725586 -8.848400 -0.004399
-87.075287 15.725586 -8.848400 -0.028284
-73.591980 15.725586 -8.848400 -0.031770
-60.108704 15.725586 -8.848400 -0.053019
-46.625397 15.725586 -8.848400 -0.051310
-33.142090 15.725586 -8.848400 -0.067451
-19.658783 15.725586 -8.848400 -0.085943
-6.175476 15.725586 -8.848400 -0.081904
7.307800 15.725586 -8.848400 -0.095095
20.791107 15.725586 -8.848400 -0.085726
34.274414 15.725586 -8.848400 -0.058284
47.757721 15.725586 -8.848400 -0.029454
61.240997 15.725586 -8.848400 0.003719
74.724304 15.725586 -8.848400 0.000000
88.207611 15.725586 -8.848400 0.000000
101.690918 15.725586 -8.848400 0.000000
115.174225 15.725586 -8.848400 0.000000
128.657501 15.725586 -8.848400 0.000000
142.140808 15.725586 -8.848400 0.000000
155.624115 15.725586 -8.848400 0.000000
169.107422 15.725586 -8.848400 0.000000
182.590698 15.725586 -8.848400 0.000000
196.074036 15.725586 -8.848400 0.000000
209.557312 15.725586 -8.848400 0.000000
223.040588 15.725586 -8.848400 0.000000
236.523926 15.725586 -8.848400 0.000000
250.007202 15.725586 -8.848400 0.000000
263.490540 15.725586 -8.848400 0.000000
276.973816 15.725586 -8.848400 0.000000
290.457092 15.725586 -8.848400 0.000000
303.940430 15.725586 -8.848400 0.000000
317.423706 15.725586 -8.848400 0.000000
330.907043 15.725586 -8.848400 0.000000
344.390320 15.725586 -8.848400 0.000000
-343.257996 2.242279 -8.848400 0.000000
-329.774689 2.242279 -8.848400 0.000000
-316.291382 2.242279 -8.848400 0.000000
-302.808105 2.242279 -8.848400 0.000000
-289.324799 2.242279 -8.848400 0.000000
-275.841492 2.242279 -8.848400 0.000000
-262.358185 2.242279 -8.848400 0.000000
-248.874893 2.242279 -8.848400 0.000000
-235.391602 2.242279 -8.848400 0.000000
-221.908295 2.242279 -8.848400 0.000000
-208.424988 2.242279 -8.848400 0.000000
-194.941696 2.242279 -8.848400 0.000000
-181.458389 2.242279 -8.848400 0.000000
-167.975098 2.242279 -8.848400 0.000000
-154.491791 2.242279 -8.848400 -0.025369
-141.008499 2.242279 -8.848400 -0.024315
-127.525192 2.242279 -8.848400 -0.026117
-114.041885 2.242279 -8.848400 -0.019846
-100.558594 2.242279 -8.848400 -0.017819
-87.075287 2.242279 -8.848400 -0.022166
-73.591980 2.242279 -8.848400 -0.026380
-60.108704 2.242279 -8.848400 -0.040874
-46.625397 2.242279 -8.848400 -0.043976
-33.142090 2.242279 -8.848400 -0.058046
-19.658783 2.242279 -8.848400 -0.063514
-6.175476 2.242279 -8.848400 -0.067419
7.307800 2.242279 -8.848400 -0.084924
20.791107 2.242279 -8.848400 -0.089334
34.274414 2.242279 -8.848400 -0.070455
47.757721 2.242279 -8.848400 -0.024260
61.240997 2.242279 -8.848400 0.000000
74.724304 2.242279 -8.848400 0.000000
88.207611 2.242279 -8.848400 0.000000
101.690918 2.242279 -8.848400 0.000000
115.174225 2.242279 -8.848400 0.000000
128.657501 2.242279 -8.848400 0.000000
142.140808 2.242279 -8.848400 0.000000
155.624115 2.242279 -8.848400 0.000000
169.107422 2.242279 -8.848400 0.000000
182.590698 2.242279 -8.848400 0.000000
196.074036 2.242279 -8.848400 0.000000
209.557312 2.242279 -8.848400 0.000000
223.040588 2.242279 -8.848400 0.000000
236.523926 2.242279 -8.848400 0.000000
250.007202 2.242279 -8.848400 0.000000
263.490540 2.242279 -8.848400 0.000000
276.973816 2.242279 -8.848400 0.000000
290.457092 2.242279 -8.848400 0.000000
303.940430 2.242279 -8.848400 0.000000
317.423706 2.242279 -8.848400 0.000000
330.907043 2.242279 -8.848400 0.000000
344.390320 2.242279 -8.848400 0.000000
-343.257996 -11.240997 -8.848400 0.000000
-329.774689 -11.240997 -8.848400 0.000000
-316.291382 -11.240997 -8.848400 0.000000
-302.808105 -11.240997 -8.848400 0.000000
-289.324799 -11.240997 -8.848400 0.000000
-275.841492 -11.240997 -8.848400 0.000000
-262.358185 -11.240997 -8.848400 0.000000
-248.874893 -11.240997 -8.848400 0.000000
-235.391602 -11.240997 -8.848400 0.000000
-221.908295 -11.240997 -8.848400 0.000000
-208.424988 -11.240997 -8.848400 0.000000
-194.941696 -11.240997 -8.848400 0.000000
-181.458389 -11.240997 -8.848400 0.000000
-167.975098 -11.240997 -8.848400 -0.026682
-154.491791 -11.240997 -8.848400 -0.011681
-141.008499 -11.240997 -8.848400 -0.009986
-127.525192 -11.240997 -8.848400 -0.018018
-114.041885 -11.240997 -8.848400 -0.016451
-100.558594 -11.240997 -8.848400 -0.022266
-87.075287 -11.240997 -8.848400 -0.025230
-73.591980 -11.240997 -8.848400 -0.019693
-60.108704 -11.240997 -8.848400 -0.049108
-46.625397 -11.240997 -8.848400 0.000000
-33.142090 -11.240997 -8.848400 0.000000
-19.658783 -11.240997 -8.848400 0.000000
-6.175476 -11.240997 -8.848400 0.000000
7.307800 -11.240997 -8.848400 -0.087122
20.791107 -11.240997 -8.848400 -0.092497
34.274414 -11.240997 -8.848400 -0.074322
47.757721 -11.240997 -8.848400 0.000000
61.240997 -11.240997 -8.848400 0.000000
74.724304 -11.240997 -8.848400 0.000000
88.207611 -11.240997 -8.848400 0.000000
101.690918 -11.240997 -8.848400 0.000000
115.174225 -11.240997 -8.848400 0.000000
128.657501 -11.240997 -8.848400 0.000000
142.140808 -11.240997 -8.848400 0.000000
155.624115 -11.240997 -8.848400 0.000000
169.107422 -11.240997 -8.848400 0.000000
182.590698 -11.240997 -8.848400 0.000000
196.074036 -11.240997 -8.848400 0.000000
209.557312 -11.240997 -8.848400 0.000000
223.040588 -11.240997 -8.848400 0.000000
236.523926 -11.240997 -8.848400 0.000000
250.007202 -11.240997 -8.848400 0.000000
263.490540 -11.240997 -8.848400 0.000000
276.973816 -11.240997 -8.848400 0.000000
290.457092 -11.240997 -8.848400 0.000000
303.940430 -11.240997 -8.848400 0.000000
317.423706 -11.240997 -8.848400 0.000000
330.907043 -11.240997 -8.848400 0.000000
344.390320 -11.240997 -8.848400 0.000000
-343.257996 -24.724304 -8.848400 0.000000
-329.774689 -24.724304 -8.848400 0.000000
-316.291382 -24.724304 -8.848400 0.000000
-302.808105 -24.724304 -8.848400 0.000000
-289.324799 -24.724304 -8.848400 0.000000
-275.841492 -24.724304 -8.848400 0.000000
-262.358185 -24.724304 -8.848400 0.000000
-248.874893 -24.724304 -8.848400 0.000000
-235.391602 -24.724304 -8.848400 0.000000
-221.908295 -24.724304 -8.848400 0.000000
-208.424988 -24.724304 -8.848400 0.000000
-194.941696 -24.724304 -8.848400 0.000000
-181.458389 -24.724304 -8.848400 0.000000
-167.975098 -24.724304 -8.848400 0.000000
-154.491791 -24.724304 -8.848400 -0.008815
-141.008499 -24.724304 -8.848400 0.005453
-127.525192 -24.724304 -8.848400 -0.012033
-114.041885 -24.724304 -8.848400 -0.017879
-100.558594 -24.724304 -8.848400 -0.020709
-87.075287 -24.724304 -8.848400 -0.024375
-73.591980 -24.724304 -8.848400 -0.012298
-60.108704 -24.724304 -8.848400 0.000000
-46.625397 -24.724304 -8.848400 0.000000
-33.142090 -24.724304 -8.848400 0.000000
-19.658783 -24.724304 -8.848400 0.000000
-6.175476 -24.724304 -8.848400 0.000000
7.307800 -24.724304 -8.848400 0.000000
20.791107 -24.724304 -8.848400 -0.100759
34.274414 -24.724304 -8.848400 -0.073828
47.757721 -24.724304 -8.848400 0.000000
61.240997 -24.724304 -8.848400 0.000000
74.724304 -24.724304 -8.848400 0.000000
88.207611 -24.724304 -8.848400 0.000000
101.690918 -24.724304 -8.848400 0.000000
115.174225 -24.724304 -8.848400 0.000000
128.657501 -24.724304 -8.848400 0.000000
142.140808 -24.724304 -8.848400 0.000000
155.624115 -24.724304 -8.848400 0.000000
169.107422 -24.724304 -8.848400 0.000000
182.590698 -24.724304 -8.848400 0.000000
196.074036 -24.724304 -8.848400 0.000000
209.557312 -24.724304 -8.848400 0.000000
223.040588 -24.724304 -8.848400 0.000000
236.523926 -24.724304 -8.848400 0.000000
250.007202 -24.724304 -8.848400 0.000000
263.490540 -24.724304 -8.848400 0.000000
276.973816 -24.724304 -8.848400 0.000000
290.457092 -24.724304 -8.848400 0.000000
303.940430 -24.724304 -8.848400 0.000000
317.423706 -24.724304 -8.848400 0.000000
330.907043 -24.724304 -8.848400 0.000000
344.390320 -24.724304 -8.848400 0.000000
-343.257996 -38.207611 -8.848400 0.000000
-329.774689 -38.207611 -8.848400 0.000000
-316.291382 -38.207611 -8.848400 0.000000
-302.808105 -38.207611 -8.848400 0.000000
-289.324799 -38.207611 -8.848400 0.000000
-275.841492 -38.207611 -8.848400 0.000000
-262.358185 -38.207611 -8.848400 0.000000
-248.874893 -38.207611 -8.848400 0.000000
-235.391602 -38.207611 -8.848400 0.000000
-221.908295 -38.207611 -8.848400 0.000000
-208.424988 -38.207611 -8.848400 0.000000
-194.941696 -38.207611 -8.848400 0.000000
-181.458389 -38.207611 -8.848400 0.000000
-167.975098 -38.207611 -8.848400 -0.020045
-154.491791 -38.207611 -8.848400 -0.005310
-141.008499 -38.207611 -8.848400 -0.013701
-127.525192 -38.207611 -8.848400 -0.047431
-114.041885 -38.207611 -8.848400 -0.029769
-100.558594 -38.207611 -8.848400 -0.031042
-87.075287 -38.207611 -8.848400 -0.043133
-73.591980 -38.207611 -8.848400 -0.042711
-60.108704 -38.207611 -8.848400 -0.034085
-46.625397 -38.207611 -8.848400 -0.037664
-33.142090 -38.207611 -8.848400 0.000000
-19.658783 -38.207611 -8.848400 0.000000
-6.175476 -38.207611 -8.848400 -0.107652
7.307800 -38.207611 -8.848400 -0.113807
20.791107 -38.207611 -8.848400 -0.097935
34.274414 -38.207611 -8.848400 0.000000
47.757721 -38.207611 -8.848400 0.000000
61.240997 -38.207611 -8.848400 0.000000
74.724304 -38.207611 -8.848400 0.000000
88.207611 -38.207611 -8.848400 0.000000
101.690918 -38.207611 -8.848400 0.000000
115.174225 -38.207611 -8.848400 0.000000
128.657501 -38.207611 -8.848400 0.000000
142.140808 -38.207611 -8.848400 0.000000
155.624115 -38.207611 -8.848400 0.000000
169.107422 -38.207611 -8.848400 0.000000
182.590698 -38.207611 -8.848400 0.000000
196.074036 -38.207611 -8.848400 0.000000
209.557312 -38.207611 -8.848400 0.000000
223.040588 -38.207611 -8.848400 0.000000
236.523926 -38.207611 -8.848400 0.000000
250.007202 -38.207611 -8.848400 0.000000
263.490540 -38.207611 -8.848400 0.000000
276.973816 -38.207611 -8.848400 0.000000
290.457092 -38.207611 -8.848400 0.000000
303.940430 -38.207611 -8.848400 0.000000
317.423706 -38.207611 -8.848400 0.000000
330.907043 -38.207611 -8.848400 0.000000
344.390320 -38.207611 -8.848400 0.000000
-343.257996 -51.690918 -8.848400 0.000000
-329.774689 -51.690918 -8.848400 0.000000
-316.291382 -51.690918 -8.848400 0.000000
-302.808105 -51.690918 -8.848400 0.000000
-289.324799 -51.690918 -8.848400 0.000000
-275.841492 -51.690918 -8.848400 0.000000
-262.358185 -51.690918 -8.848400 0.000000
-248.874893 -51.690918 -8.848400 0.000000
-235.391602 -51.690918 -8.848400 0.000000
-221.908295 -51.690918 -8.848400 0.000000
-208.424988 -51.690918 -8.848400 0.000000
-194.941696 -51.690918 -8.848400 0.000000
-181.458389 -51.690918 -8.848400 0.000000
-167.975098 -51.690918 -8.848400 0.000000
-154.491791 -51.690918 -8.848400 -0.030810
-141.008499 -51.690918 -8.848400 -0.034398
-127.525192 -51.690918 -8.848400 0.000000
-114.041885 -51.690918 -8.848400 -0.045902
-100.558594 -51.690918 -8.848400 -0.040577
-87.075287 -51.690918 -8.848400 0.000000
-73.591980 -51.690918 -8.848400 -0.041673
-60.108704 -51.690918 -8.848400 -0.055168
-46.625397 -51.690918 -8.848400 -0.066507
-33.142090 -51.690918 -8.848400 -0.067232
-19.658783 -51.690918 -8.848400 -0.088758
-6.175476 -51.690918 -8.848400 -0.102229
7.307800 -51.690918 -8.848400 -0.097045
20.791107 -51.690918 -8.848400 -0.080489
34.274414 -51.690918 -8.848400 0.000000
47.757721 -51.690918 -8.848400 0.000000
61.240997 -51.690918 -8.848400 0.000000
74.724304 -51.690918 -8.848400 0.000000
88.207611 -51.690918 -8.848400 0.000000
101.690918 -51.690918 -8.848400 0.000000
115.174225 -51.690918 -8.848400 0.000000
128.657501 -51.690918 -8.848400 0.000000
142.140808 -51.690918 -8.848400 0.000000
155.624115 -51.690918 -8.848400 0.000000
169.107422 -51.690918 -8.848400 0.000000
182.590698 -51.690918 -8.848400 0.000000
196.074036 -51.690918 -8.848400 0.000000
209.557312 -51.690918 -8.848400 0.000000
223.040588 -51.690918 -8.848400 0.000000
236.523926 -51.690918 -8.848400 0.000000
250.007202 -51.690918 -8.848400 0.000000
263.490540 -51.690918 -8.848400 0.000000
276.973816 -51.690918 -8.848400 0.000000
290.457092 -51.690918 -8.848400 0.000000
303.940430 -51.690918 -8.848400 0.000000
317.423706 -51.690918 -8.848400 0.000000
330.907043 -51.690918 -8.848400 0.000000
344.390320 -51.690918 -8.848400 0.000000
-343.257996 -65.174225 -8.848400 0.000000
-329.774689 -65.174225 -8.848400 0.000000
-316.291382 -65.174225 -8.848400 0.000000
-302.808105 -65.174225 -8.848400 0.000000
-289.324799 -65.174225 -8.848400 0.000000
-275.841492 -65.174225 -8.848400 0.000000
-262.358185 -65.174225 -8.848400 0.000000
-248.874893 -65.174225 -8.848400 0.000000
-235.391602 -65.174225 -8.848400 0.000000
-221.908295 -65.174225 -8.848400 0.000000
-208.424988 -65.174225 -8.848400 0.000000
-194.941696 -65.174225 -8.848400 0.000000
-181.458389 -65.174225 -8.848400 0.000000
-167.975098 -65.174225 -8.848400 0.000000
-154.491791 -65.174225 -8.848400 -0.049863
-141.008499 -65.174225 -8.848400 -0.031161
-127.525192 -65.174225 -8.848400 -0.061346
-114.041885 -65.174225 -8.848400 -0.044015
-100.558594 -65.174225 -8.848400 -0.045793
-87.075287 -65.174225 -8.848400 -0.051376
-73.591980 -65.174225 -8.848400 -0.062975
-60.108704 -65.174225 -8.848400 -0.071060
-46.625397 -65.174225 -8.848400 -0.074187
-33.142090 -65.174225 -8.848400 -0.071466
-19.658783 -65.174225 -8.848400 -0.079341
-6.175476 -65.174225 -8.848400 -0.073919
7.307800 -65.174225 -8.848400 -0.077633
20.791107 -65.174225 -8.848400 -0.076706
34.274414 -65.174225 -8.848400 0.000000
47.757721 -65.174225 -8.848400 0.000000
61.240997 -65.174225 -8.848400 0.000000
74.724304 -65.174225 -8.848400 0.000000
88.207611 -65.174225 -8.848400 0.000000
101.690918 -65.174225 -8.848400 0.000000
115.174225 -65.174225 -8.848400 0.000000
128.657501 -65.174225 -8.848400 0.000000
142.140808 -65.174225 -8.848400 0.000000
155.624115 -65.174225 -8.848400 0.000000
169.107422 -65.174225 -8.848400 0.000000
182.590698 -65.174225 -8.848400 0.000000
196.074036 -65.174225 -8.848400 0.000000
209.557312 -65.174225 -8.848400 0.000000
223.040588 -65.174225 -8.848400 0.000000
236.523926 -65.174225 -8.848400 0.000000
250.007202 -65.174225 -8.848400 0.000000
263.490540 -65.174225 -8.848400 0.000000
276.973816 -65.174225 -8.848400 0.000000
290.457092 -65.174225 -8.848400 0.000000
303.940430 -65.174225 -8.848400 0.000000
317.423706 -65.174225 -8.848400 0.000000
330.907043 -65.174225 -8.848400 0.000000
344.390320 -65.174225 -8.848400 0.000000
-343.257996 -78.657501 -8.848400 0.000000
-329.774689 -78.657501 -8.848400 0.000000
-316.291382 -78.657501 -8.848400 0.000000
-302.808105 -78.657501 -8.848400 0.000000
-289.324799 -78.657501 -8.848400 0.000000
-275.841492 -78.657501 -8.848400 0.000000
-262.358185 -78.657501 -8.848400 0.000000
-248.874893 -78.657501 -8.848400 0.000000
-235.391602 -78.657501 -8.848400 0.000000
-221.908295 -78.657501 -8.848400 0.000000
-208.424988 -78.657501 -8.848400 0.000000
-194.941696 -78.657501 -8.848400 0.000000
-181.458389 -78.657501 -8.848400 0.000000
-167.975098 -78.657501 -8.848400 0.000000
-154.491791 -78.657501 -8.848400 0.000000
-141.008499 -78.657501 -8.848400 -0.072883
-127.525192 -78.657501 -8.848400 0.000000
-114.041885 -78.657501 -8.848400 0.000000
-100.558594 -78.657501 -8.848400 -0.057276
-87.075287 -78.657501 -8.848400 -0.039986
-73.591980 -78.657501 -8.848400 -0.044000
-60.108704 -78.657501 -8.848400 -0.039296
-46.625397 -78.657501 -8.848400 -0.051833
-33.142090 -78.657501 -8.848400 -0.050080
-19.658783 -78.657501 -8.848400 -0.057524
-6.175476 -78.657501 -8.848400 -0.057298
7.307800 -78.657501 -8.848400 -0.058751
20.791107 -78.657501 -8.848400 0.000000
34.274414 -78.657501 -8.848400 0.000000
47.757721 -78.657501 -8.848400 0.000000
61.240997 -78.657501 -8.848400 0.000000
74.724304 -78.657501 -8.848400 0.000000
88.207611 -78.657501 -8.848400 0.000000
101.690918 -78.657501 -8.848400 0.000000
115.174225 -78.657501 -8.848400 0.000000
128.657501 -78.657501 -8.848400 0.000000
142.140808 -78.657501 -8.848400 0.000000
155.624115 -78.657501 -8.848400 0.000000
169.107422 -78.657501 -8.848400 0.000000
182.590698 -78.657501 -8.848400 0.000000
196.074036 -78.657501 -8.848400 0.000000
209.557312 -78.657501 -8.848400 0.000000
223.040588 -78.657501 -8.848400 0.000000
236.523926 -78.657501 -8.848400 0.000000
250.007202 -78.657501 -8.848400 0.000000
263.490540 -78.657501 -8.848400 0.000000
276.973816 -78.657501 -8.848400 0.000000
290.457092 -78.657501 -8.848400 0.000000
303.940430 -78.657501 -8.848400 0.000000
317.423706 -78.657501 -8.848400 0.000000
330.907043 -78.657501 -8.848400 0.000000
344.390320 -78.657501 -8.848400 0.000000
-343.257996 -92.140808 -8.848400 0.000000
-329.774689 -92.140808 -8.848400 0.000000
-316.291382 -92.140808 -8.848400 0.000000
-302.808105 -92.140808 -8.848400 0.000000
-289.324799 -92.140808 -8.848400 0.000000
-275.841492 -92.140808 -8.848400 0.000000
-262.358185 -92.140808 -8.848400 0.000000
-248.874893 -92.140808 -8.848400 0.000000
-235.391602 -92.140808 -8.848400 0.000000
-221.908295 -92.140808 -8.848400 0.000000
-208.424988 -92.140808 -8.848400 0.000000
-194.941696 -92.140808 -8.848400 0.000000
-181.458389 -92.140808 -8.848400 0.000000
-167.975098 -92.140808 -8.848400 0.000000
-154.491791 -92.140808 -8.848400 0.000000
-141.008499 -92.140808 -8.848400 0.000000
-127.525192 -92.140808 -8.848400 0.000000
-114.041885 -92.140808 -8.848400 0.000000
-100.558594 -92.140808 -8.848400 0.000000
-87.075287 -92.140808 -8.848400 -0.036338
-73.591980 -92.140808 -8.848400 0.000000
-60.108704 -92.140808 -8.848400 0.000000
-46.625397 -92.140808 -8.848400 0.000000
-33.142090 -92.140808 -8.848400 -0.042683
-19.658783 -92.140808 -8.848400 -0.049059
-6.175476 -92.140808 -8.848400 0.000000
7.307800 -92.140808 -8.848400 0.000000
20.791107 -92.140808 -8.848400 0.000000
34.274414 -92.140808 -8.848400 0.000000
47.757721 -92.140808 -8.848400 0.000000
61.240997 -92.140808 -8.848400 0.000000
74.724304 -92.140808 -8.848400 0.000000
88.207611 -92.140808 -8.848400 0.000000
101.690918 -92.140808 -8.848400 0.000000
115.174225 -92.140808 -8.848400 0.000000
128.657501 -92.140808 -8.848400 0.000000
142.140808 -92.140808 -8.848400 0.000000
155.624115 -92.140808 -8.848400 0.000000
169.107422 -92.140808 -8.848400 0.000000
182.590698 -92.140808 -8.848400 0.000000
196.074036 -92.140808 -8.848400 0.000000
209.557312 -92.140808 -8.848400 0.000000
223.040588 -92.140808 -8.848400 0.000000
236.523926 -92.140808 -8.848400 0.000000
250.007202 -92.140808 -8.848400 0.000000
263.490540 -92.140808 -8.848400 0.000000
276.973816 -92.140808 -8.848400 0.000000
290.457092 -92.140808 -8.848400 0.000000
303.940430 -92.140808 -8.848400 0.000000
317.423706 -92.140808 -8.848400 0.000000
330.907043 -92.140808 -8.848400 0.000000
344.390320 -92.140808 -8.848400 0.000000
-343.257996 -105.624115 -8.848400 0.000000
-329.774689 -105.624115 -8.848400 0.000000
-316.291382 -105.624115 -8.848400 0.000000
-302.808105 -105.624115 -8.848400 0.000000
-289.324799 -105.624115 -8.848400 0.000000
-275.841492 -105.624115 -8.848400 0.000000
-262.358185 -105.624115 -8.848400 0.000000
-248.874893 -105.624115 -8.848400 0.000000
-235.391602 -105.624115 -8.848400 0.000000
-221.908295 -105.624115 -8.848400 0.000000
-208.424988 -105.624115 -8.848400 0.000000
-194.941696 -105.624115 -8.848400 0.000000
-181.458389 -105.624115 -8.848400 0.000000
-167.975098 -105.624115 -8.848400 0.000000
-154.491791 -105.624115 -8.848400 0.000000
-141.008499 -105.624115 -8.848400 0.000000
-127.525192 -105.624115 -8.848400 0.000000
-114.041885 -105.624115 -8.848400 0.000000
-100.558594 -105.624115 -8.848400 0.000000
-87.075287 -105.624115 -8.848400 0.000000
-73.591980 -105.624115 -8.848400 0.000000
-60.108704 -105.624115 -8.848400 0.000000
-46.625397 -105.624115 -8.848400 0.000000
-33.142090 -105.624115 -8.848400 0.000000
-19.658783 -105.624115 -8.848400 0.000000
-6.175476 -105.624115 -8.848400 0.000000
7.307800 -105.624115 -8.848400 0.000000
20.791107 -105.624115 -8.848400 0.000000
34.274414 -105.624115 -8.848400 0.000000
47.757721 -105.624115 -8.848400 0.000000
61.240997 -105.624115 -8.848400 0.000000
74.724304 -105.624115 -8.848400 0.000000
88.207611 -105.624115 -8.848400 0.000000
101.690918 -105.624115 -8.848400 0.000000
115.174225 -105.624115 -8.848400 0.000000
128.657501 -105.624115 -8.848400 0.000000
142.140808 -105.624115 -8.848400 0.000000
155.624115 -105.624115 -8.848400 0.000000
169.107422 -105.624115 -8.848400 0.000000
182.590698 -105.624115 -8.848400 0.000000
196.074036 -105.624115 -8.848400 0.000000
209.557312 -105.624115 -8.848400 0.000000
223.040588 -105.624115 -8.848400 0.000000
236.523926 -105.624115 -8.848400 0.000000
250.007202 -105.624115 -8.848400 0.000000
263.490540 -105.624115 -8.848400 0.000000
276.973816 -105.624115 -8.848400 0.000000
290.457092 -105.624115 -8.848400 0.000000
303.940430 -105.624115 -8.848400 0.000000
317.423706 -105.624115 -8.848400 0.000000
330.907043 -105.624115 -8.848400 0.000000
344.390320 -105.624115 -8.848400 0.000000
-343.257996 -119.107422 -8.848400 0.000000
-329.774689 -119.107422 -8.848400 0.000000
-316.291382 -119.107422 -8.848400 0.000000
-302.808105 -119.107422 -8.848400 0.000000
-289.324799 -119.107422 -8.848400 0.000000
-275.841492 -119.107422 -8.848400 0.000000
-262.358185 -119.107422 -8.848400 0.000000
-248.874893 -119.107422 -8.848400 0.000000
-235.391602 -119.107422 -8.848400 0.000000
-221.908295 -119.107422 -8.848400 0.000000
-208.424988 -119.107422 -8.848400 0.000000
-194.941696 -119.107422 -8.848400 0.000000
-181.458389 -119.107422 -8.848400 0.000000
-167.975098 -119.107422 -8.848400 0.000000
-154.491791 -119.107422 -8.848400 0.000000
-141.008499 -119.107422 -8.848400 0.000000
-127.525192 -119.107422 -8.848400 0.000000
-114.041885 -119.107422 -8.848400 0.000000
-100.558594 -119.107422 -8.848400 0.000000
-87.075287 -119.107422 -8.848400 0.000000
-73.591980 -119.107422 -8.848400 0.000000
-60.108704 -119.107422 -8.848400 0.000000
-46.625397 -119.107422 -8.848400 0.000000
-33.142090 -119.107422 -8.848400 0.000000
-19.658783 -119.107422 -8.848400 0.000000
-6.175476 -119.107422 -8.848400 0.000000
7.307800 -119.107422 -8.848400 0.000000
20.791107 -119.107422 -8.848400 0.000000
34.274414 -119.107422 -8.848400 0.000000
47.757721 -119.107422 -8.848400 0.000000
61.240997 -119.107422 -8.848400 0.000000
74.724304 -119.107422 -8.848400 0.000000
88.207611 -119.107422 -8.848400 0.000000
101.690918 -119.107422 -8.848400 0.000000
115.174225 -119.107422 -8.848400 0.000000
128.657501 -119.107422 -8.848400 0.000000
142.140808 -119.107422 -8.848400 0.000000
155.624115 -119.107422 -8.848400 0.000000
169.107422 -119.107422 -8.848400 0.000000
182.590698 -119.107422 -8.848400 0.000000
196.074036 -119.107422 -8.848400 0.000000
209.557312 -119.107422 -8.848400 0.000000
223.040588 -119.107422 -8.848400 0.000000
236.523926 -119.107422 -8.848400 0.000000
250.007202 -119.107422 -8.848400 0.000000
263.490540 -119.107422 -8.848400 0.000000
276.973816 -119.107422 -8.848400 0.000000
290.457092 -119.107422 -8.848400 0.000000
303.940430 -119.107422 -8.848400 0.000000
317.423706 -119.107422 -8.848400 0.000000
330.907043 -119.107422 -8.848400 0.000000
344.390320 -119.107422 -8.848400 0.000000
-343.257996 -132.590698 -8.848400 0.000000
-329.774689 -132.590698 -8.848400 0.000000
-316.291382 -132.590698 -8.848400 0.000000
-302.808105 -132.590698 -8.848400 0.000000
-289.324799 -132.590698 -8.848400 0.000000
-275.841492 -132.590698 -8.848400 0.000000
-262.358185 -132.590698 -8.848400 0.000000
-248.874893 -132.590698 -8.848400 0.000000
-235.391602 -132.590698 -8.848400 0.000000
-221.908295 -132.590698 -8.848400 0.000000
-208.424988 -132.590698 -8.848400 0.000000
-194.941696 -132.590698 -8.848400 0.000000
-181.458389 -132.590698 -8.848400 0.000000
-167.975098 -132.590698 -8.848400 0.000000
-154.491791 -132.590698 -8.848400 0.000000
-141.008499 -132.590698 -8.848400 0.000000
-127.525192 -132.590698 -8.848400 0.000000
-114.041885 -132.590698 -8.848400 0.000000
-100.558594 -132.590698 -8.848400 0.000000
-87.075287 -132.590698 -8.848400 0.000000
-73.591980 -132.590698 -8.848400 0.000000
-60.108704 -132.590698 -8.848400 0.000000
-46.625397 -132.590698 -8.848400 0.000000
-33.142090 -132.590698 -8.848400 0.000000
-19.658783 -132.590698 -8.848400 0.000000
-6.175476 -132.590698 -8.848400 0.000000
7.307800 -132.590698 -8.848400 0.000000
20.791107 -132.590698 -8.848400 0.000000
34.274414 -132.590698 -8.848400 0.000000
47.757721 -132.590698 -8.848400 0.000000
61.240997 -132.590698 -8.848400 0.000000
74.724304 -132.590698 -8.848400 0.000000
88.207611 -132.590698 -8.848400 0.000000
101.690918 -132.590698 -8.848400 0.000000
115.174225 -132.590698 -8.848400 0.000000
128.657501 -132.590698 -8.848400 0.000000
142.140808 -132.590698 -8.848400 0.000000
155.624115 -132.590698 -8.848400 0.000000
169.107422 -132.590698 -8.848400 0.000000
182.590698 -132.590698 -8.848400 0.000000
196.074036 -132.590698 -8.848400 0.000000
209.557312 -132.590698 -8.848400 0.000000
223.040588 -132.590698 -8.848400 0.000000
236.523926 -132.590698 -8.848400 0.000000
250.007202 -132.590698 -8.848400 0.000000
263.490540 -132.590698 -8.848400 0.000000
276.973816 -132.590698 -8.848400 0.000000
290.457092 -132.590698 -8.848400 0.000000
303.940430 -132.590698 -8.848400 0.000000
317.423706 -132.590698 -8.848400 0.000000
330.907043 -132.590698 -8.848400 0.000000
344.390320 -132.590698 -8.848400 0.000000
-343.257996 -146.074036 -8.848400 0.000000
-329.774689 -146.074036 -8.848400 0.000000
-316.291382 -146.074036 -8.848400 0.000000
-302.808105 -146.074036 -8.848400 0.000000
-289.324799 -146.074036 -8.848400 0.000000
-275.841492 -146.074036 -8.848400 0.000000
-262.358185 -146.074036 -8.848400 0.000000
-248.874893 -146.074036 -8.848400 0.000000
-235.391602 -146.074036 -8.848400 0.000000
-221.908295 -146.074036 -8.848400 0.000000
-208.424988 -146.074036 -8.848400 0.000000
-194.941696 -146.074036 -8.848400 0.000000
-181.458389 -146.074036 -8.848400 0.000000
-167.975098 -146.074036 -8.848400 0.000000
-154.491791 -146.074036 -8.848400 0.000000
-141.008499 -146.074036 -8.848400 0.000000
-127.525192 -146.074036 -8.848400 0.000000
-114.041885 -146.074036 -8.848400 0.000000
-100.558594 -146.074036 -8.848400 0.000000
-87.075287 -146.074036 -8.848400 0.000000
-73.591980 -146.074036 -8.848400 0.000000
-60.108704 -146.074036 -8.848400 0.000000
-46.625397 -146.074036 -8.848400 0.000000
-33.142090 -146.074036 -8.848400 0.000000
-19.658783 -146.074036 -8.848400 0.000000
-6.175476 -146.074036 -8.848400 0.000000
7.307800 -146.074036 -8.848400 0.000000
20.791107 -146.074036 -8.848400 0.000000
34.274414 -146.074036 -8.848400 0.000000
47.757721 -146.074036 -8.848400 0.000000
61.240997 -146.074036 -8.848400 0.000000
74.724304 -146.074036 -8.848400 0.000000
88.207611 -146.074036 -8.848400 0.000000
101.690918 -146.074036 -8.848400 0.000000
115.174225 -146.074036 -8.848400 0.000000
128.657501 -146.074036 -8.848400 0.000000
142.140808 -146.074036 -8.848400 0.000000
155.624115 -146.074036 -8.848400 0.000000
169.107422 -146.074036 -8.848400 0.000000
182.590698 -146.074036 -8.848400 0.000000
196.074036 -146.074036 -8.848400 0.000000
209.557312 -146.074036 -8.848400 0.000000
223.040588 -146.074036 -8.848400 0.000000
236.523926 -146.074036 -8.848400 0.000000
250.007202 -146.074036 -8.848400 0.000000
263.490540 -146.074036 -8.848400 0.000000
276.973816 -146.074036 -8.848400 0.000000
290.457092 -146.074036 -8.848400 0.000000
303.940430 -146.074036 -8.848400 0.000000
317.423706 -146.074036 -8.848400 0.000000
330.907043 -146.074036 -8.848400 0.000000
344.390320 -146.074036 -8.848400 0.000000
-343.257996 -159.557312 -8.848400 0.000000
-329.774689 -159.557312 -8.848400 0.000000
-316.291382 -159.557312 -8.848400 0.000000
-302.808105 -159.557312 -8.848400 0.000000
-289.324799 -159.557312 -8.848400 0.000000
-275.841492 -159.557312 -8.848400 0.000000
-262.358185 -159.557312 -8.848400 0.000000
-248.874893 -159.557312 -8.848400 0.000000
-235.391602 -159.557312 -8.848400 0.000000
-221.908295 -159.557312 -8.848400 0.000000
-208.424988 -159.557312 -8.848400 0.000000
-194.941696 -159.557312 -8.848400 0.000000
-181.458389 -159.557312 -8.848400 0.000000
-167.975098 -159.557312 -8.848400 0.000000
-154.491791 -159.557312 -8.848400 0.000000
-141.008499 -159.557312 -8.848400 0.000000
-127.525192 -159.557312 -8.848400 0.000000
-114.041885 -159.557312 -8.848400 0.000000
-100.558594 -159.557312 -8.848400 0.000000
-87.075287 -159.557312 -8.848400 0.000000
-73.591980 -159.557312 -8.848400 0.000000
-60.108704 -159.557312 -8.848400 0.000000
-46.625397 -159.557312 -8.848400 0.000000
-33.142090 -159.557312 -8.848400 0.000000
-19.658783 -159.557312 -8.848400 0.000000
-6.175476 -159.557312 -8.848400 0.000000
7.307800 -159.557312 -8.848400 0.000000
20.791107 -159.557312 -8.848400 0.000000
34.274414 -159.557312 -8.848400 0.000000
47.757721 -159.557312 -8.848400 0.000000
61.240997 -159.557312 -8.848400 0.000000
74.724304 -159.557312 -8.848400 0.000000
88.207611 -159.557312 -8.848400 0.000000
101.690918 -159.557312 -8.848400 0.000000
115.174225 -159.557312 -8.848400 0.000000
128.657501 -159.557312 -8.848400 0.000000
142.140808 -159.557312 -8.848400 0.000000
155.624115 -159.557312 -8.848400 0.000000
169.107422 -159.557312 -8.848400 0.000000
182.590698 -159.557312 -8.848400 0.000000
196.074036 -159.557312 -8.848400 0.000000
209.557312 -159.557312 -8.848400 0.000000
223.040588 -159.557312 -8.848400 0.000000
236.523926 -159.557312 -8.848400 0.000000
250.007202 -159.557312 -8.848400 0.000000
263.490540 -159.557312 -8.848400 0.000000
276.973816 -159.557312 -8.848400 0.000000
290.457092 -159.557312 -8.848400 0.000000
303.940430 -159.557312 -8.848400 0.000000
317.423706 -159.557312 -8.848400 0.000000
330.907043 -159.557312 -8.848400 0.000000
344.390320 -159.557312 -8.848400 0.000000
-343.257996 -173.040588 -8.848400 0.000000
-329.774689 -173.040588 -8.848400 0.000000
-316.291382 -173.040588 -8.848400 0.000000
-302.808105 -173.040588 -8.848400 0.000000
-289.324799 -173.040588 -8.848400 0.000000
-275.841492 -173.040588 -8.848400 0.000000
-262.358185 -173.040588 -8.848400 0.000000
-248.874893 -173.040588 -8.848400 0.000000
-235.391602 -173.040588 -8.848400 0.000000
-221.908295 -173.040588 -8.848400 0.000000
-208.424988 -173.040588 -8.848400 0.000000
-194.941696 -173.040588 -8.848400 0.000000
-181.458389 -173.040588 -8.848400 0.000000
-167.975098 -173.040588 -8.848400 0.000000
-154.491791 -173.040588 -8.848400 0.000000
-141.008499 -173.040588 -8.848400 0.000000
-127.525192 -173.040588 -8.848400 0.000000
-114.041885 -173.040588 -8.848400 0.000000
-100.558594 -173.040588 -8.848400 0.000000
-87.075287 -173.040588 -8.848400 0.000000
-73.591980 -173.040588 -8.848400 0.000000
-60.108704 -173.040588 -8.848400 0.000000
-46.625397 -173.040588 -8.848400 0.000000
-33.142090 -173.040588 -8.848400 0.000000
-19.658783 -173.040588 -8.848400 0.000000
-6.175476 -173.040588 -8.848400 0.000000
7.307800 -173.040588 -8.848400 0.000000
20.791107 -173.040588 -8.848400 0.000000
34.274414 -173.040588 -8.848400 0.000000
47.757721 -173.040588 -8.848400 0.000000
61.240997 -173.040588 -8.848400 0.000000
74.724304 -173.040588 -8.848400 0.000000
88.207611 -173.040588 -8.848400 0.000000
101.690918 -173.040588 -8.848400 0.000000
115.174225 -173.040588 -8.848400 0.000000
128.657501 -173.040588 -8.848400 0.000000
142.140808 -173.040588 -8.848400 0.000000
155.624115 -173.040588 -8.848400 0.000000
169.107422 -173.040588 -8.848400 0.000000
182.590698 -173.040588 -8.848400 0.000000
196.074036 -173.040588 -8.848400 0.000000
209.557312 -173.040588 -8.848400 0.000000
223.040588 -173.040588 -8.848400 0.000000
236.523926 -173.040588 -8.848400 0.000000
250.007202 -173.040588 -8.848400 0.000000
263.490540 -173.040588 -8.848400 0.000000
276.973816 -173.040588 -8.848400 0.000000
290.457092 -173.040588 -8.848400 0.000000
303.940430 -173.040588 -8.848400 0.000000
317.423706 -173.040588 -8.848400 0.000000
330.907043 -173.040588 -8.848400 0.000000
344.390320 -173.040588 -8.848400 0.000000
-343.257996 -186.523926 -8.848400 0.000000
-329.774689 -186.523926 -8.848400 0.000000
-316.291382 -186.523926 -8.848400 0.000000
-302.808105 -186.523926 -8.848400 0.000000
-289.324799 -186.523926 -8.848400 0.000000
-275.841492 -186.523926 -8.848400 0.000000
-262.358185 -186.523926 -8.848400 0.000000
-248.874893 -186.523926 -8.848400 0.000000
-235.391602 -186.523926 -8.848400 0.000000
-221.908295 -186.523926 -8.848400 0.000000
-208.424988 -186.523926 -8.848400 0.000000
-194.941696 -186.523926 -8.848400 0.000000
-181.458389 -186.523926 -8.848400 0.000000
-167.975098 -186.523926 -8.848400 0.000000
-154.491791 -186.523926 -8.848400 0.000000
-141.008499 -186.523926 -8.848400 0.000000
-127.525192 -186.523926 -8.848400 0.000000
-114.041885 -186.523926 -8.848400 0.000000
-100.558594 -186.523926 -8.848400 0.000000
-87.075287 -186.523926 -8.848400 0.000000
-73.591980 -186.523926 -8.848400 0.000000
-60.108704 -186.523926 -8.848400 0.000000
-46.625397 -186.523926 -8.848400 0.000000
-33.142090 -186.523926 -8.848400 0.000000
-19.658783 -186.523926 -8.848400 0.000000
-6.175476 -186.523926 -8.848400 0.000000
7.307800 -186.523926 -8.848400 0.000000
20.791107 -186.523926 -8.848400 0.000000
34.274414 -186.523926 -8.848400 0.000000
47.757721 -186.523926 -8.848400 0.000000
61.240997 -186.523926 -8.848400 0.000000
74.724304 -186.523926 -8.848400 0.000000
88.207611 -186.523926 -8.848400 0.000000
101.690918 -186.523926 -8.848400 0.000000
115.174225 -186.523926 -8.848400 0.000000
128.657501 -186.523926 -8.848400 0.000000
142.140808 -186.523926 -8.848400 0.000000
155.624115 -186.523926 -8.848400 0.000000
169.107422 -186.523926 -8.848400 0.000000
182.590698 -186.523926 -8.848400 0.000000
196.074036 -186.523926 -8.848400 0.000000
209.557312 -186.523926 -8.848400 0.000000
223.040588 -186.523926 -8.848400 0.000000
236.523926 -186.523926 -8.848400 0.000000
250.007202 -186.523926 -8.848400 0.000000
263.490540 -186.523926 -8.848400 0.000000
276.973816 -186.523926 -8.848400 0.000000
290.457092 -186.523926 -8.848400 0.000000
303.940430 -186.523926 -8.848400 0.000000
317.423706 -186.523926 -8.848400 0.000000
330.907043 -186.523926 -8.848400 0.000000
344.390320 -186.523926 -8.848400 0.000000
-343.257996 -200.007202 -8.848400 0.000000
-329.774689 -200.007202 -8.848400 0.000000
-316.291382 -200.007202 -8.848400 0.000000
-302.808105 -200.007202 -8.848400 0.000000
-289.324799 -200.007202 -8.848400 0.000000
-275.841492 -200.007202 -8.848400 0.000000
-262.358185 -200.007202 -8.848400 0.000000
-248.874893 -200.007202 -8.848400 0.000000
-235.391602 -200.007202 -8.848400 0.000000
-221.908295 -200.007202 -8.848400 0.000000
-208.424988 -200.007202 -8.848400 0.000000
-194.941696 -200.007202 -8.848400 0.000000
-181.458389 -200.007202 -8.848400 0.000000
-167.975098 -200.007202 -8.848400 0.000000
-154.491791 -200.007202 -8.848400 0.000000
-141.008499 -200.007202 -8.848400 0.000000
-127.525192 -200.007202 -8.848400 0.000000
-114.041885 -200.007202 -8.848400 0.000000
-100.558594 -200.007202 -8.848400 0.000000
-87.075287 -200.007202 -8.848400 0.000000
-73.591980 -200.007202 -8.848400 0.000000
-60.108704 -200.007202 -8.848400 0.000000
-46.625397 -200.007202 -8.848400 0.000000
-33.142090 -200.007202 -8.848400 0.000000
-19.658783 -200.007202 -8.848400 0.000000
-6.175476 -200.007202 -8.848400 0.000000
7.307800 -200.007202 -8.848400 0.000000
20.791107 -200.007202 -8.848400 0.000000
34.274414 -200.007202 -8.848400 0.000000
47.757721 -200.007202 -8.848400 0.000000
61.240997 -200.007202 -8.848400 0.000000
74.724304 -200.007202 -8.848400 0.000000
88.207611 -200.007202 -8.848400 0.000000
101.690918 -200.007202 -8.848400 0.000000
115.174225 -200.007202 -8.848400 0.000000
128.657501 -200.007202 -8.848400 0.000000
142.140808 -200.007202 -8.848400 0.000000
155.624115 -200.007202 -8.848400 0.000000
169.107422 -200.007202 -8.848400 0.000000
182.590698 -200.007202 -8.848400 0.000000
196.074036 -200.007202 -8.848400 0.000000
209.557312 -200.007202 -8.848400 0.000000
223.040588 -200.007202 -8.848400 0.000000
236.523926 -200.007202 -8.848400 0.000000
250.007202 -200.007202 -8.848400 0.000000
263.490540 -200.007202 -8.848400 0.000000
276.973816 -200.007202 -8.848400 0.000000
290.457092 -200.007202 -8.848400 0.000000
303.940430 -200.007202 -8.848400 0.000000
317.423706 -200.007202 -8.848400 0.000000
330.907043 -200.007202 -8.848400 0.000000
344.390320 -200.007202 -8.848400 0.000000
