TITLE = "B00006"
VARIABLES = "X", "Y", "Z", "Reynold stress ZZ"
ZONE T="Frame 1" I=52, J=45, K=4, F=POINT
-343.257996 393.257996 -49.298302 0.000000
-329.774689 393.257996 -49.298302 0.000000
-316.291382 393.257996 -49.298302 0.000000
-302.808105 393.257996 -49.298302 0.000000
-289.324799 393.257996 -49.298302 0.000000
-275.841492 393.257996 -49.298302 0.000000
-262.358185 393.257996 -49.298302 0.000000
-248.874893 393.257996 -49.298302 0.000000
-235.391602 393.257996 -49.298302 0.000000
-221.908295 393.257996 -49.298302 0.000000
-208.424988 393.257996 -49.298302 0.000000
-194.941696 393.257996 -49.298302 0.000000
-181.458389 393.257996 -49.298302 0.000000
-167.975098 393.257996 -49.298302 0.000000
-154.491791 393.257996 -49.298302 0.000000
-141.008499 393.257996 -49.298302 0.000000
-127.525192 393.257996 -49.298302 0.000000
-114.041885 393.257996 -49.298302 0.000000
-100.558594 393.257996 -49.298302 0.000000
-87.075287 393.257996 -49.298302 0.000000
-73.591980 393.257996 -49.298302 0.000000
-60.108704 393.257996 -49.298302 0.000000
-46.625397 393.257996 -49.298302 0.000000
-33.142090 393.257996 -49.298302 0.000000
-19.658783 393.257996 -49.298302 0.000000
-6.175476 393.257996 -49.298302 0.000000
7.307800 393.257996 -49.298302 0.000000
20.791107 393.257996 -49.298302 0.000000
34.274414 393.257996 -49.298302 0.000000
47.757721 393.257996 -49.298302 0.000000
61.240997 393.257996 -49.298302 0.000000
74.724304 393.257996 -49.298302 0.000000
88.207611 393.257996 -49.298302 0.000000
101.690918 393.257996 -49.298302 0.000000
115.174225 393.257996 -49.298302 0.000000
128.657501 393.257996 -49.298302 0.000000
142.140808 393.257996 -49.298302 0.000000
155.624115 393.257996 -49.298302 0.000000
169.107422 393.257996 -49.298302 0.000000
182.590698 393.257996 -49.298302 0.000000
196.074036 393.257996 -49.298302 0.000000
209.557312 393.257996 -49.298302 0.000000
223.040588 393.257996 -49.298302 0.000000
236.523926 393.257996 -49.298302 0.000000
250.007202 393.257996 -49.298302 0.000000
263.490540 393.257996 -49.298302 0.000000
276.973816 393.257996 -49.298302 0.000000
290.457092 393.257996 -49.298302 0.000000
303.940430 393.257996 -49.298302 0.000000
317.423706 393.257996 -49.298302 0.000000
330.907043 393.257996 -49.298302 0.000000
344.390320 393.257996 -49.298302 0.000000
-343.257996 379.774689 -49.298302 0.000000
-329.774689 379.774689 -49.298302 0.000000
-316.291382 379.774689 -49.298302 0.000000
-302.808105 379.774689 -49.298302 0.000000
-289.324799 379.774689 -49.298302 0.000000
-275.841492 379.774689 -49.298302 0.000000
-262.358185 379.774689 -49.298302 0.000000
-248.874893 379.774689 -49.298302 0.000000
-235.391602 379.774689 -49.298302 0.000000
-221.908295 379.774689 -49.298302 0.000000
-208.424988 379.774689 -49.298302 0.000000
-194.941696 379.774689 -49.298302 0.000000
-181.458389 379.774689 -49.298302 0.000000
-167.975098 379.774689 -49.298302 0.000000
-154.491791 379.774689 -49.298302 0.000000
-141.008499 379.774689 -49.298302 0.000000
-127.525192 379.774689 -49.298302 0.000000
-114.041885 379.774689 -49.298302 0.000000
-100.558594 379.774689 -49.298302 0.000000
-87.075287 379.774689 -49.298302 0.000000
-73.591980 379.774689 -49.298302 0.000000
-60.108704 379.774689 -49.298302 0.000000
-46.625397 379.774689 -49.298302 0.000000
-33.142090 379.774689 -49.298302 0.000000
-19.658783 379.774689 -49.298302 0.000000
-6.175476 379.774689 -49.298302 0.000000
7.307800 379.774689 -49.298302 0.000000
20.791107 379.774689 -49.298302 0.000000
34.274414 379.774689 -49.298302 0.000000
47.757721 379.774689 -49.298302 0.000000
61.240997 379.774689 -49.298302 0.000000
74.724304 379.774689 -49.298302 0.000000
88.207611 379.774689 -49.298302 0.000000
101.690918 379.774689 -49.298302 0.000000
115.174225 379.774689 -49.298302 0.000000
128.657501 379.774689 -49.298302 0.000000
142.140808 379.774689 -49.298302 0.000000
155.624115 379.774689 -49.298302 0.000000
169.107422 379.774689 -49.298302 0.000000
182.590698 379.774689 -49.298302 0.000000
196.074036 379.774689 -49.298302 0.000000
209.557312 379.774689 -49.298302 0.000000
223.040588 379.774689 -49.298302 0.000000
236.523926 379.774689 -49.298302 0.000000
250.007202 379.774689 -49.298302 0.000000
263.490540 379.774689 -49.298302 0.000000
276.973816 379.774689 -49.298302 0.000000
290.457092 379.774689 -49.298302 0.000000
303.940430 379.774689 -49.298302 0.000000
317.423706 379.774689 -49.298302 0.000000
330.907043 379.774689 -49.298302 0.000000
344.390320 379.774689 -49.298302 0.000000
-343.257996 366.291382 -49.298302 0.000000
-329.774689 366.291382 -49.298302 0.000000
-316.291382 366.291382 -49.298302 0.000000
-302.808105 366.291382 -49.298302 0.000000
-289.324799 366.291382 -49.298302 0.000000
-275.841492 366.291382 -49.298302 0.000000
-262.358185 366.291382 -49.298302 0.000000
-248.874893 366.291382 -49.298302 0.000000
-235.391602 366.291382 -49.298302 0.000000
-221.908295 366.291382 -49.298302 0.000000
-208.424988 366.291382 -49.298302 0.000000
-194.941696 366.291382 -49.298302 0.000000
-181.458389 366.291382 -49.298302 0.000000
-167.975098 366.291382 -49.298302 0.000000
-154.491791 366.291382 -49.298302 0.000000
-141.008499 366.291382 -49.298302 0.000000
-127.525192 366.291382 -49.298302 0.000000
-114.041885 366.291382 -49.298302 0.000000
-100.558594 366.291382 -49.298302 0.000000
-87.075287 366.291382 -49.298302 0.000000
-73.591980 366.291382 -49.298302 0.000000
-60.108704 366.291382 -49.298302 0.000000
-46.625397 366.291382 -49.298302 0.000000
-33.142090 366.291382 -49.298302 0.000000
-19.658783 366.291382 -49.298302 0.000000
-6.175476 366.291382 -49.298302 0.000000
7.307800 366.291382 -49.298302 0.000000
20.791107 366.291382 -49.298302 0.000000
34.274414 366.291382 -49.298302 0.000000
47.757721 366.291382 -49.298302 0.000000
61.240997 366.291382 -49.298302 0.000000
74.724304 366.291382 -49.298302 0.000000
88.207611 366.291382 -49.298302 0.000000
101.690918 366.291382 -49.298302 0.000000
115.174225 366.291382 -49.298302 0.000000
128.657501 366.291382 -49.298302 0.000000
142.140808 366.291382 -49.298302 0.000000
155.624115 366.291382 -49.298302 0.000000
169.107422 366.291382 -49.298302 0.000000
182.590698 366.291382 -49.298302 0.000000
196.074036 366.291382 -49.298302 0.000000
209.557312 366.291382 -49.298302 0.000000
223.040588 366.291382 -49.298302 0.000000
236.523926 366.291382 -49.298302 0.000000
250.007202 366.291382 -49.298302 0.000000
263.490540 366.291382 -49.298302 0.000000
276.973816 366.291382 -49.298302 0.000000
290.457092 366.291382 -49.298302 0.000000
303.940430 366.291382 -49.298302 0.000000
317.423706 366.291382 -49.298302 0.000000
330.907043 366.291382 -49.298302 0.000000
344.390320 366.291382 -49.298302 0.000000
-343.257996 352.808105 -49.298302 0.000000
-329.774689 352.808105 -49.298302 0.000000
-316.291382 352.808105 -49.298302 0.000000
-302.808105 352.808105 -49.298302 0.000000
-289.324799 352.808105 -49.298302 0.037906
-275.841492 352.808105 -49.298302 0.039756
-262.358185 352.808105 -49.298302 0.049300
-248.874893 352.808105 -49.298302 0.052843
-235.391602 352.808105 -49.298302 0.069178
-221.908295 352.808105 -49.298302 0.090704
-208.424988 352.808105 -49.298302 0.118008
-194.941696 352.808105 -49.298302 0.168950
-181.458389 352.808105 -49.298302 0.217154
-167.975098 352.808105 -49.298302 0.000000
-154.491791 352.808105 -49.298302 0.000000
-141.008499 352.808105 -49.298302 0.000000
-127.525192 352.808105 -49.298302 0.000000
-114.041885 352.808105 -49.298302 0.000000
-100.558594 352.808105 -49.298302 0.000000
-87.075287 352.808105 -49.298302 0.000000
-73.591980 352.808105 -49.298302 0.000000
-60.108704 352.808105 -49.298302 0.000000
-46.625397 352.808105 -49.298302 0.000000
-33.142090 352.808105 -49.298302 0.000000
-19.658783 352.808105 -49.298302 0.000000
-6.175476 352.808105 -49.298302 0.000000
7.307800 352.808105 -49.298302 0.000000
20.791107 352.808105 -49.298302 0.231096
34.274414 352.808105 -49.298302 0.214590
47.757721 352.808105 -49.298302 0.216225
61.240997 352.808105 -49.298302 0.203248
74.724304 352.808105 -49.298302 0.000000
88.207611 352.808105 -49.298302 0.000000
101.690918 352.808105 -49.298302 0.000000
115.174225 352.808105 -49.298302 0.000000
128.657501 352.808105 -49.298302 0.000000
142.140808 352.808105 -49.298302 0.000000
155.624115 352.808105 -49.298302 0.000000
169.107422 352.808105 -49.298302 0.000000
182.590698 352.808105 -49.298302 0.000000
196.074036 352.808105 -49.298302 0.000000
209.557312 352.808105 -49.298302 0.000000
223.040588 352.808105 -49.298302 0.000000
236.523926 352.808105 -49.298302 0.000000
250.007202 352.808105 -49.298302 0.000000
263.490540 352.808105 -49.298302 0.000000
276.973816 352.808105 -49.298302 0.000000
290.457092 352.808105 -49.298302 0.000000
303.940430 352.808105 -49.298302 0.000000
317.423706 352.808105 -49.298302 0.000000
330.907043 352.808105 -49.298302 0.000000
344.390320 352.808105 -49.298302 0.000000
-343.257996 339.324799 -49.298302 0.000000
-329.774689 339.324799 -49.298302 0.000000
-316.291382 339.324799 -49.298302 0.000000
-302.808105 339.324799 -49.298302 0.032821
-289.324799 339.324799 -49.298302 0.036975
-275.841492 339.324799 -49.298302 0.039242
-262.358185 339.324799 -49.298302 0.048228
-248.874893 339.324799 -49.298302 0.058079
-235.391602 339.324799 -49.298302 0.074635
-221.908295 339.324799 -49.298302 0.101565
-208.424988 339.324799 -49.298302 0.134797
-194.941696 339.324799 -49.298302 0.181402
-181.458389 339.324799 -49.298302 0.242054
-167.975098 339.324799 -49.298302 0.293344
-154.491791 339.324799 -49.298302 0.364460
-141.008499 339.324799 -49.298302 0.395752
-127.525192 339.324799 -49.298302 0.414121
-114.041885 339.324799 -49.298302 0.424621
-100.558594 339.324799 -49.298302 0.413166
-87.075287 339.324799 -49.298302 0.390968
-73.591980 339.324799 -49.298302 0.381640
-60.108704 339.324799 -49.298302 0.396963
-46.625397 339.324799 -49.298302 0.383141
-33.142090 339.324799 -49.298302 0.368085
-19.658783 339.324799 -49.298302 0.333734
-6.175476 339.324799 -49.298302 0.299303
7.307800 339.324799 -49.298302 0.258117
20.791107 339.324799 -49.298302 0.234904
34.274414 339.324799 -49.298302 0.211113
47.757721 339.324799 -49.298302 0.205859
61.240997 339.324799 -49.298302 0.209157
74.724304 339.324799 -49.298302 0.205611
88.207611 339.324799 -49.298302 0.215572
101.690918 339.324799 -49.298302 0.257765
115.174225 339.324799 -49.298302 0.318266
128.657501 339.324799 -49.298302 0.388481
142.140808 339.324799 -49.298302 0.441132
155.624115 339.324799 -49.298302 0.489293
169.107422 339.324799 -49.298302 0.503496
182.590698 339.324799 -49.298302 0.534294
196.074036 339.324799 -49.298302 0.486443
209.557312 339.324799 -49.298302 0.426781
223.040588 339.324799 -49.298302 0.372989
236.523926 339.324799 -49.298302 0.287623
250.007202 339.324799 -49.298302 0.209641
263.490540 339.324799 -49.298302 0.198342
276.973816 339.324799 -49.298302 0.000000
290.457092 339.324799 -49.298302 0.000000
303.940430 339.324799 -49.298302 0.000000
317.423706 339.324799 -49.298302 0.000000
330.907043 339.324799 -49.298302 0.000000
344.390320 339.324799 -49.298302 0.000000
-343.257996 325.841492 -49.298302 0.000000
-329.774689 325.841492 -49.298302 0.000000
-316.291382 325.841492 -49.298302 0.000000
-302.808105 325.841492 -49.298302 0.033102
-289.324799 325.841492 -49.298302 0.035200
-275.841492 325.841492 -49.298302 0.038171
-262.358185 325.841492 -49.298302 0.042730
-248.874893 325.841492 -49.298302 0.053493
-235.391602 325.841492 -49.298302 0.071446
-221.908295 325.841492 -49.298302 0.095329
-208.424988 325.841492 -49.298302 0.142048
-194.941696 325.841492 -49.298302 0.194466
-181.458389 325.841492 -49.298302 0.271166
-167.975098 325.841492 -49.298302 0.320500
-154.491791 325.841492 -49.298302 0.382443
-141.008499 325.841492 -49.298302 0.396793
-127.525192 325.841492 -49.298302 0.396990
-114.041885 325.841492 -49.298302 0.413581
-100.558594 325.841492 -49.298302 0.375314
-87.075287 325.841492 -49.298302 0.355752
-73.591980 325.841492 -49.298302 0.346508
-60.108704 325.841492 -49.298302 0.332553
-46.625397 325.841492 -49.298302 0.332238
-33.142090 325.841492 -49.298302 0.342214
-19.658783 325.841492 -49.298302 0.336716
-6.175476 325.841492 -49.298302 0.303675
7.307800 325.841492 -49.298302 0.246873
20.791107 325.841492 -49.298302 0.227535
34.274414 325.841492 -49.298302 0.214507
47.757721 325.841492 -49.298302 0.208441
61.240997 325.841492 -49.298302 0.203910
74.724304 325.841492 -49.298302 0.217693
88.207611 325.841492 -49.298302 0.257283
101.690918 325.841492 -49.298302 0.323952
115.174225 325.841492 -49.298302 0.389611
128.657501 325.841492 -49.298302 0.457250
142.140808 325.841492 -49.298302 0.501430
155.624115 325.841492 -49.298302 0.577027
169.107422 325.841492 -49.298302 0.581200
182.590698 325.841492 -49.298302 0.586034
196.074036 325.841492 -49.298302 0.569603
209.557312 325.841492 -49.298302 0.519447
223.040588 325.841492 -49.298302 0.416040
236.523926 325.841492 -49.298302 0.321895
250.007202 325.841492 -49.298302 0.239197
263.490540 325.841492 -49.298302 0.206032
276.973816 325.841492 -49.298302 0.180719
290.457092 325.841492 -49.298302 0.000000
303.940430 325.841492 -49.298302 0.000000
317.423706 325.841492 -49.298302 0.000000
330.907043 325.841492 -49.298302 0.000000
344.390320 325.841492 -49.298302 0.000000
-343.257996 312.358185 -49.298302 0.000000
-329.774689 312.358185 -49.298302 0.000000
-316.291382 312.358185 -49.298302 0.000000
-302.808105 312.358185 -49.298302 0.030661
-289.324799 312.358185 -49.298302 0.031972
-275.841492 312.358185 -49.298302 0.036106
-262.358185 312.358185 -49.298302 0.043874
-248.874893 312.358185 -49.298302 0.053286
-235.391602 312.358185 -49.298302 0.077620
-221.908295 312.358185 -49.298302 0.114496
-208.424988 312.358185 -49.298302 0.165749
-194.941696 312.358185 -49.298302 0.223094
-181.458389 312.358185 -49.298302 0.283912
-167.975098 312.358185 -49.298302 0.344226
-154.491791 312.358185 -49.298302 0.382056
-141.008499 312.358185 -49.298302 0.400964
-127.525192 312.358185 -49.298302 0.422847
-114.041885 312.358185 -49.298302 0.409585
-100.558594 312.358185 -49.298302 0.363572
-87.075287 312.358185 -49.298302 0.345425
-73.591980 312.358185 -49.298302 0.339868
-60.108704 312.358185 -49.298302 0.307763
-46.625397 312.358185 -49.298302 0.302857
-33.142090 312.358185 -49.298302 0.304340
-19.658783 312.358185 -49.298302 0.325342
-6.175476 312.358185 -49.298302 0.305053
7.307800 312.358185 -49.298302 0.254079
20.791107 312.358185 -49.298302 0.225952
34.274414 312.358185 -49.298302 0.220013
47.757721 312.358185 -49.298302 0.216983
61.240997 312.358185 -49.298302 0.226624
74.724304 312.358185 -49.298302 0.246087
88.207611 312.358185 -49.298302 0.303389
101.690918 312.358185 -49.298302 0.386711
115.174225 312.358185 -49.298302 0.463807
128.657501 312.358185 -49.298302 0.482166
142.140808 312.358185 -49.298302 0.543953
155.624115 312.358185 -49.298302 0.540363
169.107422 312.358185 -49.298302 0.584945
182.590698 312.358185 -49.298302 0.604959
196.074036 312.358185 -49.298302 0.611823
209.557312 312.358185 -49.298302 0.553122
223.040588 312.358185 -49.298302 0.474977
236.523926 312.358185 -49.298302 0.363678
250.007202 312.358185 -49.298302 0.258177
263.490540 312.358185 -49.298302 0.211468
276.973816 312.358185 -49.298302 0.170096
290.457092 312.358185 -49.298302 0.167170
303.940430 312.358185 -49.298302 0.000000
317.423706 312.358185 -49.298302 0.000000
330.907043 312.358185 -49.298302 0.000000
344.390320 312.358185 -49.298302 0.000000
-343.257996 298.874878 -49.298302 0.000000
-329.774689 298.874878 -49.298302 0.000000
-316.291382 298.874878 -49.298302 0.000000
-302.808105 298.874878 -49.298302 0.030123
-289.324799 298.874878 -49.298302 0.032867
-275.841492 298.874878 -49.298302 0.037539
-262.358185 298.874878 -49.298302 0.043904
-248.874893 298.874878 -49.298302 0.059716
-235.391602 298.874878 -49.298302 0.091322
-221.908295 298.874878 -49.298302 0.126940
-208.424988 298.874878 -49.298302 0.194570
-194.941696 298.874878 -49.298302 0.249098
-181.458389 298.874878 -49.298302 0.304438
-167.975098 298.874878 -49.298302 0.362341
-154.491791 298.874878 -49.298302 0.403039
-141.008499 298.874878 -49.298302 0.426372
-127.525192 298.874878 -49.298302 0.436604
-114.041885 298.874878 -49.298302 0.414537
-100.558594 298.874878 -49.298302 0.358174
-87.075287 298.874878 -49.298302 0.334551
-73.591980 298.874878 -49.298302 0.325618
-60.108704 298.874878 -49.298302 0.302657
-46.625397 298.874878 -49.298302 0.271328
-33.142090 298.874878 -49.298302 0.273883
-19.658783 298.874878 -49.298302 0.292643
-6.175476 298.874878 -49.298302 0.283569
7.307800 298.874878 -49.298302 0.260113
20.791107 298.874878 -49.298302 0.235888
34.274414 298.874878 -49.298302 0.217755
47.757721 298.874878 -49.298302 0.215431
61.240997 298.874878 -49.298302 0.234404
74.724304 298.874878 -49.298302 0.275096
88.207611 298.874878 -49.298302 0.320853
101.690918 298.874878 -49.298302 0.406622
115.174225 298.874878 -49.298302 0.429848
128.657501 298.874878 -49.298302 0.442203
142.140808 298.874878 -49.298302 0.484050
155.624115 298.874878 -49.298302 0.498561
169.107422 298.874878 -49.298302 0.532038
182.590698 298.874878 -49.298302 0.551250
196.074036 298.874878 -49.298302 0.595012
209.557312 298.874878 -49.298302 0.563035
223.040588 298.874878 -49.298302 0.499249
236.523926 298.874878 -49.298302 0.394728
250.007202 298.874878 -49.298302 0.293244
263.490540 298.874878 -49.298302 0.227715
276.973816 298.874878 -49.298302 0.164177
290.457092 298.874878 -49.298302 0.120803
303.940430 298.874878 -49.298302 0.000000
317.423706 298.874878 -49.298302 0.000000
330.907043 298.874878 -49.298302 0.000000
344.390320 298.874878 -49.298302 0.000000
-343.257996 285.391602 -49.298302 0.000000
-329.774689 285.391602 -49.298302 0.000000
-316.291382 285.391602 -49.298302 0.000000
-302.808105 285.391602 -49.298302 0.031623
-289.324799 285.391602 -49.298302 0.033292
-275.841492 285.391602 -49.298302 0.040557
-262.358185 285.391602 -49.298302 0.050047
-248.874893 285.391602 -49.298302 0.067406
-235.391602 285.391602 -49.298302 0.112876
-221.908295 285.391602 -49.298302 0.157697
-208.424988 285.391602 -49.298302 0.208106
-194.941696 285.391602 -49.298302 0.287047
-181.458389 285.391602 -49.298302 0.334082
-167.975098 285.391602 -49.298302 0.395465
-154.491791 285.391602 -49.298302 0.430477
-141.008499 285.391602 -49.298302 0.434182
-127.525192 285.391602 -49.298302 0.453251
-114.041885 285.391602 -49.298302 0.413855
-100.558594 285.391602 -49.298302 0.371087
-87.075287 285.391602 -49.298302 0.344372
-73.591980 285.391602 -49.298302 0.346060
-60.108704 285.391602 -49.298302 0.312675
-46.625397 285.391602 -49.298302 0.274691
-33.142090 285.391602 -49.298302 0.246752
-19.658783 285.391602 -49.298302 0.265435
-6.175476 285.391602 -49.298302 0.266902
7.307800 285.391602 -49.298302 0.244635
20.791107 285.391602 -49.298302 0.248286
34.274414 285.391602 -49.298302 0.238545
47.757721 285.391602 -49.298302 0.219187
61.240997 285.391602 -49.298302 0.262307
74.724304 285.391602 -49.298302 0.301708
88.207611 285.391602 -49.298302 0.339947
101.690918 285.391602 -49.298302 0.378302
115.174225 285.391602 -49.298302 0.377911
128.657501 285.391602 -49.298302 0.373315
142.140808 285.391602 -49.298302 0.391027
155.624115 285.391602 -49.298302 0.412763
169.107422 285.391602 -49.298302 0.468467
182.590698 285.391602 -49.298302 0.510395
196.074036 285.391602 -49.298302 0.546792
209.557312 285.391602 -49.298302 0.535362
223.040588 285.391602 -49.298302 0.513152
236.523926 285.391602 -49.298302 0.431431
250.007202 285.391602 -49.298302 0.329604
263.490540 285.391602 -49.298302 0.234312
276.973816 285.391602 -49.298302 0.165360
290.457092 285.391602 -49.298302 0.111327
303.940430 285.391602 -49.298302 0.000000
317.423706 285.391602 -49.298302 0.000000
330.907043 285.391602 -49.298302 0.000000
344.390320 285.391602 -49.298302 0.000000
-343.257996 271.908295 -49.298302 0.000000
-329.774689 271.908295 -49.298302 0.000000
-316.291382 271.908295 -49.298302 0.000000
-302.808105 271.908295 -49.298302 0.031626
-289.324799 271.908295 -49.298302 0.035537
-275.841492 271.908295 -49.298302 0.042465
-262.358185 271.908295 -49.298302 0.055762
-248.874893 271.908295 -49.298302 0.079420
-235.391602 271.908295 -49.298302 0.122396
-221.908295 271.908295 -49.298302 0.183072
-208.424988 271.908295 -49.298302 0.243937
-194.941696 271.908295 -49.298302 0.298025
-181.458389 271.908295 -49.298302 0.371320
-167.975098 271.908295 -49.298302 0.419533
-154.491791 271.908295 -49.298302 0.443423
-141.008499 271.908295 -49.298302 0.447070
-127.525192 271.908295 -49.298302 0.462520
-114.041885 271.908295 -49.298302 0.401416
-100.558594 271.908295 -49.298302 0.391100
-87.075287 271.908295 -49.298302 0.395639
-73.591980 271.908295 -49.298302 0.367933
-60.108704 271.908295 -49.298302 0.322092
-46.625397 271.908295 -49.298302 0.267745
-33.142090 271.908295 -49.298302 0.226782
-19.658783 271.908295 -49.298302 0.245005
-6.175476 271.908295 -49.298302 0.255697
7.307800 271.908295 -49.298302 0.258728
20.791107 271.908295 -49.298302 0.244817
34.274414 271.908295 -49.298302 0.218546
47.757721 271.908295 -49.298302 0.232299
61.240997 271.908295 -49.298302 0.000000
74.724304 271.908295 -49.298302 0.290085
88.207611 271.908295 -49.298302 0.310281
101.690918 271.908295 -49.298302 0.322426
115.174225 271.908295 -49.298302 0.307500
128.657501 271.908295 -49.298302 0.306866
142.140808 271.908295 -49.298302 0.335117
155.624115 271.908295 -49.298302 0.347642
169.107422 271.908295 -49.298302 0.370612
182.590698 271.908295 -49.298302 0.456786
196.074036 271.908295 -49.298302 0.521826
209.557312 271.908295 -49.298302 0.541636
223.040588 271.908295 -49.298302 0.523636
236.523926 271.908295 -49.298302 0.421626
250.007202 271.908295 -49.298302 0.319833
263.490540 271.908295 -49.298302 0.244502
276.973816 271.908295 -49.298302 0.154068
290.457092 271.908295 -49.298302 0.099845
303.940430 271.908295 -49.298302 0.000000
317.423706 271.908295 -49.298302 0.000000
330.907043 271.908295 -49.298302 0.000000
344.390320 271.908295 -49.298302 0.000000
-343.257996 258.424988 -49.298302 0.000000
-329.774689 258.424988 -49.298302 0.000000
-316.291382 258.424988 -49.298302 0.000000
-302.808105 258.424988 -49.298302 0.031892
-289.324799 258.424988 -49.298302 0.037603
-275.841492 258.424988 -49.298302 0.046981
-262.358185 258.424988 -49.298302 0.064168
-248.874893 258.424988 -49.298302 0.097238
-235.391602 258.424988 -49.298302 0.141204
-221.908295 258.424988 -49.298302 0.199525
-208.424988 258.424988 -49.298302 0.272261
-194.941696 258.424988 -49.298302 0.327363
-181.458389 258.424988 -49.298302 0.378021
-167.975098 258.424988 -49.298302 0.423370
-154.491791 258.424988 -49.298302 0.460412
-141.008499 258.424988 -49.298302 0.464936
-127.525192 258.424988 -49.298302 0.461921
-114.041885 258.424988 -49.298302 0.427247
-100.558594 258.424988 -49.298302 0.426612
-87.075287 258.424988 -49.298302 0.430907
-73.591980 258.424988 -49.298302 0.372100
-60.108704 258.424988 -49.298302 0.312454
-46.625397 258.424988 -49.298302 0.247634
-33.142090 258.424988 -49.298302 0.222346
-19.658783 258.424988 -49.298302 0.228329
-6.175476 258.424988 -49.298302 0.249376
7.307800 258.424988 -49.298302 0.250901
20.791107 258.424988 -49.298302 0.234275
34.274414 258.424988 -49.298302 0.225634
47.757721 258.424988 -49.298302 0.252795
61.240997 258.424988 -49.298302 0.000000
74.724304 258.424988 -49.298302 0.271870
88.207611 258.424988 -49.298302 0.288338
101.690918 258.424988 -49.298302 0.275115
115.174225 258.424988 -49.298302 0.254121
128.657501 258.424988 -49.298302 0.253302
142.140808 258.424988 -49.298302 0.264408
155.624115 258.424988 -49.298302 0.291366
169.107422 258.424988 -49.298302 0.347052
182.590698 258.424988 -49.298302 0.407713
196.074036 258.424988 -49.298302 0.477596
209.557312 258.424988 -49.298302 0.506545
223.040588 258.424988 -49.298302 0.488597
236.523926 258.424988 -49.298302 0.412069
250.007202 258.424988 -49.298302 0.315683
263.490540 258.424988 -49.298302 0.231853
276.973816 258.424988 -49.298302 0.138963
290.457092 258.424988 -49.298302 0.087400
303.940430 258.424988 -49.298302 0.055298
317.423706 258.424988 -49.298302 0.000000
330.907043 258.424988 -49.298302 0.000000
344.390320 258.424988 -49.298302 0.000000
-343.257996 244.941696 -49.298302 0.000000
-329.774689 244.941696 -49.298302 0.000000
-316.291382 244.941696 -49.298302 0.000000
-302.808105 244.941696 -49.298302 0.034015
-289.324799 244.941696 -49.298302 0.040812
-275.841492 244.941696 -49.298302 0.051679
-262.358185 244.941696 -49.298302 0.074855
-248.874893 244.941696 -49.298302 0.106197
-235.391602 244.941696 -49.298302 0.151202
-221.908295 244.941696 -49.298302 0.226072
-208.424988 244.941696 -49.298302 0.289700
-194.941696 244.941696 -49.298302 0.335170
-181.458389 244.941696 -49.298302 0.378055
-167.975098 244.941696 -49.298302 0.417141
-154.491791 244.941696 -49.298302 0.446866
-141.008499 244.941696 -49.298302 0.458005
-127.525192 244.941696 -49.298302 0.467825
-114.041885 244.941696 -49.298302 0.451404
-100.558594 244.941696 -49.298302 0.452455
-87.075287 244.941696 -49.298302 0.431128
-73.591980 244.941696 -49.298302 0.367820
-60.108704 244.941696 -49.298302 0.286311
-46.625397 244.941696 -49.298302 0.244582
-33.142090 244.941696 -49.298302 0.221595
-19.658783 244.941696 -49.298302 0.214784
-6.175476 244.941696 -49.298302 0.216160
7.307800 244.941696 -49.298302 0.227799
20.791107 244.941696 -49.298302 0.204973
34.274414 244.941696 -49.298302 0.212342
47.757721 244.941696 -49.298302 0.237455
61.240997 244.941696 -49.298302 0.245235
74.724304 244.941696 -49.298302 0.237388
88.207611 244.941696 -49.298302 0.251841
101.690918 244.941696 -49.298302 0.250320
115.174225 244.941696 -49.298302 0.000000
128.657501 244.941696 -49.298302 0.000000
142.140808 244.941696 -49.298302 0.000000
155.624115 244.941696 -49.298302 0.275927
169.107422 244.941696 -49.298302 0.329460
182.590698 244.941696 -49.298302 0.403568
196.074036 244.941696 -49.298302 0.459284
209.557312 244.941696 -49.298302 0.512426
223.040588 244.941696 -49.298302 0.479857
236.523926 244.941696 -49.298302 0.398103
250.007202 244.941696 -49.298302 0.306158
263.490540 244.941696 -49.298302 0.200763
276.973816 244.941696 -49.298302 0.119636
290.457092 244.941696 -49.298302 0.072813
303.940430 244.941696 -49.298302 0.046691
317.423706 244.941696 -49.298302 0.000000
330.907043 244.941696 -49.298302 0.000000
344.390320 244.941696 -49.298302 0.000000
-343.257996 231.458389 -49.298302 0.000000
-329.774689 231.458389 -49.298302 0.000000
-316.291382 231.458389 -49.298302 0.000000
-302.808105 231.458389 -49.298302 0.034975
-289.324799 231.458389 -49.298302 0.043815
-275.841492 231.458389 -49.298302 0.055346
-262.358185 231.458389 -49.298302 0.084519
-248.874893 231.458389 -49.298302 0.121600
-235.391602 231.458389 -49.298302 0.168797
-221.908295 231.458389 -49.298302 0.250667
-208.424988 231.458389 -49.298302 0.306406
-194.941696 231.458389 -49.298302 0.351309
-181.458389 231.458389 -49.298302 0.385688
-167.975098 231.458389 -49.298302 0.419858
-154.491791 231.458389 -49.298302 0.444237
-141.008499 231.458389 -49.298302 0.452678
-127.525192 231.458389 -49.298302 0.444731
-114.041885 231.458389 -49.298302 0.480832
-100.558594 231.458389 -49.298302 0.474740
-87.075287 231.458389 -49.298302 0.435232
-73.591980 231.458389 -49.298302 0.366111
-60.108704 231.458389 -49.298302 0.303602
-46.625397 231.458389 -49.298302 0.255510
-33.142090 231.458389 -49.298302 0.222887
-19.658783 231.458389 -49.298302 0.212187
-6.175476 231.458389 -49.298302 0.206512
7.307800 231.458389 -49.298302 0.212960
20.791107 231.458389 -49.298302 0.200188
34.274414 231.458389 -49.298302 0.210644
47.757721 231.458389 -49.298302 0.220356
61.240997 231.458389 -49.298302 0.224944
74.724304 231.458389 -49.298302 0.215668
88.207611 231.458389 -49.298302 0.231306
101.690918 231.458389 -49.298302 0.212177
115.174225 231.458389 -49.298302 0.000000
128.657501 231.458389 -49.298302 0.216361
142.140808 231.458389 -49.298302 0.244882
155.624115 231.458389 -49.298302 0.273072
169.107422 231.458389 -49.298302 0.356728
182.590698 231.458389 -49.298302 0.411470
196.074036 231.458389 -49.298302 0.473917
209.557312 231.458389 -49.298302 0.483702
223.040588 231.458389 -49.298302 0.450331
236.523926 231.458389 -49.298302 0.385749
250.007202 231.458389 -49.298302 0.291981
263.490540 231.458389 -49.298302 0.185373
276.973816 231.458389 -49.298302 0.101553
290.457092 231.458389 -49.298302 0.060898
303.940430 231.458389 -49.298302 0.041406
317.423706 231.458389 -49.298302 0.000000
330.907043 231.458389 -49.298302 0.000000
344.390320 231.458389 -49.298302 0.000000
-343.257996 217.975098 -49.298302 0.000000
-329.774689 217.975098 -49.298302 0.000000
-316.291382 217.975098 -49.298302 0.000000
-302.808105 217.975098 -49.298302 0.037141
-289.324799 217.975098 -49.298302 0.044589
-275.841492 217.975098 -49.298302 0.059002
-262.358185 217.975098 -49.298302 0.086257
-248.874893 217.975098 -49.298302 0.126096
-235.391602 217.975098 -49.298302 0.165436
-221.908295 217.975098 -49.298302 0.229368
-208.424988 217.975098 -49.298302 0.315390
-194.941696 217.975098 -49.298302 0.371133
-181.458389 217.975098 -49.298302 0.414058
-167.975098 217.975098 -49.298302 0.427049
-154.491791 217.975098 -49.298302 0.443655
-141.008499 217.975098 -49.298302 0.455077
-127.525192 217.975098 -49.298302 0.469635
-114.041885 217.975098 -49.298302 0.503837
-100.558594 217.975098 -49.298302 0.484150
-87.075287 217.975098 -49.298302 0.424640
-73.591980 217.975098 -49.298302 0.354488
-60.108704 217.975098 -49.298302 0.312477
-46.625397 217.975098 -49.298302 0.242638
-33.142090 217.975098 -49.298302 0.209217
-19.658783 217.975098 -49.298302 0.193718
-6.175476 217.975098 -49.298302 0.193230
7.307800 217.975098 -49.298302 0.210171
20.791107 217.975098 -49.298302 0.204013
34.274414 217.975098 -49.298302 0.000000
47.757721 217.975098 -49.298302 0.207844
61.240997 217.975098 -49.298302 0.211933
74.724304 217.975098 -49.298302 0.196918
88.207611 217.975098 -49.298302 0.206137
101.690918 217.975098 -49.298302 0.219752
115.174225 217.975098 -49.298302 0.210921
128.657501 217.975098 -49.298302 0.241852
142.140808 217.975098 -49.298302 0.255576
155.624115 217.975098 -49.298302 0.323348
169.107422 217.975098 -49.298302 0.371687
182.590698 217.975098 -49.298302 0.405908
196.074036 217.975098 -49.298302 0.438437
209.557312 217.975098 -49.298302 0.454137
223.040588 217.975098 -49.298302 0.435143
236.523926 217.975098 -49.298302 0.368365
250.007202 217.975098 -49.298302 0.272444
263.490540 217.975098 -49.298302 0.168119
276.973816 217.975098 -49.298302 0.093514
290.457092 217.975098 -49.298302 0.053667
303.940430 217.975098 -49.298302 0.034291
317.423706 217.975098 -49.298302 0.000000
330.907043 217.975098 -49.298302 0.000000
344.390320 217.975098 -49.298302 0.000000
-343.257996 204.491791 -49.298302 0.000000
-329.774689 204.491791 -49.298302 0.000000
-316.291382 204.491791 -49.298302 0.000000
-302.808105 204.491791 -49.298302 0.035692
-289.324799 204.491791 -49.298302 0.042928
-275.841492 204.491791 -49.298302 0.058738
-262.358185 204.491791 -49.298302 0.087275
-248.874893 204.491791 -49.298302 0.131762
-235.391602 204.491791 -49.298302 0.181801
-221.908295 204.491791 -49.298302 0.249766
-208.424988 204.491791 -49.298302 0.326596
-194.941696 204.491791 -49.298302 0.376361
-181.458389 204.491791 -49.298302 0.418793
-167.975098 204.491791 -49.298302 0.425688
-154.491791 204.491791 -49.298302 0.433306
-141.008499 204.491791 -49.298302 0.483221
-127.525192 204.491791 -49.298302 0.493648
-114.041885 204.491791 -49.298302 0.504903
-100.558594 204.491791 -49.298302 0.489899
-87.075287 204.491791 -49.298302 0.441987
-73.591980 204.491791 -49.298302 0.363838
-60.108704 204.491791 -49.298302 0.277110
-46.625397 204.491791 -49.298302 0.210685
-33.142090 204.491791 -49.298302 0.201001
-19.658783 204.491791 -49.298302 0.193044
-6.175476 204.491791 -49.298302 0.197861
7.307800 204.491791 -49.298302 0.201925
20.791107 204.491791 -49.298302 0.207690
34.274414 204.491791 -49.298302 0.210139
47.757721 204.491791 -49.298302 0.205689
61.240997 204.491791 -49.298302 0.199392
74.724304 204.491791 -49.298302 0.197769
88.207611 204.491791 -49.298302 0.219073
101.690918 204.491791 -49.298302 0.235694
115.174225 204.491791 -49.298302 0.260048
128.657501 204.491791 -49.298302 0.303169
142.140808 204.491791 -49.298302 0.319177
155.624115 204.491791 -49.298302 0.360311
169.107422 204.491791 -49.298302 0.394815
182.590698 204.491791 -49.298302 0.407170
196.074036 204.491791 -49.298302 0.423374
209.557312 204.491791 -49.298302 0.439083
223.040588 204.491791 -49.298302 0.413251
236.523926 204.491791 -49.298302 0.329582
250.007202 204.491791 -49.298302 0.228704
263.490540 204.491791 -49.298302 0.136105
276.973816 204.491791 -49.298302 0.079435
290.457092 204.491791 -49.298302 0.048815
303.940430 204.491791 -49.298302 0.033170
317.423706 204.491791 -49.298302 0.000000
330.907043 204.491791 -49.298302 0.000000
344.390320 204.491791 -49.298302 0.000000
-343.257996 191.008499 -49.298302 0.000000
-329.774689 191.008499 -49.298302 0.000000
-316.291382 191.008499 -49.298302 0.000000
-302.808105 191.008499 -49.298302 0.032360
-289.324799 191.008499 -49.298302 0.039505
-275.841492 191.008499 -49.298302 0.057737
-262.358185 191.008499 -49.298302 0.086296
-248.874893 191.008499 -49.298302 0.123285
-235.391602 191.008499 -49.298302 0.183513
-221.908295 191.008499 -49.298302 0.252723
-208.424988 191.008499 -49.298302 0.322527
-194.941696 191.008499 -49.298302 0.375935
-181.458389 191.008499 -49.298302 0.409972
-167.975098 191.008499 -49.298302 0.420401
-154.491791 191.008499 -49.298302 0.475324
-141.008499 191.008499 -49.298302 0.520727
-127.525192 191.008499 -49.298302 0.549032
-114.041885 191.008499 -49.298302 0.545894
-100.558594 191.008499 -49.298302 0.505812
-87.075287 191.008499 -49.298302 0.444157
-73.591980 191.008499 -49.298302 0.362708
-60.108704 191.008499 -49.298302 0.278748
-46.625397 191.008499 -49.298302 0.221503
-33.142090 191.008499 -49.298302 0.202730
-19.658783 191.008499 -49.298302 0.180496
-6.175476 191.008499 -49.298302 0.185426
7.307800 191.008499 -49.298302 0.196297
20.791107 191.008499 -49.298302 0.204978
34.274414 191.008499 -49.298302 0.200570
47.757721 191.008499 -49.298302 0.212797
61.240997 191.008499 -49.298302 0.212735
74.724304 191.008499 -49.298302 0.225050
88.207611 191.008499 -49.298302 0.264103
101.690918 191.008499 -49.298302 0.279361
115.174225 191.008499 -49.298302 0.311577
128.657501 191.008499 -49.298302 0.356603
142.140808 191.008499 -49.298302 0.398918
155.624115 191.008499 -49.298302 0.400058
169.107422 191.008499 -49.298302 0.415962
182.590698 191.008499 -49.298302 0.408900
196.074036 191.008499 -49.298302 0.400389
209.557312 191.008499 -49.298302 0.402107
223.040588 191.008499 -49.298302 0.343382
236.523926 191.008499 -49.298302 0.261324
250.007202 191.008499 -49.298302 0.176483
263.490540 191.008499 -49.298302 0.112990
276.973816 191.008499 -49.298302 0.069403
290.457092 191.008499 -49.298302 0.044987
303.940430 191.008499 -49.298302 0.029178
317.423706 191.008499 -49.298302 0.000000
330.907043 191.008499 -49.298302 0.000000
344.390320 191.008499 -49.298302 0.000000
-343.257996 177.525192 -49.298302 0.000000
-329.774689 177.525192 -49.298302 0.000000
-316.291382 177.525192 -49.298302 0.000000
-302.808105 177.525192 -49.298302 0.030611
-289.324799 177.525192 -49.298302 0.038896
-275.841492 177.525192 -49.298302 0.057131
-262.358185 177.525192 -49.298302 0.084098
-248.874893 177.525192 -49.298302 0.125823
-235.391602 177.525192 -49.298302 0.191104
-221.908295 177.525192 -49.298302 0.266134
-208.424988 177.525192 -49.298302 0.324305
-194.941696 177.525192 -49.298302 0.378799
-181.458389 177.525192 -49.298302 0.401900
-167.975098 177.525192 -49.298302 0.456202
-154.491791 177.525192 -49.298302 0.506369
-141.008499 177.525192 -49.298302 0.554981
-127.525192 177.525192 -49.298302 0.609632
-114.041885 177.525192 -49.298302 0.565584
-100.558594 177.525192 -49.298302 0.518402
-87.075287 177.525192 -49.298302 0.452962
-73.591980 177.525192 -49.298302 0.362573
-60.108704 177.525192 -49.298302 0.282320
-46.625397 177.525192 -49.298302 0.237411
-33.142090 177.525192 -49.298302 0.211885
-19.658783 177.525192 -49.298302 0.179638
-6.175476 177.525192 -49.298302 0.181332
7.307800 177.525192 -49.298302 0.196891
20.791107 177.525192 -49.298302 0.213575
34.274414 177.525192 -49.298302 0.215831
47.757721 177.525192 -49.298302 0.241264
61.240997 177.525192 -49.298302 0.242656
74.724304 177.525192 -49.298302 0.245572
88.207611 177.525192 -49.298302 0.289738
101.690918 177.525192 -49.298302 0.326088
115.174225 177.525192 -49.298302 0.364184
128.657501 177.525192 -49.298302 0.377945
142.140808 177.525192 -49.298302 0.392308
155.624115 177.525192 -49.298302 0.400107
169.107422 177.525192 -49.298302 0.387980
182.590698 177.525192 -49.298302 0.376294
196.074036 177.525192 -49.298302 0.362437
209.557312 177.525192 -49.298302 0.349067
223.040588 177.525192 -49.298302 0.301772
236.523926 177.525192 -49.298302 0.209323
250.007202 177.525192 -49.298302 0.139821
263.490540 177.525192 -49.298302 0.092418
276.973816 177.525192 -49.298302 0.057699
290.457092 177.525192 -49.298302 0.039834
303.940430 177.525192 -49.298302 0.024810
317.423706 177.525192 -49.298302 0.000000
330.907043 177.525192 -49.298302 0.000000
344.390320 177.525192 -49.298302 0.000000
-343.257996 164.041885 -49.298302 0.000000
-329.774689 164.041885 -49.298302 0.000000
-316.291382 164.041885 -49.298302 0.000000
-302.808105 164.041885 -49.298302 0.031311
-289.324799 164.041885 -49.298302 0.038227
-275.841492 164.041885 -49.298302 0.054773
-262.358185 164.041885 -49.298302 0.084194
-248.874893 164.041885 -49.298302 0.130841
-235.391602 164.041885 -49.298302 0.198750
-221.908295 164.041885 -49.298302 0.279283
-208.424988 164.041885 -49.298302 0.350557
-194.941696 164.041885 -49.298302 0.407888
-181.458389 164.041885 -49.298302 0.450513
-167.975098 164.041885 -49.298302 0.517468
-154.491791 164.041885 -49.298302 0.577119
-141.008499 164.041885 -49.298302 0.670325
-127.525192 164.041885 -49.298302 0.664610
-114.041885 164.041885 -49.298302 0.592973
-100.558594 164.041885 -49.298302 0.530552
-87.075287 164.041885 -49.298302 0.460154
-73.591980 164.041885 -49.298302 0.358438
-60.108704 164.041885 -49.298302 0.264669
-46.625397 164.041885 -49.298302 0.232698
-33.142090 164.041885 -49.298302 0.202574
-19.658783 164.041885 -49.298302 0.181999
-6.175476 164.041885 -49.298302 0.189945
7.307800 164.041885 -49.298302 0.207356
20.791107 164.041885 -49.298302 0.233226
34.274414 164.041885 -49.298302 0.260919
47.757721 164.041885 -49.298302 0.283890
61.240997 164.041885 -49.298302 0.293995
74.724304 164.041885 -49.298302 0.305819
88.207611 164.041885 -49.298302 0.326376
101.690918 164.041885 -49.298302 0.332941
115.174225 164.041885 -49.298302 0.350569
128.657501 164.041885 -49.298302 0.375513
142.140808 164.041885 -49.298302 0.356557
155.624115 164.041885 -49.298302 0.358402
169.107422 164.041885 -49.298302 0.363255
182.590698 164.041885 -49.298302 0.327648
196.074036 164.041885 -49.298302 0.310538
209.557312 164.041885 -49.298302 0.267486
223.040588 164.041885 -49.298302 0.223930
236.523926 164.041885 -49.298302 0.163677
250.007202 164.041885 -49.298302 0.110739
263.490540 164.041885 -49.298302 0.068852
276.973816 164.041885 -49.298302 0.045194
290.457092 164.041885 -49.298302 0.033181
303.940430 164.041885 -49.298302 0.020986
317.423706 164.041885 -49.298302 0.000000
330.907043 164.041885 -49.298302 0.000000
344.390320 164.041885 -49.298302 0.000000
-343.257996 150.558594 -49.298302 0.000000
-329.774689 150.558594 -49.298302 0.000000
-316.291382 150.558594 -49.298302 0.000000
-302.808105 150.558594 -49.298302 0.031460
-289.324799 150.558594 -49.298302 0.040393
-275.841492 150.558594 -49.298302 0.057906
-262.358185 150.558594 -49.298302 0.082032
-248.874893 150.558594 -49.298302 0.134630
-235.391602 150.558594 -49.298302 0.197482
-221.908295 150.558594 -49.298302 0.276740
-208.424988 150.558594 -49.298302 0.363745
-194.941696 150.558594 -49.298302 0.454153
-181.458389 150.558594 -49.298302 0.537540
-167.975098 150.558594 -49.298302 0.617647
-154.491791 150.558594 -49.298302 0.703392
-141.008499 150.558594 -49.298302 0.773631
-127.525192 150.558594 -49.298302 0.753868
-114.041885 150.558594 -49.298302 0.654457
-100.558594 150.558594 -49.298302 0.538283
-87.075287 150.558594 -49.298302 0.435468
-73.591980 150.558594 -49.298302 0.352729
-60.108704 150.558594 -49.298302 0.264489
-46.625397 150.558594 -49.298302 0.227425
-33.142090 150.558594 -49.298302 0.189392
-19.658783 150.558594 -49.298302 0.193881
-6.175476 150.558594 -49.298302 0.192552
7.307800 150.558594 -49.298302 0.225814
20.791107 150.558594 -49.298302 0.263088
34.274414 150.558594 -49.298302 0.299438
47.757721 150.558594 -49.298302 0.321056
61.240997 150.558594 -49.298302 0.359027
74.724304 150.558594 -49.298302 0.368752
88.207611 150.558594 -49.298302 0.365698
101.690918 150.558594 -49.298302 0.350237
115.174225 150.558594 -49.298302 0.354746
128.657501 150.558594 -49.298302 0.344723
142.140808 150.558594 -49.298302 0.325684
155.624115 150.558594 -49.298302 0.309602
169.107422 150.558594 -49.298302 0.298339
182.590698 150.558594 -49.298302 0.276809
196.074036 150.558594 -49.298302 0.242114
209.557312 150.558594 -49.298302 0.206986
223.040588 150.558594 -49.298302 0.158775
236.523926 150.558594 -49.298302 0.108605
250.007202 150.558594 -49.298302 0.071920
263.490540 150.558594 -49.298302 0.051039
276.973816 150.558594 -49.298302 0.037316
290.457092 150.558594 -49.298302 0.027508
303.940430 150.558594 -49.298302 0.017836
317.423706 150.558594 -49.298302 0.000000
330.907043 150.558594 -49.298302 0.000000
344.390320 150.558594 -49.298302 0.000000
-343.257996 137.075287 -49.298302 0.000000
-329.774689 137.075287 -49.298302 0.000000
-316.291382 137.075287 -49.298302 0.000000
-302.808105 137.075287 -49.298302 0.034780
-289.324799 137.075287 -49.298302 0.046115
-275.841492 137.075287 -49.298302 0.062866
-262.358185 137.075287 -49.298302 0.088049
-248.874893 137.075287 -49.298302 0.136227
-235.391602 137.075287 -49.298302 0.199028
-221.908295 137.075287 -49.298302 0.278493
-208.424988 137.075287 -49.298302 0.365177
-194.941696 137.075287 -49.298302 0.486206
-181.458389 137.075287 -49.298302 0.635483
-167.975098 137.075287 -49.298302 0.745602
-154.491791 137.075287 -49.298302 0.847325
-141.008499 137.075287 -49.298302 0.890992
-127.525192 137.075287 -49.298302 0.829622
-114.041885 137.075287 -49.298302 0.681472
-100.558594 137.075287 -49.298302 0.571524
-87.075287 137.075287 -49.298302 0.447033
-73.591980 137.075287 -49.298302 0.329418
-60.108704 137.075287 -49.298302 0.256773
-46.625397 137.075287 -49.298302 0.219772
-33.142090 137.075287 -49.298302 0.204925
-19.658783 137.075287 -49.298302 0.207336
-6.175476 137.075287 -49.298302 0.226633
7.307800 137.075287 -49.298302 0.259877
20.791107 137.075287 -49.298302 0.286403
34.274414 137.075287 -49.298302 0.335379
47.757721 137.075287 -49.298302 0.379076
61.240997 137.075287 -49.298302 0.401136
74.724304 137.075287 -49.298302 0.403246
88.207611 137.075287 -49.298302 0.384303
101.690918 137.075287 -49.298302 0.362428
115.174225 137.075287 -49.298302 0.326397
128.657501 137.075287 -49.298302 0.305980
142.140808 137.075287 -49.298302 0.286429
155.624115 137.075287 -49.298302 0.252258
169.107422 137.075287 -49.298302 0.233670
182.590698 137.075287 -49.298302 0.216855
196.074036 137.075287 -49.298302 0.187921
209.557312 137.075287 -49.298302 0.144645
223.040588 137.075287 -49.298302 0.102739
236.523926 137.075287 -49.298302 0.074005
250.007202 137.075287 -49.298302 0.050563
263.490540 137.075287 -49.298302 0.036867
276.973816 137.075287 -49.298302 0.029372
290.457092 137.075287 -49.298302 0.022297
303.940430 137.075287 -49.298302 0.014917
317.423706 137.075287 -49.298302 0.000000
330.907043 137.075287 -49.298302 0.000000
344.390320 137.075287 -49.298302 0.000000
-343.257996 123.591980 -49.298302 0.000000
-329.774689 123.591980 -49.298302 0.000000
-316.291382 123.591980 -49.298302 0.000000
-302.808105 123.591980 -49.298302 0.037577
-289.324799 123.591980 -49.298302 0.051482
-275.841492 123.591980 -49.298302 0.065117
-262.358185 123.591980 -49.298302 0.092113
-248.874893 123.591980 -49.298302 0.136815
-235.391602 123.591980 -49.298302 0.203301
-221.908295 123.591980 -49.298302 0.291011
-208.424988 123.591980 -49.298302 0.386457
-194.941696 123.591980 -49.298302 0.560751
-181.458389 123.591980 -49.298302 0.775487
-167.975098 123.591980 -49.298302 0.897379
-154.491791 123.591980 -49.298302 0.964742
-141.008499 123.591980 -49.298302 0.951512
-127.525192 123.591980 -49.298302 0.860911
-114.041885 123.591980 -49.298302 0.762887
-100.558594 123.591980 -49.298302 0.600890
-87.075287 123.591980 -49.298302 0.472882
-73.591980 123.591980 -49.298302 0.326297
-60.108704 123.591980 -49.298302 0.260982
-46.625397 123.591980 -49.298302 0.220387
-33.142090 123.591980 -49.298302 0.215104
-19.658783 123.591980 -49.298302 0.221167
-6.175476 123.591980 -49.298302 0.255492
7.307800 123.591980 -49.298302 0.287378
20.791107 123.591980 -49.298302 0.308092
34.274414 123.591980 -49.298302 0.353990
47.757721 123.591980 -49.298302 0.394609
61.240997 123.591980 -49.298302 0.403375
74.724304 123.591980 -49.298302 0.410868
88.207611 123.591980 -49.298302 0.379668
101.690918 123.591980 -49.298302 0.320890
115.174225 123.591980 -49.298302 0.290787
128.657501 123.591980 -49.298302 0.277027
142.140808 123.591980 -49.298302 0.240205
155.624115 123.591980 -49.298302 0.211408
169.107422 123.591980 -49.298302 0.196626
182.590698 123.591980 -49.298302 0.162726
196.074036 123.591980 -49.298302 0.128737
209.557312 123.591980 -49.298302 0.098830
223.040588 123.591980 -49.298302 0.069675
236.523926 123.591980 -49.298302 0.048554
250.007202 123.591980 -49.298302 0.035060
263.490540 123.591980 -49.298302 0.027493
276.973816 123.591980 -49.298302 0.022909
290.457092 123.591980 -49.298302 0.018943
303.940430 123.591980 -49.298302 0.012086
317.423706 123.591980 -49.298302 0.000000
330.907043 123.591980 -49.298302 0.000000
344.390320 123.591980 -49.298302 0.000000
-343.257996 110.108704 -49.298302 0.000000
-329.774689 110.108704 -49.298302 0.000000
-316.291382 110.108704 -49.298302 0.000000
-302.808105 110.108704 -49.298302 0.036544
-289.324799 110.108704 -49.298302 0.054806
-275.841492 110.108704 -49.298302 0.071765
-262.358185 110.108704 -49.298302 0.096711
-248.874893 110.108704 -49.298302 0.144277
-235.391602 110.108704 -49.298302 0.197206
-221.908295 110.108704 -49.298302 0.311616
-208.424988 110.108704 -49.298302 0.421885
-194.941696 110.108704 -49.298302 0.649072
-181.458389 110.108704 -49.298302 0.888186
-167.975098 110.108704 -49.298302 1.026610
-154.491791 110.108704 -49.298302 1.085047
-141.008499 110.108704 -49.298302 1.026059
-127.525192 110.108704 -49.298302 0.899112
-114.041885 110.108704 -49.298302 0.776815
-100.558594 110.108704 -49.298302 0.572172
-87.075287 110.108704 -49.298302 0.429514
-73.591980 110.108704 -49.298302 0.316151
-60.108704 110.108704 -49.298302 0.257559
-46.625397 110.108704 -49.298302 0.228392
-33.142090 110.108704 -49.298302 0.226822
-19.658783 110.108704 -49.298302 0.245713
-6.175476 110.108704 -49.298302 0.277690
7.307800 110.108704 -49.298302 0.313801
20.791107 110.108704 -49.298302 0.338113
34.274414 110.108704 -49.298302 0.362987
47.757721 110.108704 -49.298302 0.381268
61.240997 110.108704 -49.298302 0.397572
74.724304 110.108704 -49.298302 0.369951
88.207611 110.108704 -49.298302 0.318426
101.690918 110.108704 -49.298302 0.304597
115.174225 110.108704 -49.298302 0.253410
128.657501 110.108704 -49.298302 0.225015
142.140808 110.108704 -49.298302 0.204813
155.624115 110.108704 -49.298302 0.172034
169.107422 110.108704 -49.298302 0.150415
182.590698 110.108704 -49.298302 0.116135
196.074036 110.108704 -49.298302 0.085779
209.557312 110.108704 -49.298302 0.060537
223.040588 110.108704 -49.298302 0.045797
236.523926 110.108704 -49.298302 0.034120
250.007202 110.108704 -49.298302 0.026555
263.490540 110.108704 -49.298302 0.021647
276.973816 110.108704 -49.298302 0.018760
290.457092 110.108704 -49.298302 0.015289
303.940430 110.108704 -49.298302 0.009612
317.423706 110.108704 -49.298302 0.000000
330.907043 110.108704 -49.298302 0.000000
344.390320 110.108704 -49.298302 0.000000
-343.257996 96.625397 -49.298302 0.000000
-329.774689 96.625397 -49.298302 0.000000
-316.291382 96.625397 -49.298302 0.000000
-302.808105 96.625397 -49.298302 0.037722
-289.324799 96.625397 -49.298302 0.059050
-275.841492 96.625397 -49.298302 0.076066
-262.358185 96.625397 -49.298302 0.100743
-248.874893 96.625397 -49.298302 0.138276
-235.391602 96.625397 -49.298302 0.204156
-221.908295 96.625397 -49.298302 0.323881
-208.424988 96.625397 -49.298302 0.475683
-194.941696 96.625397 -49.298302 0.722770
-181.458389 96.625397 -49.298302 0.945081
-167.975098 96.625397 -49.298302 1.133071
-154.491791 96.625397 -49.298302 1.177602
-141.008499 96.625397 -49.298302 1.110901
-127.525192 96.625397 -49.298302 0.945446
-114.041885 96.625397 -49.298302 0.721853
-100.558594 96.625397 -49.298302 0.526248
-87.075287 96.625397 -49.298302 0.394573
-73.591980 96.625397 -49.298302 0.316846
-60.108704 96.625397 -49.298302 0.261268
-46.625397 96.625397 -49.298302 0.219949
-33.142090 96.625397 -49.298302 0.218510
-19.658783 96.625397 -49.298302 0.239713
-6.175476 96.625397 -49.298302 0.265192
7.307800 96.625397 -49.298302 0.304902
20.791107 96.625397 -49.298302 0.342893
34.274414 96.625397 -49.298302 0.355444
47.757721 96.625397 -49.298302 0.384903
61.240997 96.625397 -49.298302 0.368955
74.724304 96.625397 -49.298302 0.302311
88.207611 96.625397 -49.298302 0.259145
101.690918 96.625397 -49.298302 0.241813
115.174225 96.625397 -49.298302 0.208494
128.657501 96.625397 -49.298302 0.174137
142.140808 96.625397 -49.298302 0.156418
155.624115 96.625397 -49.298302 0.136573
169.107422 96.625397 -49.298302 0.106327
182.590698 96.625397 -49.298302 0.084513
196.074036 96.625397 -49.298302 0.059356
209.557312 96.625397 -49.298302 0.045230
223.040588 96.625397 -49.298302 0.033037
236.523926 96.625397 -49.298302 0.026735
250.007202 96.625397 -49.298302 0.022686
263.490540 96.625397 -49.298302 0.019427
276.973816 96.625397 -49.298302 0.016345
290.457092 96.625397 -49.298302 0.013255
303.940430 96.625397 -49.298302 0.008575
317.423706 96.625397 -49.298302 0.000000
330.907043 96.625397 -49.298302 0.000000
344.390320 96.625397 -49.298302 0.000000
-343.257996 83.142090 -49.298302 0.000000
-329.774689 83.142090 -49.298302 0.000000
-316.291382 83.142090 -49.298302 0.000000
-302.808105 83.142090 -49.298302 0.036449
-289.324799 83.142090 -49.298302 0.063035
-275.841492 83.142090 -49.298302 0.081717
-262.358185 83.142090 -49.298302 0.105721
-248.874893 83.142090 -49.298302 0.144344
-235.391602 83.142090 -49.298302 0.218737
-221.908295 83.142090 -49.298302 0.342323
-208.424988 83.142090 -49.298302 0.514877
-194.941696 83.142090 -49.298302 0.805177
-181.458389 83.142090 -49.298302 1.095853
-167.975098 83.142090 -49.298302 1.291546
-154.491791 83.142090 -49.298302 1.253115
-141.008499 83.142090 -49.298302 1.110901
-127.525192 83.142090 -49.298302 0.890743
-114.041885 83.142090 -49.298302 0.658883
-100.558594 83.142090 -49.298302 0.482229
-87.075287 83.142090 -49.298302 0.355620
-73.591980 83.142090 -49.298302 0.299164
-60.108704 83.142090 -49.298302 0.245420
-46.625397 83.142090 -49.298302 0.225621
-33.142090 83.142090 -49.298302 0.229394
-19.658783 83.142090 -49.298302 0.235805
-6.175476 83.142090 -49.298302 0.246231
7.307800 83.142090 -49.298302 0.297189
20.791107 83.142090 -49.298302 0.362291
34.274414 83.142090 -49.298302 0.372073
47.757721 83.142090 -49.298302 0.371869
61.240997 83.142090 -49.298302 0.343361
74.724304 83.142090 -49.298302 0.268111
88.207611 83.142090 -49.298302 0.231859
101.690918 83.142090 -49.298302 0.197662
115.174225 83.142090 -49.298302 0.169012
128.657501 83.142090 -49.298302 0.141630
142.140808 83.142090 -49.298302 0.124731
155.624115 83.142090 -49.298302 0.100040
169.107422 83.142090 -49.298302 0.077461
182.590698 83.142090 -49.298302 0.062195
196.074036 83.142090 -49.298302 0.045514
209.557312 83.142090 -49.298302 0.035086
223.040588 83.142090 -49.298302 0.027525
236.523926 83.142090 -49.298302 0.022746
250.007202 83.142090 -49.298302 0.019181
263.490540 83.142090 -49.298302 0.016331
276.973816 83.142090 -49.298302 0.013545
290.457092 83.142090 -49.298302 0.011683
303.940430 83.142090 -49.298302 0.007527
317.423706 83.142090 -49.298302 0.000000
330.907043 83.142090 -49.298302 0.000000
344.390320 83.142090 -49.298302 0.000000
-343.257996 69.658783 -49.298302 0.000000
-329.774689 69.658783 -49.298302 0.000000
-316.291382 69.658783 -49.298302 0.000000
-302.808105 69.658783 -49.298302 0.037802
-289.324799 69.658783 -49.298302 0.067441
-275.841492 69.658783 -49.298302 0.086963
-262.358185 69.658783 -49.298302 0.113581
-248.874893 69.658783 -49.298302 0.162496
-235.391602 69.658783 -49.298302 0.242847
-221.908295 69.658783 -49.298302 0.378722
-208.424988 69.658783 -49.298302 0.622310
-194.941696 69.658783 -49.298302 0.915310
-181.458389 69.658783 -49.298302 1.257199
-167.975098 69.658783 -49.298302 1.386498
-154.491791 69.658783 -49.298302 1.301693
-141.008499 69.658783 -49.298302 1.091885
-127.525192 69.658783 -49.298302 0.858564
-114.041885 69.658783 -49.298302 0.616097
-100.558594 69.658783 -49.298302 0.457747
-87.075287 69.658783 -49.298302 0.366210
-73.591980 69.658783 -49.298302 0.299200
-60.108704 69.658783 -49.298302 0.246233
-46.625397 69.658783 -49.298302 0.234678
-33.142090 69.658783 -49.298302 0.233474
-19.658783 69.658783 -49.298302 0.227133
-6.175476 69.658783 -49.298302 0.249404
7.307800 69.658783 -49.298302 0.327909
20.791107 69.658783 -49.298302 0.366558
34.274414 69.658783 -49.298302 0.393611
47.757721 69.658783 -49.298302 0.393932
61.240997 69.658783 -49.298302 0.358745
74.724304 69.658783 -49.298302 0.279066
88.207611 69.658783 -49.298302 0.236379
101.690918 69.658783 -49.298302 0.196191
115.174225 69.658783 -49.298302 0.153388
128.657501 69.658783 -49.298302 0.122024
142.140808 69.658783 -49.298302 0.100959
155.624115 69.658783 -49.298302 0.083322
169.107422 69.658783 -49.298302 0.065732
182.590698 69.658783 -49.298302 0.049332
196.074036 69.658783 -49.298302 0.039745
209.557312 69.658783 -49.298302 0.033237
223.040588 69.658783 -49.298302 0.027060
236.523926 69.658783 -49.298302 0.022265
250.007202 69.658783 -49.298302 0.017653
263.490540 69.658783 -49.298302 0.014946
276.973816 69.658783 -49.298302 0.012358
290.457092 69.658783 -49.298302 0.011040
303.940430 69.658783 -49.298302 0.006921
317.423706 69.658783 -49.298302 0.000000
330.907043 69.658783 -49.298302 0.000000
344.390320 69.658783 -49.298302 0.000000
-343.257996 56.175476 -49.298302 0.000000
-329.774689 56.175476 -49.298302 0.000000
-316.291382 56.175476 -49.298302 0.000000
-302.808105 56.175476 -49.298302 0.036887
-289.324799 56.175476 -49.298302 0.073904
-275.841492 56.175476 -49.298302 0.094801
-262.358185 56.175476 -49.298302 0.127841
-248.874893 56.175476 -49.298302 0.181238
-235.391602 56.175476 -49.298302 0.291007
-221.908295 56.175476 -49.298302 0.457334
-208.424988 56.175476 -49.298302 0.737480
-194.941696 56.175476 -49.298302 1.060679
-181.458389 56.175476 -49.298302 1.312004
-167.975098 56.175476 -49.298302 1.375509
-154.491791 56.175476 -49.298302 1.268909
-141.008499 56.175476 -49.298302 1.065981
-127.525192 56.175476 -49.298302 0.781922
-114.041885 56.175476 -49.298302 0.536187
-100.558594 56.175476 -49.298302 0.404550
-87.075287 56.175476 -49.298302 0.331989
-73.591980 56.175476 -49.298302 0.275422
-60.108704 56.175476 -49.298302 0.235333
-46.625397 56.175476 -49.298302 0.229661
-33.142090 56.175476 -49.298302 0.229321
-19.658783 56.175476 -49.298302 0.241701
-6.175476 56.175476 -49.298302 0.261257
7.307800 56.175476 -49.298302 0.314276
20.791107 56.175476 -49.298302 0.388088
34.274414 56.175476 -49.298302 0.439200
47.757721 56.175476 -49.298302 0.455341
61.240997 56.175476 -49.298302 0.424008
74.724304 56.175476 -49.298302 0.336435
88.207611 56.175476 -49.298302 0.264206
101.690918 56.175476 -49.298302 0.204616
115.174225 56.175476 -49.298302 0.176073
128.657501 56.175476 -49.298302 0.133301
142.140808 56.175476 -49.298302 0.099731
155.624115 56.175476 -49.298302 0.077214
169.107422 56.175476 -49.298302 0.059225
182.590698 56.175476 -49.298302 0.046388
196.074036 56.175476 -49.298302 0.040661
209.557312 56.175476 -49.298302 0.034374
223.040588 56.175476 -49.298302 0.028822
236.523926 56.175476 -49.298302 0.023268
250.007202 56.175476 -49.298302 0.018179
263.490540 56.175476 -49.298302 0.014536
276.973816 56.175476 -49.298302 0.012160
290.457092 56.175476 -49.298302 0.011236
303.940430 56.175476 -49.298302 0.007877
317.423706 56.175476 -49.298302 0.000000
330.907043 56.175476 -49.298302 0.000000
344.390320 56.175476 -49.298302 0.000000
-343.257996 42.692200 -49.298302 0.000000
-329.774689 42.692200 -49.298302 0.000000
-316.291382 42.692200 -49.298302 0.000000
-302.808105 42.692200 -49.298302 0.043268
-289.324799 42.692200 -49.298302 0.076629
-275.841492 42.692200 -49.298302 0.106863
-262.358185 42.692200 -49.298302 0.148570
-248.874893 42.692200 -49.298302 0.206234
-235.391602 42.692200 -49.298302 0.334310
-221.908295 42.692200 -49.298302 0.547528
-208.424988 42.692200 -49.298302 0.864786
-194.941696 42.692200 -49.298302 1.164518
-181.458389 42.692200 -49.298302 1.353795
-167.975098 42.692200 -49.298302 1.291649
-154.491791 42.692200 -49.298302 1.211511
-141.008499 42.692200 -49.298302 0.975403
-127.525192 42.692200 -49.298302 0.677367
-114.041885 42.692200 -49.298302 0.507838
-100.558594 42.692200 -49.298302 0.395918
-87.075287 42.692200 -49.298302 0.310561
-73.591980 42.692200 -49.298302 0.255574
-60.108704 42.692200 -49.298302 0.227132
-46.625397 42.692200 -49.298302 0.230560
-33.142090 42.692200 -49.298302 0.228391
-19.658783 42.692200 -49.298302 0.238617
-6.175476 42.692200 -49.298302 0.261860
7.307800 42.692200 -49.298302 0.324228
20.791107 42.692200 -49.298302 0.410824
34.274414 42.692200 -49.298302 0.515118
47.757721 42.692200 -49.298302 0.522488
61.240997 42.692200 -49.298302 0.504692
74.724304 42.692200 -49.298302 0.406746
88.207611 42.692200 -49.298302 0.316205
101.690918 42.692200 -49.298302 0.244859
115.174225 42.692200 -49.298302 0.198844
128.657501 42.692200 -49.298302 0.160229
142.140808 42.692200 -49.298302 0.119568
155.624115 42.692200 -49.298302 0.084255
169.107422 42.692200 -49.298302 0.063903
182.590698 42.692200 -49.298302 0.052114
196.074036 42.692200 -49.298302 0.044981
209.557312 42.692200 -49.298302 0.038802
223.040588 42.692200 -49.298302 0.031311
236.523926 42.692200 -49.298302 0.025217
250.007202 42.692200 -49.298302 0.018697
263.490540 42.692200 -49.298302 0.015061
276.973816 42.692200 -49.298302 0.012994
290.457092 42.692200 -49.298302 0.012474
303.940430 42.692200 -49.298302 0.000000
317.423706 42.692200 -49.298302 0.000000
330.907043 42.692200 -49.298302 0.000000
344.390320 42.692200 -49.298302 0.000000
-343.257996 29.208893 -49.298302 0.000000
-329.774689 29.208893 -49.298302 0.000000
-316.291382 29.208893 -49.298302 0.000000
-302.808105 29.208893 -49.298302 0.053590
-289.324799 29.208893 -49.298302 0.086446
-275.841492 29.208893 -49.298302 0.122962
-262.358185 29.208893 -49.298302 0.165180
-248.874893 29.208893 -49.298302 0.243947
-235.391602 29.208893 -49.298302 0.407330
-221.908295 29.208893 -49.298302 0.633958
-208.424988 29.208893 -49.298302 0.946749
-194.941696 29.208893 -49.298302 1.209342
-181.458389 29.208893 -49.298302 1.306374
-167.975098 29.208893 -49.298302 1.212940
-154.491791 29.208893 -49.298302 1.017028
-141.008499 29.208893 -49.298302 0.815400
-127.525192 29.208893 -49.298302 0.581559
-114.041885 29.208893 -49.298302 0.446039
-100.558594 29.208893 -49.298302 0.380580
-87.075287 29.208893 -49.298302 0.280505
-73.591980 29.208893 -49.298302 0.228963
-60.108704 29.208893 -49.298302 0.229434
-46.625397 29.208893 -49.298302 0.224819
-33.142090 29.208893 -49.298302 0.239815
-19.658783 29.208893 -49.298302 0.248421
-6.175476 29.208893 -49.298302 0.288005
7.307800 29.208893 -49.298302 0.356504
20.791107 29.208893 -49.298302 0.461510
34.274414 29.208893 -49.298302 0.581709
47.757721 29.208893 -49.298302 0.605352
61.240997 29.208893 -49.298302 0.573433
74.724304 29.208893 -49.298302 0.445769
88.207611 29.208893 -49.298302 0.362796
101.690918 29.208893 -49.298302 0.286820
115.174225 29.208893 -49.298302 0.227521
128.657501 29.208893 -49.298302 0.193244
142.140808 29.208893 -49.298302 0.159731
155.624115 29.208893 -49.298302 0.105770
169.107422 29.208893 -49.298302 0.072353
182.590698 29.208893 -49.298302 0.057164
196.074036 29.208893 -49.298302 0.051587
209.557312 29.208893 -49.298302 0.043604
223.040588 29.208893 -49.298302 0.036145
236.523926 29.208893 -49.298302 0.026885
250.007202 29.208893 -49.298302 0.020421
263.490540 29.208893 -49.298302 0.015689
276.973816 29.208893 -49.298302 0.013840
290.457092 29.208893 -49.298302 0.013563
303.940430 29.208893 -49.298302 0.000000
317.423706 29.208893 -49.298302 0.000000
330.907043 29.208893 -49.298302 0.000000
344.390320 29.208893 -49.298302 0.000000
-343.257996 15.725586 -49.298302 0.000000
-329.774689 15.725586 -49.298302 0.000000
-316.291382 15.725586 -49.298302 0.000000
-302.808105 15.725586 -49.298302 0.059245
-289.324799 15.725586 -49.298302 0.094588
-275.841492 15.725586 -49.298302 0.133433
-262.358185 15.725586 -49.298302 0.185474
-248.874893 15.725586 -49.298302 0.281326
-235.391602 15.725586 -49.298302 0.466031
-221.908295 15.725586 -49.298302 0.713308
-208.424988 15.725586 -49.298302 0.980761
-194.941696 15.725586 -49.298302 1.146041
-181.458389 15.725586 -49.298302 1.284723
-167.975098 15.725586 -49.298302 1.130098
-154.491791 15.725586 -49.298302 0.887424
-141.008499 15.725586 -49.298302 0.697598
-127.525192 15.725586 -49.298302 0.544128
-114.041885 15.725586 -49.298302 0.438072
-100.558594 15.725586 -49.298302 0.379412
-87.075287 15.725586 -49.298302 0.292161
-73.591980 15.725586 -49.298302 0.239094
-60.108704 15.725586 -49.298302 0.221176
-46.625397 15.725586 -49.298302 0.231183
-33.142090 15.725586 -49.298302 0.242054
-19.658783 15.725586 -49.298302 0.271522
-6.175476 15.725586 -49.298302 0.309720
7.307800 15.725586 -49.298302 0.401988
20.791107 15.725586 -49.298302 0.506045
34.274414 15.725586 -49.298302 0.618161
47.757721 15.725586 -49.298302 0.643405
61.240997 15.725586 -49.298302 0.599794
74.724304 15.725586 -49.298302 0.485114
88.207611 15.725586 -49.298302 0.376340
101.690918 15.725586 -49.298302 0.293674
115.174225 15.725586 -49.298302 0.248159
128.657501 15.725586 -49.298302 0.212953
142.140808 15.725586 -49.298302 0.188116
155.624115 15.725586 -49.298302 0.130587
169.107422 15.725586 -49.298302 0.089502
182.590698 15.725586 -49.298302 0.068068
196.074036 15.725586 -49.298302 0.056867
209.557312 15.725586 -49.298302 0.047660
223.040588 15.725586 -49.298302 0.040307
236.523926 15.725586 -49.298302 0.031634
250.007202 15.725586 -49.298302 0.022845
263.490540 15.725586 -49.298302 0.017348
276.973816 15.725586 -49.298302 0.014575
290.457092 15.725586 -49.298302 0.014007
303.940430 15.725586 -49.298302 0.000000
317.423706 15.725586 -49.298302 0.000000
330.907043 15.725586 -49.298302 0.000000
344.390320 15.725586 -49.298302 0.000000
-343.257996 2.242279 -49.298302 0.000000
-329.774689 2.242279 -49.298302 0.000000
-316.291382 2.242279 -49.298302 0.000000
-302.808105 2.242279 -49.298302 0.067404
-289.324799 2.242279 -49.298302 0.114899
-275.841492 2.242279 -49.298302 0.143532
-262.358185 2.242279 -49.298302 0.212277
-248.874893 2.242279 -49.298302 0.342469
-235.391602 2.242279 -49.298302 0.535621
-221.908295 2.242279 -49.298302 0.792286
-208.424988 2.242279 -49.298302 0.953209
-194.941696 2.242279 -49.298302 1.143994
-181.458389 2.242279 -49.298302 1.209986
-167.975098 2.242279 -49.298302 1.078738
-154.491791 2.242279 -49.298302 0.869351
-141.008499 2.242279 -49.298302 0.641184
-127.525192 2.242279 -49.298302 0.498239
-114.041885 2.242279 -49.298302 0.417016
-100.558594 2.242279 -49.298302 0.359007
-87.075287 2.242279 -49.298302 0.277613
-73.591980 2.242279 -49.298302 0.235369
-60.108704 2.242279 -49.298302 0.230615
-46.625397 2.242279 -49.298302 0.224694
-33.142090 2.242279 -49.298302 0.236588
-19.658783 2.242279 -49.298302 0.280104
-6.175476 2.242279 -49.298302 0.350203
7.307800 2.242279 -49.298302 0.465422
20.791107 2.242279 -49.298302 0.571241
34.274414 2.242279 -49.298302 0.711023
47.757721 2.242279 -49.298302 0.724555
61.240997 2.242279 -49.298302 0.651756
74.724304 2.242279 -49.298302 0.548135
88.207611 2.242279 -49.298302 0.407813
101.690918 2.242279 -49.298302 0.304240
115.174225 2.242279 -49.298302 0.240169
128.657501 2.242279 -49.298302 0.223919
142.140808 2.242279 -49.298302 0.182951
155.624115 2.242279 -49.298302 0.144741
169.107422 2.242279 -49.298302 0.101818
182.590698 2.242279 -49.298302 0.077975
196.074036 2.242279 -49.298302 0.064550
209.557312 2.242279 -49.298302 0.052254
223.040588 2.242279 -49.298302 0.042237
236.523926 2.242279 -49.298302 0.035768
250.007202 2.242279 -49.298302 0.025892
263.490540 2.242279 -49.298302 0.019803
276.973816 2.242279 -49.298302 0.015757
290.457092 2.242279 -49.298302 0.014452
303.940430 2.242279 -49.298302 0.000000
317.423706 2.242279 -49.298302 0.000000
330.907043 2.242279 -49.298302 0.000000
344.390320 2.242279 -49.298302 0.000000
-343.257996 -11.240997 -49.298302 0.000000
-329.774689 -11.240997 -49.298302 0.000000
-316.291382 -11.240997 -49.298302 0.000000
-302.808105 -11.240997 -49.298302 0.071763
-289.324799 -11.240997 -49.298302 0.120570
-275.841492 -11.240997 -49.298302 0.147496
-262.358185 -11.240997 -49.298302 0.224912
-248.874893 -11.240997 -49.298302 0.357603
-235.391602 -11.240997 -49.298302 0.526839
-221.908295 -11.240997 -49.298302 0.767143
-208.424988 -11.240997 -49.298302 0.947591
-194.941696 -11.240997 -49.298302 1.033761
-181.458389 -11.240997 -49.298302 1.062325
-167.975098 -11.240997 -49.298302 0.984287
-154.491791 -11.240997 -49.298302 0.824945
-141.008499 -11.240997 -49.298302 0.648308
-127.525192 -11.240997 -49.298302 0.495139
-114.041885 -11.240997 -49.298302 0.408038
-100.558594 -11.240997 -49.298302 0.328250
-87.075287 -11.240997 -49.298302 0.272850
-73.591980 -11.240997 -49.298302 0.250209
-60.108704 -11.240997 -49.298302 0.243525
-46.625397 -11.240997 -49.298302 0.235206
-33.142090 -11.240997 -49.298302 0.250473
-19.658783 -11.240997 -49.298302 0.308708
-6.175476 -11.240997 -49.298302 0.398016
7.307800 -11.240997 -49.298302 0.533264
20.791107 -11.240997 -49.298302 0.656486
34.274414 -11.240997 -49.298302 0.785975
47.757721 -11.240997 -49.298302 0.767827
61.240997 -11.240997 -49.298302 0.709881
74.724304 -11.240997 -49.298302 0.553696
88.207611 -11.240997 -49.298302 0.396749
101.690918 -11.240997 -49.298302 0.293129
115.174225 -11.240997 -49.298302 0.239026
128.657501 -11.240997 -49.298302 0.226237
142.140808 -11.240997 -49.298302 0.192307
155.624115 -11.240997 -49.298302 0.158000
169.107422 -11.240997 -49.298302 0.109494
182.590698 -11.240997 -49.298302 0.076069
196.074036 -11.240997 -49.298302 0.064895
209.557312 -11.240997 -49.298302 0.053821
223.040588 -11.240997 -49.298302 0.045741
236.523926 -11.240997 -49.298302 0.038213
250.007202 -11.240997 -49.298302 0.029671
263.490540 -11.240997 -49.298302 0.021820
276.973816 -11.240997 -49.298302 0.017896
290.457092 -11.240997 -49.298302 0.015123
303.940430 -11.240997 -49.298302 0.000000
317.423706 -11.240997 -49.298302 0.000000
330.907043 -11.240997 -49.298302 0.000000
344.390320 -11.240997 -49.298302 0.000000
-343.257996 -24.724304 -49.298302 0.000000
-329.774689 -24.724304 -49.298302 0.000000
-316.291382 -24.724304 -49.298302 0.000000
-302.808105 -24.724304 -49.298302 0.085262
-289.324799 -24.724304 -49.298302 0.136274
-275.841492 -24.724304 -49.298302 0.158340
-262.358185 -24.724304 -49.298302 0.247791
-248.874893 -24.724304 -49.298302 0.364777
-235.391602 -24.724304 -49.298302 0.548753
-221.908295 -24.724304 -49.298302 0.784807
-208.424988 -24.724304 -49.298302 0.931113
-194.941696 -24.724304 -49.298302 1.034524
-181.458389 -24.724304 -49.298302 1.035251
-167.975098 -24.724304 -49.298302 0.925753
-154.491791 -24.724304 -49.298302 0.777195
-141.008499 -24.724304 -49.298302 0.594360
-127.525192 -24.724304 -49.298302 0.477545
-114.041885 -24.724304 -49.298302 0.382200
-100.558594 -24.724304 -49.298302 0.337906
-87.075287 -24.724304 -49.298302 0.312726
-73.591980 -24.724304 -49.298302 0.274410
-60.108704 -24.724304 -49.298302 0.275919
-46.625397 -24.724304 -49.298302 0.276301
-33.142090 -24.724304 -49.298302 0.303486
-19.658783 -24.724304 -49.298302 0.379239
-6.175476 -24.724304 -49.298302 0.461112
7.307800 -24.724304 -49.298302 0.639614
20.791107 -24.724304 -49.298302 0.781138
34.274414 -24.724304 -49.298302 0.880681
47.757721 -24.724304 -49.298302 0.820351
61.240997 -24.724304 -49.298302 0.703638
74.724304 -24.724304 -49.298302 0.551474
88.207611 -24.724304 -49.298302 0.402687
101.690918 -24.724304 -49.298302 0.275828
115.174225 -24.724304 -49.298302 0.232548
128.657501 -24.724304 -49.298302 0.222512
142.140808 -24.724304 -49.298302 0.197601
155.624115 -24.724304 -49.298302 0.160655
169.107422 -24.724304 -49.298302 0.118868
182.590698 -24.724304 -49.298302 0.083343
196.074036 -24.724304 -49.298302 0.062174
209.557312 -24.724304 -49.298302 0.051671
223.040588 -24.724304 -49.298302 0.048341
236.523926 -24.724304 -49.298302 0.039939
250.007202 -24.724304 -49.298302 0.031874
263.490540 -24.724304 -49.298302 0.024847
276.973816 -24.724304 -49.298302 0.019298
290.457092 -24.724304 -49.298302 0.015387
303.940430 -24.724304 -49.298302 0.000000
317.423706 -24.724304 -49.298302 0.000000
330.907043 -24.724304 -49.298302 0.000000
344.390320 -24.724304 -49.298302 0.000000
-343.257996 -38.207611 -49.298302 0.000000
-329.774689 -38.207611 -49.298302 0.000000
-316.291382 -38.207611 -49.298302 0.000000
-302.808105 -38.207611 -49.298302 0.094973
-289.324799 -38.207611 -49.298302 0.148827
-275.841492 -38.207611 -49.298302 0.196840
-262.358185 -38.207611 -49.298302 0.298530
-248.874893 -38.207611 -49.298302 0.463054
-235.391602 -38.207611 -49.298302 0.652682
-221.908295 -38.207611 -49.298302 0.780023
-208.424988 -38.207611 -49.298302 0.963246
-194.941696 -38.207611 -49.298302 0.981640
-181.458389 -38.207611 -49.298302 0.957973
-167.975098 -38.207611 -49.298302 0.905050
-154.491791 -38.207611 -49.298302 0.744004
-141.008499 -38.207611 -49.298302 0.589004
-127.525192 -38.207611 -49.298302 0.493921
-114.041885 -38.207611 -49.298302 0.414008
-100.558594 -38.207611 -49.298302 0.383105
-87.075287 -38.207611 -49.298302 0.347436
-73.591980 -38.207611 -49.298302 0.333280
-60.108704 -38.207611 -49.298302 0.361753
-46.625397 -38.207611 -49.298302 0.387299
-33.142090 -38.207611 -49.298302 0.418368
-19.658783 -38.207611 -49.298302 0.501845
-6.175476 -38.207611 -49.298302 0.603560
7.307800 -38.207611 -49.298302 0.750792
20.791107 -38.207611 -49.298302 0.907776
34.274414 -38.207611 -49.298302 0.951689
47.757721 -38.207611 -49.298302 0.796455
61.240997 -38.207611 -49.298302 0.614914
74.724304 -38.207611 -49.298302 0.494367
88.207611 -38.207611 -49.298302 0.360317
101.690918 -38.207611 -49.298302 0.251047
115.174225 -38.207611 -49.298302 0.225452
128.657501 -38.207611 -49.298302 0.221123
142.140808 -38.207611 -49.298302 0.199371
155.624115 -38.207611 -49.298302 0.169893
169.107422 -38.207611 -49.298302 0.130736
182.590698 -38.207611 -49.298302 0.093837
196.074036 -38.207611 -49.298302 0.064479
209.557312 -38.207611 -49.298302 0.050539
223.040588 -38.207611 -49.298302 0.046337
236.523926 -38.207611 -49.298302 0.040713
250.007202 -38.207611 -49.298302 0.034232
263.490540 -38.207611 -49.298302 0.027222
276.973816 -38.207611 -49.298302 0.021775
290.457092 -38.207611 -49.298302 0.017647
303.940430 -38.207611 -49.298302 0.000000
317.423706 -38.207611 -49.298302 0.000000
330.907043 -38.207611 -49.298302 0.000000
344.390320 -38.207611 -49.298302 0.000000
-343.257996 -51.690918 -49.298302 0.000000
-329.774689 -51.690918 -49.298302 0.000000
-316.291382 -51.690918 -49.298302 0.000000
-302.808105 -51.690918 -49.298302 0.000000
-289.324799 -51.690918 -49.298302 0.179027
-275.841492 -51.690918 -49.298302 0.000000
-262.358185 -51.690918 -49.298302 0.000000
-248.874893 -51.690918 -49.298302 0.000000
-235.391602 -51.690918 -49.298302 0.000000
-221.908295 -51.690918 -49.298302 0.000000
-208.424988 -51.690918 -49.298302 0.957806
-194.941696 -51.690918 -49.298302 0.000000
-181.458389 -51.690918 -49.298302 0.962590
-167.975098 -51.690918 -49.298302 0.845694
-154.491791 -51.690918 -49.298302 0.733725
-141.008499 -51.690918 -49.298302 0.599055
-127.525192 -51.690918 -49.298302 0.545201
-114.041885 -51.690918 -49.298302 0.466451
-100.558594 -51.690918 -49.298302 0.437740
-87.075287 -51.690918 -49.298302 0.424800
-73.591980 -51.690918 -49.298302 0.000000
-60.108704 -51.690918 -49.298302 0.471555
-46.625397 -51.690918 -49.298302 0.516763
-33.142090 -51.690918 -49.298302 0.536142
-19.658783 -51.690918 -49.298302 0.612788
-6.175476 -51.690918 -49.298302 0.710538
7.307800 -51.690918 -49.298302 0.810033
20.791107 -51.690918 -49.298302 0.895591
34.274414 -51.690918 -49.298302 0.858541
47.757721 -51.690918 -49.298302 0.703201
61.240997 -51.690918 -49.298302 0.536549
74.724304 -51.690918 -49.298302 0.420815
88.207611 -51.690918 -49.298302 0.294031
101.690918 -51.690918 -49.298302 0.232072
115.174225 -51.690918 -49.298302 0.216104
128.657501 -51.690918 -49.298302 0.199516
142.140808 -51.690918 -49.298302 0.180870
155.624115 -51.690918 -49.298302 0.164000
169.107422 -51.690918 -49.298302 0.139424
182.590698 -51.690918 -49.298302 0.100436
196.074036 -51.690918 -49.298302 0.071797
209.557312 -51.690918 -49.298302 0.056519
223.040588 -51.690918 -49.298302 0.047033
236.523926 -51.690918 -49.298302 0.042676
250.007202 -51.690918 -49.298302 0.035431
263.490540 -51.690918 -49.298302 0.028653
276.973816 -51.690918 -49.298302 0.023842
290.457092 -51.690918 -49.298302 0.020495
303.940430 -51.690918 -49.298302 0.000000
317.423706 -51.690918 -49.298302 0.000000
330.907043 -51.690918 -49.298302 0.000000
344.390320 -51.690918 -49.298302 0.000000
-343.257996 -65.174225 -49.298302 0.000000
-329.774689 -65.174225 -49.298302 0.000000
-316.291382 -65.174225 -49.298302 0.000000
-302.808105 -65.174225 -49.298302 0.000000
-289.324799 -65.174225 -49.298302 0.000000
-275.841492 -65.174225 -49.298302 0.000000
-262.358185 -65.174225 -49.298302 0.000000
-248.874893 -65.174225 -49.298302 0.000000
-235.391602 -65.174225 -49.298302 0.000000
-221.908295 -65.174225 -49.298302 0.812745
-208.424988 -65.174225 -49.298302 0.000000
-194.941696 -65.174225 -49.298302 0.000000
-181.458389 -65.174225 -49.298302 0.863476
-167.975098 -65.174225 -49.298302 0.783040
-154.491791 -65.174225 -49.298302 0.640705
-141.008499 -65.174225 -49.298302 0.627529
-127.525192 -65.174225 -49.298302 0.564328
-114.041885 -65.174225 -49.298302 0.522617
-100.558594 -65.174225 -49.298302 0.502739
-87.075287 -65.174225 -49.298302 0.504032
-73.591980 -65.174225 -49.298302 0.544880
-60.108704 -65.174225 -49.298302 0.584536
-46.625397 -65.174225 -49.298302 0.634872
-33.142090 -65.174225 -49.298302 0.662634
-19.658783 -65.174225 -49.298302 0.708027
-6.175476 -65.174225 -49.298302 0.804408
7.307800 -65.174225 -49.298302 0.840029
20.791107 -65.174225 -49.298302 0.818697
34.274414 -65.174225 -49.298302 0.725146
47.757721 -65.174225 -49.298302 0.591936
61.240997 -65.174225 -49.298302 0.446274
74.724304 -65.174225 -49.298302 0.348436
88.207611 -65.174225 -49.298302 0.241611
101.690918 -65.174225 -49.298302 0.201514
115.174225 -65.174225 -49.298302 0.192254
128.657501 -65.174225 -49.298302 0.183309
142.140808 -65.174225 -49.298302 0.172794
155.624115 -65.174225 -49.298302 0.152835
169.107422 -65.174225 -49.298302 0.132355
182.590698 -65.174225 -49.298302 0.104336
196.074036 -65.174225 -49.298302 0.079147
209.557312 -65.174225 -49.298302 0.065521
223.040588 -65.174225 -49.298302 0.052861
236.523926 -65.174225 -49.298302 0.043634
250.007202 -65.174225 -49.298302 0.035965
263.490540 -65.174225 -49.298302 0.031060
276.973816 -65.174225 -49.298302 0.028650
290.457092 -65.174225 -49.298302 0.023554
303.940430 -65.174225 -49.298302 0.000000
317.423706 -65.174225 -49.298302 0.000000
330.907043 -65.174225 -49.298302 0.000000
344.390320 -65.174225 -49.298302 0.000000
-343.257996 -78.657501 -49.298302 0.000000
-329.774689 -78.657501 -49.298302 0.000000
-316.291382 -78.657501 -49.298302 0.000000
-302.808105 -78.657501 -49.298302 0.000000
-289.324799 -78.657501 -49.298302 0.000000
-275.841492 -78.657501 -49.298302 0.000000
-262.358185 -78.657501 -49.298302 0.000000
-248.874893 -78.657501 -49.298302 0.000000
-235.391602 -78.657501 -49.298302 0.000000
-221.908295 -78.657501 -49.298302 0.000000
-208.424988 -78.657501 -49.298302 0.000000
-194.941696 -78.657501 -49.298302 0.000000
-181.458389 -78.657501 -49.298302 0.000000
-167.975098 -78.657501 -49.298302 0.702814
-154.491791 -78.657501 -49.298302 0.678687
-141.008499 -78.657501 -49.298302 0.634673
-127.525192 -78.657501 -49.298302 0.612331
-114.041885 -78.657501 -49.298302 0.000000
-100.558594 -78.657501 -49.298302 0.000000
-87.075287 -78.657501 -49.298302 0.568071
-73.591980 -78.657501 -49.298302 0.604570
-60.108704 -78.657501 -49.298302 0.670638
-46.625397 -78.657501 -49.298302 0.714360
-33.142090 -78.657501 -49.298302 0.735907
-19.658783 -78.657501 -49.298302 0.773350
-6.175476 -78.657501 -49.298302 0.796543
7.307800 -78.657501 -49.298302 0.780448
20.791107 -78.657501 -49.298302 0.678249
34.274414 -78.657501 -49.298302 0.575249
47.757721 -78.657501 -49.298302 0.450548
61.240997 -78.657501 -49.298302 0.354913
74.724304 -78.657501 -49.298302 0.268793
88.207611 -78.657501 -49.298302 0.205456
101.690918 -78.657501 -49.298302 0.176611
115.174225 -78.657501 -49.298302 0.158070
128.657501 -78.657501 -49.298302 0.162985
142.140808 -78.657501 -49.298302 0.157010
155.624115 -78.657501 -49.298302 0.144132
169.107422 -78.657501 -49.298302 0.127029
182.590698 -78.657501 -49.298302 0.110971
196.074036 -78.657501 -49.298302 0.092454
209.557312 -78.657501 -49.298302 0.073678
223.040588 -78.657501 -49.298302 0.057122
236.523926 -78.657501 -49.298302 0.044656
250.007202 -78.657501 -49.298302 0.037781
263.490540 -78.657501 -49.298302 0.032291
276.973816 -78.657501 -49.298302 0.027590
290.457092 -78.657501 -49.298302 0.026382
303.940430 -78.657501 -49.298302 0.000000
317.423706 -78.657501 -49.298302 0.000000
330.907043 -78.657501 -49.298302 0.000000
344.390320 -78.657501 -49.298302 0.000000
-343.257996 -92.140808 -49.298302 0.000000
-329.774689 -92.140808 -49.298302 0.000000
-316.291382 -92.140808 -49.298302 0.000000
-302.808105 -92.140808 -49.298302 0.000000
-289.324799 -92.140808 -49.298302 0.000000
-275.841492 -92.140808 -49.298302 0.000000
-262.358185 -92.140808 -49.298302 0.000000
-248.874893 -92.140808 -49.298302 0.000000
-235.391602 -92.140808 -49.298302 0.000000
-221.908295 -92.140808 -49.298302 0.000000
-208.424988 -92.140808 -49.298302 0.000000
-194.941696 -92.140808 -49.298302 0.000000
-181.458389 -92.140808 -49.298302 0.000000
-167.975098 -92.140808 -49.298302 0.000000
-154.491791 -92.140808 -49.298302 0.000000
-141.008499 -92.140808 -49.298302 0.000000
-127.525192 -92.140808 -49.298302 0.000000
-114.041885 -92.140808 -49.298302 0.000000
-100.558594 -92.140808 -49.298302 0.000000
-87.075287 -92.140808 -49.298302 0.000000
-73.591980 -92.140808 -49.298302 0.649112
-60.108704 -92.140808 -49.298302 0.696340
-46.625397 -92.140808 -49.298302 0.728965
-33.142090 -92.140808 -49.298302 0.740505
-19.658783 -92.140808 -49.298302 0.739443
-6.175476 -92.140808 -49.298302 0.736505
7.307800 -92.140808 -49.298302 0.687142
20.791107 -92.140808 -49.298302 0.560241
34.274414 -92.140808 -49.298302 0.440870
47.757721 -92.140808 -49.298302 0.356639
61.240997 -92.140808 -49.298302 0.294244
74.724304 -92.140808 -49.298302 0.243855
88.207611 -92.140808 -49.298302 0.179803
101.690918 -92.140808 -49.298302 0.155545
115.174225 -92.140808 -49.298302 0.152286
128.657501 -92.140808 -49.298302 0.152094
142.140808 -92.140808 -49.298302 0.144049
155.624115 -92.140808 -49.298302 0.138333
169.107422 -92.140808 -49.298302 0.129817
182.590698 -92.140808 -49.298302 0.117985
196.074036 -92.140808 -49.298302 0.102271
209.557312 -92.140808 -49.298302 0.083760
223.040588 -92.140808 -49.298302 0.065783
236.523926 -92.140808 -49.298302 0.051881
250.007202 -92.140808 -49.298302 0.041756
263.490540 -92.140808 -49.298302 0.041052
276.973816 -92.140808 -49.298302 0.031233
290.457092 -92.140808 -49.298302 0.030580
303.940430 -92.140808 -49.298302 0.000000
317.423706 -92.140808 -49.298302 0.000000
330.907043 -92.140808 -49.298302 0.000000
344.390320 -92.140808 -49.298302 0.000000
-343.257996 -105.624115 -49.298302 0.000000
-329.774689 -105.624115 -49.298302 0.000000
-316.291382 -105.624115 -49.298302 0.000000
-302.808105 -105.624115 -49.298302 0.000000
-289.324799 -105.624115 -49.298302 0.000000
-275.841492 -105.624115 -49.298302 0.000000
-262.358185 -105.624115 -49.298302 0.000000
-248.874893 -105.624115 -49.298302 0.000000
-235.391602 -105.624115 -49.298302 0.000000
-221.908295 -105.624115 -49.298302 0.000000
-208.424988 -105.624115 -49.298302 0.000000
-194.941696 -105.624115 -49.298302 0.000000
-181.458389 -105.624115 -49.298302 0.000000
-167.975098 -105.624115 -49.298302 0.000000
-154.491791 -105.624115 -49.298302 0.000000
-141.008499 -105.624115 -49.298302 0.684520
-127.525192 -105.624115 -49.298302 0.000000
-114.041885 -105.624115 -49.298302 0.633661
-100.558594 -105.624115 -49.298302 0.000000
-87.075287 -105.624115 -49.298302 0.000000
-73.591980 -105.624115 -49.298302 0.000000
-60.108704 -105.624115 -49.298302 0.000000
-46.625397 -105.624115 -49.298302 0.000000
-33.142090 -105.624115 -49.298302 0.687273
-19.658783 -105.624115 -49.298302 0.691130
-6.175476 -105.624115 -49.298302 0.654367
7.307800 -105.624115 -49.298302 0.579795
20.791107 -105.624115 -49.298302 0.478640
34.274414 -105.624115 -49.298302 0.410314
47.757721 -105.624115 -49.298302 0.309538
61.240997 -105.624115 -49.298302 0.256620
74.724304 -105.624115 -49.298302 0.224778
88.207611 -105.624115 -49.298302 0.181851
101.690918 -105.624115 -49.298302 0.170091
115.174225 -105.624115 -49.298302 0.151570
128.657501 -105.624115 -49.298302 0.149101
142.140808 -105.624115 -49.298302 0.140801
155.624115 -105.624115 -49.298302 0.142494
169.107422 -105.624115 -49.298302 0.135151
182.590698 -105.624115 -49.298302 0.121096
196.074036 -105.624115 -49.298302 0.108493
209.557312 -105.624115 -49.298302 0.096438
223.040588 -105.624115 -49.298302 0.074440
236.523926 -105.624115 -49.298302 0.066881
250.007202 -105.624115 -49.298302 0.050598
263.490540 -105.624115 -49.298302 0.047462
276.973816 -105.624115 -49.298302 0.042539
290.457092 -105.624115 -49.298302 0.037253
303.940430 -105.624115 -49.298302 0.000000
317.423706 -105.624115 -49.298302 0.000000
330.907043 -105.624115 -49.298302 0.000000
344.390320 -105.624115 -49.298302 0.000000
-343.257996 -119.107422 -49.298302 0.000000
-329.774689 -119.107422 -49.298302 0.000000
-316.291382 -119.107422 -49.298302 0.000000
-302.808105 -119.107422 -49.298302 0.000000
-289.324799 -119.107422 -49.298302 0.000000
-275.841492 -119.107422 -49.298302 0.000000
-262.358185 -119.107422 -49.298302 0.000000
-248.874893 -119.107422 -49.298302 0.000000
-235.391602 -119.107422 -49.298302 0.000000
-221.908295 -119.107422 -49.298302 0.000000
-208.424988 -119.107422 -49.298302 0.000000
-194.941696 -119.107422 -49.298302 0.000000
-181.458389 -119.107422 -49.298302 0.000000
-167.975098 -119.107422 -49.298302 0.000000
-154.491791 -119.107422 -49.298302 0.000000
-141.008499 -119.107422 -49.298302 0.000000
-127.525192 -119.107422 -49.298302 0.000000
-114.041885 -119.107422 -49.298302 0.000000
-100.558594 -119.107422 -49.298302 0.000000
-87.075287 -119.107422 -49.298302 0.000000
-73.591980 -119.107422 -49.298302 0.000000
-60.108704 -119.107422 -49.298302 0.000000
-46.625397 -119.107422 -49.298302 0.640457
-33.142090 -119.107422 -49.298302 0.000000
-19.658783 -119.107422 -49.298302 0.650673
-6.175476 -119.107422 -49.298302 0.000000
7.307800 -119.107422 -49.298302 0.000000
20.791107 -119.107422 -49.298302 0.406615
34.274414 -119.107422 -49.298302 0.343390
47.757721 -119.107422 -49.298302 0.291907
61.240997 -119.107422 -49.298302 0.238694
74.724304 -119.107422 -49.298302 0.208747
88.207611 -119.107422 -49.298302 0.185935
101.690918 -119.107422 -49.298302 0.170373
115.174225 -119.107422 -49.298302 0.161175
128.657501 -119.107422 -49.298302 0.161164
142.140808 -119.107422 -49.298302 0.150337
155.624115 -119.107422 -49.298302 0.137630
169.107422 -119.107422 -49.298302 0.136440
182.590698 -119.107422 -49.298302 0.129216
196.074036 -119.107422 -49.298302 0.120562
209.557312 -119.107422 -49.298302 0.104479
223.040588 -119.107422 -49.298302 0.092542
236.523926 -119.107422 -49.298302 0.083181
250.007202 -119.107422 -49.298302 0.066562
263.490540 -119.107422 -49.298302 0.057079
276.973816 -119.107422 -49.298302 0.051445
290.457092 -119.107422 -49.298302 0.047571
303.940430 -119.107422 -49.298302 0.000000
317.423706 -119.107422 -49.298302 0.000000
330.907043 -119.107422 -49.298302 0.000000
344.390320 -119.107422 -49.298302 0.000000
-343.257996 -132.590698 -49.298302 0.000000
-329.774689 -132.590698 -49.298302 0.000000
-316.291382 -132.590698 -49.298302 0.000000
-302.808105 -132.590698 -49.298302 0.000000
-289.324799 -132.590698 -49.298302 0.000000
-275.841492 -132.590698 -49.298302 0.000000
-262.358185 -132.590698 -49.298302 0.000000
-248.874893 -132.590698 -49.298302 0.000000
-235.391602 -132.590698 -49.298302 0.000000
-221.908295 -132.590698 -49.298302 0.000000
-208.424988 -132.590698 -49.298302 0.000000
-194.941696 -132.590698 -49.298302 0.000000
-181.458389 -132.590698 -49.298302 0.000000
-167.975098 -132.590698 -49.298302 0.000000
-154.491791 -132.590698 -49.298302 0.743513
-141.008499 -132.590698 -49.298302 0.000000
-127.525192 -132.590698 -49.298302 0.000000
-114.041885 -132.590698 -49.298302 0.000000
-100.558594 -132.590698 -49.298302 0.000000
-87.075287 -132.590698 -49.298302 0.000000
-73.591980 -132.590698 -49.298302 0.000000
-60.108704 -132.590698 -49.298302 0.000000
-46.625397 -132.590698 -49.298302 0.000000
-33.142090 -132.590698 -49.298302 0.000000
-19.658783 -132.590698 -49.298302 0.000000
-6.175476 -132.590698 -49.298302 0.000000
7.307800 -132.590698 -49.298302 0.000000
20.791107 -132.590698 -49.298302 0.000000
34.274414 -132.590698 -49.298302 0.000000
47.757721 -132.590698 -49.298302 0.000000
61.240997 -132.590698 -49.298302 0.000000
74.724304 -132.590698 -49.298302 0.220085
88.207611 -132.590698 -49.298302 0.198737
101.690918 -132.590698 -49.298302 0.189796
115.174225 -132.590698 -49.298302 0.182515
128.657501 -132.590698 -49.298302 0.183961
142.140808 -132.590698 -49.298302 0.159630
155.624115 -132.590698 -49.298302 0.144744
169.107422 -132.590698 -49.298302 0.137351
182.590698 -132.590698 -49.298302 0.138533
196.074036 -132.590698 -49.298302 0.137663
209.557312 -132.590698 -49.298302 0.120118
223.040588 -132.590698 -49.298302 0.113620
236.523926 -132.590698 -49.298302 0.105807
250.007202 -132.590698 -49.298302 0.087868
263.490540 -132.590698 -49.298302 0.073015
276.973816 -132.590698 -49.298302 0.068031
290.457092 -132.590698 -49.298302 0.078745
303.940430 -132.590698 -49.298302 0.000000
317.423706 -132.590698 -49.298302 0.000000
330.907043 -132.590698 -49.298302 0.000000
344.390320 -132.590698 -49.298302 0.000000
-343.257996 -146.074036 -49.298302 0.000000
-329.774689 -146.074036 -49.298302 0.000000
-316.291382 -146.074036 -49.298302 0.000000
-302.808105 -146.074036 -49.298302 0.000000
-289.324799 -146.074036 -49.298302 0.000000
-275.841492 -146.074036 -49.298302 0.000000
-262.358185 -146.074036 -49.298302 0.000000
-248.874893 -146.074036 -49.298302 0.000000
-235.391602 -146.074036 -49.298302 0.000000
-221.908295 -146.074036 -49.298302 0.000000
-208.424988 -146.074036 -49.298302 0.000000
-194.941696 -146.074036 -49.298302 0.000000
-181.458389 -146.074036 -49.298302 0.000000
-167.975098 -146.074036 -49.298302 0.000000
-154.491791 -146.074036 -49.298302 0.000000
-141.008499 -146.074036 -49.298302 0.000000
-127.525192 -146.074036 -49.298302 0.000000
-114.041885 -146.074036 -49.298302 0.000000
-100.558594 -146.074036 -49.298302 0.000000
-87.075287 -146.074036 -49.298302 0.000000
-73.591980 -146.074036 -49.298302 0.000000
-60.108704 -146.074036 -49.298302 0.000000
-46.625397 -146.074036 -49.298302 0.000000
-33.142090 -146.074036 -49.298302 0.000000
-19.658783 -146.074036 -49.298302 0.000000
-6.175476 -146.074036 -49.298302 0.000000
7.307800 -146.074036 -49.298302 0.000000
20.791107 -146.074036 -49.298302 0.000000
34.274414 -146.074036 -49.298302 0.000000
47.757721 -146.074036 -49.298302 0.000000
61.240997 -146.074036 -49.298302 0.000000
74.724304 -146.074036 -49.298302 0.000000
88.207611 -146.074036 -49.298302 0.000000
101.690918 -146.074036 -49.298302 0.000000
115.174225 -146.074036 -49.298302 0.000000
128.657501 -146.074036 -49.298302 0.000000
142.140808 -146.074036 -49.298302 0.176396
155.624115 -146.074036 -49.298302 0.153237
169.107422 -146.074036 -49.298302 0.146368
182.590698 -146.074036 -49.298302 0.149915
196.074036 -146.074036 -49.298302 0.148952
209.557312 -146.074036 -49.298302 0.133941
223.040588 -146.074036 -49.298302 0.000000
236.523926 -146.074036 -49.298302 0.000000
250.007202 -146.074036 -49.298302 0.112255
263.490540 -146.074036 -49.298302 0.000000
276.973816 -146.074036 -49.298302 0.000000
290.457092 -146.074036 -49.298302 0.000000
303.940430 -146.074036 -49.298302 0.000000
317.423706 -146.074036 -49.298302 0.000000
330.907043 -146.074036 -49.298302 0.000000
344.390320 -146.074036 -49.298302 0.000000
-343.257996 -159.557312 -49.298302 0.000000
-329.774689 -159.557312 -49.298302 0.000000
-316.291382 -159.557312 -49.298302 0.000000
-302.808105 -159.557312 -49.298302 0.000000
-289.324799 -159.557312 -49.298302 0.000000
-275.841492 -159.557312 -49.298302 0.000000
-262.358185 -159.557312 -49.298302 0.000000
-248.874893 -159.557312 -49.298302 0.000000
-235.391602 -159.557312 -49.298302 0.000000
-221.908295 -159.557312 -49.298302 0.000000
-208.424988 -159.557312 -49.298302 0.000000
-194.941696 -159.557312 -49.298302 0.000000
-181.458389 -159.557312 -49.298302 0.000000
-167.975098 -159.557312 -49.298302 0.000000
-154.491791 -159.557312 -49.298302 0.000000
-141.008499 -159.557312 -49.298302 0.000000
-127.525192 -159.557312 -49.298302 0.000000
-114.041885 -159.557312 -49.298302 0.000000
-100.558594 -159.557312 -49.298302 0.000000
-87.075287 -159.557312 -49.298302 0.000000
-73.591980 -159.557312 -49.298302 0.000000
-60.108704 -159.557312 -49.298302 0.000000
-46.625397 -159.557312 -49.298302 0.000000
-33.142090 -159.557312 -49.298302 0.000000
-19.658783 -159.557312 -49.298302 0.000000
-6.175476 -159.557312 -49.298302 0.000000
7.307800 -159.557312 -49.298302 0.000000
20.791107 -159.557312 -49.298302 0.000000
34.274414 -159.557312 -49.298302 0.000000
47.757721 -159.557312 -49.298302 0.000000
61.240997 -159.557312 -49.298302 0.000000
74.724304 -159.557312 -49.298302 0.000000
88.207611 -159.557312 -49.298302 0.000000
101.690918 -159.557312 -49.298302 0.000000
115.174225 -159.557312 -49.298302 0.000000
128.657501 -159.557312 -49.298302 0.000000
142.140808 -159.557312 -49.298302 0.000000
155.624115 -159.557312 -49.298302 0.000000
169.107422 -159.557312 -49.298302 0.000000
182.590698 -159.557312 -49.298302 0.000000
196.074036 -159.557312 -49.298302 0.000000
209.557312 -159.557312 -49.298302 0.000000
223.040588 -159.557312 -49.298302 0.000000
236.523926 -159.557312 -49.298302 0.000000
250.007202 -159.557312 -49.298302 0.000000
263.490540 -159.557312 -49.298302 0.000000
276.973816 -159.557312 -49.298302 0.000000
290.457092 -159.557312 -49.298302 0.000000
303.940430 -159.557312 -49.298302 0.000000
317.423706 -159.557312 -49.298302 0.000000
330.907043 -159.557312 -49.298302 0.000000
344.390320 -159.557312 -49.298302 0.000000
-343.257996 -173.040588 -49.298302 0.000000
-329.774689 -173.040588 -49.298302 0.000000
-316.291382 -173.040588 -49.298302 0.000000
-302.808105 -173.040588 -49.298302 0.000000
-289.324799 -173.040588 -49.298302 0.000000
-275.841492 -173.040588 -49.298302 0.000000
-262.358185 -173.040588 -49.298302 0.000000
-248.874893 -173.040588 -49.298302 0.000000
-235.391602 -173.040588 -49.298302 0.000000
-221.908295 -173.040588 -49.298302 0.000000
-208.424988 -173.040588 -49.298302 0.000000
-194.941696 -173.040588 -49.298302 0.000000
-181.458389 -173.040588 -49.298302 0.000000
-167.975098 -173.040588 -49.298302 0.000000
-154.491791 -173.040588 -49.298302 0.000000
-141.008499 -173.040588 -49.298302 0.000000
-127.525192 -173.040588 -49.298302 0.000000
-114.041885 -173.040588 -49.298302 0.000000
-100.558594 -173.040588 -49.298302 0.000000
-87.075287 -173.040588 -49.298302 0.000000
-73.591980 -173.040588 -49.298302 0.000000
-60.108704 -173.040588 -49.298302 0.000000
-46.625397 -173.040588 -49.298302 0.000000
-33.142090 -173.040588 -49.298302 0.000000
-19.658783 -173.040588 -49.298302 0.000000
-6.175476 -173.040588 -49.298302 0.000000
7.307800 -173.040588 -49.298302 0.000000
20.791107 -173.040588 -49.298302 0.000000
34.274414 -173.040588 -49.298302 0.000000
47.757721 -173.040588 -49.298302 0.000000
61.240997 -173.040588 -49.298302 0.000000
74.724304 -173.040588 -49.298302 0.000000
88.207611 -173.040588 -49.298302 0.000000
101.690918 -173.040588 -49.298302 0.000000
115.174225 -173.040588 -49.298302 0.000000
128.657501 -173.040588 -49.298302 0.000000
142.140808 -173.040588 -49.298302 0.000000
155.624115 -173.040588 -49.298302 0.000000
169.107422 -173.040588 -49.298302 0.000000
182.590698 -173.040588 -49.298302 0.000000
196.074036 -173.040588 -49.298302 0.000000
209.557312 -173.040588 -49.298302 0.000000
223.040588 -173.040588 -49.298302 0.000000
236.523926 -173.040588 -49.298302 0.000000
250.007202 -173.040588 -49.298302 0.000000
263.490540 -173.040588 -49.298302 0.000000
276.973816 -173.040588 -49.298302 0.000000
290.457092 -173.040588 -49.298302 0.000000
303.940430 -173.040588 -49.298302 0.000000
317.423706 -173.040588 -49.298302 0.000000
330.907043 -173.040588 -49.298302 0.000000
344.390320 -173.040588 -49.298302 0.000000
-343.257996 -186.523926 -49.298302 0.000000
-329.774689 -186.523926 -49.298302 0.000000
-316.291382 -186.523926 -49.298302 0.000000
-302.808105 -186.523926 -49.298302 0.000000
-289.324799 -186.523926 -49.298302 0.000000
-275.841492 -186.523926 -49.298302 0.000000
-262.358185 -186.523926 -49.298302 0.000000
-248.874893 -186.523926 -49.298302 0.000000
-235.391602 -186.523926 -49.298302 0.000000
-221.908295 -186.523926 -49.298302 0.000000
-208.424988 -186.523926 -49.298302 0.000000
-194.941696 -186.523926 -49.298302 0.000000
-181.458389 -186.523926 -49.298302 0.000000
-167.975098 -186.523926 -49.298302 0.000000
-154.491791 -186.523926 -49.298302 0.000000
-141.008499 -186.523926 -49.298302 0.000000
-127.525192 -186.523926 -49.298302 0.000000
-114.041885 -186.523926 -49.298302 0.000000
-100.558594 -186.523926 -49.298302 0.000000
-87.075287 -186.523926 -49.298302 0.000000
-73.591980 -186.523926 -49.298302 0.000000
-60.108704 -186.523926 -49.298302 0.000000
-46.625397 -186.523926 -49.298302 0.000000
-33.142090 -186.523926 -49.298302 0.000000
-19.658783 -186.523926 -49.298302 0.000000
-6.175476 -186.523926 -49.298302 0.000000
7.307800 -186.523926 -49.298302 0.000000
20.791107 -186.523926 -49.298302 0.000000
34.274414 -186.523926 -49.298302 0.000000
47.757721 -186.523926 -49.298302 0.000000
61.240997 -186.523926 -49.298302 0.000000
74.724304 -186.523926 -49.298302 0.000000
88.207611 -186.523926 -49.298302 0.000000
101.690918 -186.523926 -49.298302 0.000000
115.174225 -186.523926 -49.298302 0.000000
128.657501 -186.523926 -49.298302 0.000000
142.140808 -186.523926 -49.298302 0.000000
155.624115 -186.523926 -49.298302 0.000000
169.107422 -186.523926 -49.298302 0.000000
182.590698 -186.523926 -49.298302 0.000000
196.074036 -186.523926 -49.298302 0.000000
209.557312 -186.523926 -49.298302 0.000000
223.040588 -186.523926 -49.298302 0.000000
236.523926 -186.523926 -49.298302 0.000000
250.007202 -186.523926 -49.298302 0.000000
263.490540 -186.523926 -49.298302 0.000000
276.973816 -186.523926 -49.298302 0.000000
290.457092 -186.523926 -49.298302 0.000000
303.940430 -186.523926 -49.298302 0.000000
317.423706 -186.523926 -49.298302 0.000000
330.907043 -186.523926 -49.298302 0.000000
344.390320 -186.523926 -49.298302 0.000000
-343.257996 -200.007202 -49.298302 0.000000
-329.774689 -200.007202 -49.298302 0.000000
-316.291382 -200.007202 -49.298302 0.000000
-302.808105 -200.007202 -49.298302 0.000000
-289.324799 -200.007202 -49.298302 0.000000
-275.841492 -200.007202 -49.298302 0.000000
-262.358185 -200.007202 -49.298302 0.000000
-248.874893 -200.007202 -49.298302 0.000000
-235.391602 -200.007202 -49.298302 0.000000
-221.908295 -200.007202 -49.298302 0.000000
-208.424988 -200.007202 -49.298302 0.000000
-194.941696 -200.007202 -49.298302 0.000000
-181.458389 -200.007202 -49.298302 0.000000
-167.975098 -200.007202 -49.298302 0.000000
-154.491791 -200.007202 -49.298302 0.000000
-141.008499 -200.007202 -49.298302 0.000000
-127.525192 -200.007202 -49.298302 0.000000
-114.041885 -200.007202 -49.298302 0.000000
-100.558594 -200.007202 -49.298302 0.000000
-87.075287 -200.007202 -49.298302 0.000000
-73.591980 -200.007202 -49.298302 0.000000
-60.108704 -200.007202 -49.298302 0.000000
-46.625397 -200.007202 -49.298302 0.000000
-33.142090 -200.007202 -49.298302 0.000000
-19.658783 -200.007202 -49.298302 0.000000
-6.175476 -200.007202 -49.298302 0.000000
7.307800 -200.007202 -49.298302 0.000000
20.791107 -200.007202 -49.298302 0.000000
34.274414 -200.007202 -49.298302 0.000000
47.757721 -200.007202 -49.298302 0.000000
61.240997 -200.007202 -49.298302 0.000000
74.724304 -200.007202 -49.298302 0.000000
88.207611 -200.007202 -49.298302 0.000000
101.690918 -200.007202 -49.298302 0.000000
115.174225 -200.007202 -49.298302 0.000000
128.657501 -200.007202 -49.298302 0.000000
142.140808 -200.007202 -49.298302 0.000000
155.624115 -200.007202 -49.298302 0.000000
169.107422 -200.007202 -49.298302 0.000000
182.590698 -200.007202 -49.298302 0.000000
196.074036 -200.007202 -49.298302 0.000000
209.557312 -200.007202 -49.298302 0.000000
223.040588 -200.007202 -49.298302 0.000000
236.523926 -200.007202 -49.298302 0.000000
250.007202 -200.007202 -49.298302 0.000000
263.490540 -200.007202 -49.298302 0.000000
276.973816 -200.007202 -49.298302 0.000000
290.457092 -200.007202 -49.298302 0.000000
303.940430 -200.007202 -49.298302 0.000000
317.423706 -200.007202 -49.298302 0.000000
330.907043 -200.007202 -49.298302 0.000000
344.390320 -200.007202 -49.298302 0.000000
-343.257996 393.257996 -35.815002 0.000000
-329.774689 393.257996 -35.815002 0.000000
-316.291382 393.257996 -35.815002 0.000000
-302.808105 393.257996 -35.815002 0.000000
-289.324799 393.257996 -35.815002 0.000000
-275.841492 393.257996 -35.815002 0.000000
-262.358185 393.257996 -35.815002 0.000000
-248.874893 393.257996 -35.815002 0.000000
-235.391602 393.257996 -35.815002 0.000000
-221.908295 393.257996 -35.815002 0.000000
-208.424988 393.257996 -35.815002 0.000000
-194.941696 393.257996 -35.815002 0.000000
-181.458389 393.257996 -35.815002 0.000000
-167.975098 393.257996 -35.815002 0.000000
-154.491791 393.257996 -35.815002 0.000000
-141.008499 393.257996 -35.815002 0.000000
-127.525192 393.257996 -35.815002 0.000000
-114.041885 393.257996 -35.815002 0.000000
-100.558594 393.257996 -35.815002 0.000000
-87.075287 393.257996 -35.815002 0.000000
-73.591980 393.257996 -35.815002 0.000000
-60.108704 393.257996 -35.815002 0.000000
-46.625397 393.257996 -35.815002 0.000000
-33.142090 393.257996 -35.815002 0.000000
-19.658783 393.257996 -35.815002 0.000000
-6.175476 393.257996 -35.815002 0.000000
7.307800 393.257996 -35.815002 0.000000
20.791107 393.257996 -35.815002 0.000000
34.274414 393.257996 -35.815002 0.000000
47.757721 393.257996 -35.815002 0.000000
61.240997 393.257996 -35.815002 0.000000
74.724304 393.257996 -35.815002 0.000000
88.207611 393.257996 -35.815002 0.000000
101.690918 393.257996 -35.815002 0.000000
115.174225 393.257996 -35.815002 0.000000
128.657501 393.257996 -35.815002 0.000000
142.140808 393.257996 -35.815002 0.000000
155.624115 393.257996 -35.815002 0.000000
169.107422 393.257996 -35.815002 0.000000
182.590698 393.257996 -35.815002 0.000000
196.074036 393.257996 -35.815002 0.000000
209.557312 393.257996 -35.815002 0.000000
223.040588 393.257996 -35.815002 0.000000
236.523926 393.257996 -35.815002 0.000000
250.007202 393.257996 -35.815002 0.000000
263.490540 393.257996 -35.815002 0.000000
276.973816 393.257996 -35.815002 0.000000
290.457092 393.257996 -35.815002 0.000000
303.940430 393.257996 -35.815002 0.000000
317.423706 393.257996 -35.815002 0.000000
330.907043 393.257996 -35.815002 0.000000
344.390320 393.257996 -35.815002 0.000000
-343.257996 379.774689 -35.815002 0.000000
-329.774689 379.774689 -35.815002 0.000000
-316.291382 379.774689 -35.815002 0.000000
-302.808105 379.774689 -35.815002 0.000000
-289.324799 379.774689 -35.815002 0.000000
-275.841492 379.774689 -35.815002 0.000000
-262.358185 379.774689 -35.815002 0.000000
-248.874893 379.774689 -35.815002 0.000000
-235.391602 379.774689 -35.815002 0.000000
-221.908295 379.774689 -35.815002 0.000000
-208.424988 379.774689 -35.815002 0.000000
-194.941696 379.774689 -35.815002 0.000000
-181.458389 379.774689 -35.815002 0.000000
-167.975098 379.774689 -35.815002 0.000000
-154.491791 379.774689 -35.815002 0.000000
-141.008499 379.774689 -35.815002 0.000000
-127.525192 379.774689 -35.815002 0.000000
-114.041885 379.774689 -35.815002 0.000000
-100.558594 379.774689 -35.815002 0.000000
-87.075287 379.774689 -35.815002 0.000000
-73.591980 379.774689 -35.815002 0.000000
-60.108704 379.774689 -35.815002 0.000000
-46.625397 379.774689 -35.815002 0.000000
-33.142090 379.774689 -35.815002 0.000000
-19.658783 379.774689 -35.815002 0.000000
-6.175476 379.774689 -35.815002 0.000000
7.307800 379.774689 -35.815002 0.000000
20.791107 379.774689 -35.815002 0.000000
34.274414 379.774689 -35.815002 0.000000
47.757721 379.774689 -35.815002 0.000000
61.240997 379.774689 -35.815002 0.000000
74.724304 379.774689 -35.815002 0.000000
88.207611 379.774689 -35.815002 0.000000
101.690918 379.774689 -35.815002 0.000000
115.174225 379.774689 -35.815002 0.000000
128.657501 379.774689 -35.815002 0.000000
142.140808 379.774689 -35.815002 0.000000
155.624115 379.774689 -35.815002 0.000000
169.107422 379.774689 -35.815002 0.000000
182.590698 379.774689 -35.815002 0.000000
196.074036 379.774689 -35.815002 0.000000
209.557312 379.774689 -35.815002 0.000000
223.040588 379.774689 -35.815002 0.000000
236.523926 379.774689 -35.815002 0.000000
250.007202 379.774689 -35.815002 0.000000
263.490540 379.774689 -35.815002 0.000000
276.973816 379.774689 -35.815002 0.000000
290.457092 379.774689 -35.815002 0.000000
303.940430 379.774689 -35.815002 0.000000
317.423706 379.774689 -35.815002 0.000000
330.907043 379.774689 -35.815002 0.000000
344.390320 379.774689 -35.815002 0.000000
-343.257996 366.291382 -35.815002 0.000000
-329.774689 366.291382 -35.815002 0.000000
-316.291382 366.291382 -35.815002 0.065182
-302.808105 366.291382 -35.815002 0.000000
-289.324799 366.291382 -35.815002 0.000000
-275.841492 366.291382 -35.815002 0.000000
-262.358185 366.291382 -35.815002 0.000000
-248.874893 366.291382 -35.815002 0.000000
-235.391602 366.291382 -35.815002 0.000000
-221.908295 366.291382 -35.815002 0.000000
-208.424988 366.291382 -35.815002 0.000000
-194.941696 366.291382 -35.815002 0.000000
-181.458389 366.291382 -35.815002 0.000000
-167.975098 366.291382 -35.815002 0.000000
-154.491791 366.291382 -35.815002 0.000000
-141.008499 366.291382 -35.815002 0.000000
-127.525192 366.291382 -35.815002 0.000000
-114.041885 366.291382 -35.815002 0.000000
-100.558594 366.291382 -35.815002 0.000000
-87.075287 366.291382 -35.815002 0.000000
-73.591980 366.291382 -35.815002 0.000000
-60.108704 366.291382 -35.815002 0.000000
-46.625397 366.291382 -35.815002 0.000000
-33.142090 366.291382 -35.815002 0.000000
-19.658783 366.291382 -35.815002 0.000000
-6.175476 366.291382 -35.815002 0.000000
7.307800 366.291382 -35.815002 0.000000
20.791107 366.291382 -35.815002 0.000000
34.274414 366.291382 -35.815002 0.000000
47.757721 366.291382 -35.815002 0.000000
61.240997 366.291382 -35.815002 0.000000
74.724304 366.291382 -35.815002 0.000000
88.207611 366.291382 -35.815002 0.000000
101.690918 366.291382 -35.815002 0.000000
115.174225 366.291382 -35.815002 0.000000
128.657501 366.291382 -35.815002 0.000000
142.140808 366.291382 -35.815002 0.000000
155.624115 366.291382 -35.815002 0.000000
169.107422 366.291382 -35.815002 0.000000
182.590698 366.291382 -35.815002 0.000000
196.074036 366.291382 -35.815002 0.000000
209.557312 366.291382 -35.815002 0.000000
223.040588 366.291382 -35.815002 0.000000
236.523926 366.291382 -35.815002 0.000000
250.007202 366.291382 -35.815002 0.000000
263.490540 366.291382 -35.815002 0.000000
276.973816 366.291382 -35.815002 0.000000
290.457092 366.291382 -35.815002 0.000000
303.940430 366.291382 -35.815002 0.000000
317.423706 366.291382 -35.815002 0.000000
330.907043 366.291382 -35.815002 0.000000
344.390320 366.291382 -35.815002 0.000000
-343.257996 352.808105 -35.815002 0.000000
-329.774689 352.808105 -35.815002 0.000000
-316.291382 352.808105 -35.815002 0.000000
-302.808105 352.808105 -35.815002 0.040122
-289.324799 352.808105 -35.815002 0.041816
-275.841492 352.808105 -35.815002 0.042677
-262.358185 352.808105 -35.815002 0.052638
-248.874893 352.808105 -35.815002 0.055616
-235.391602 352.808105 -35.815002 0.070436
-221.908295 352.808105 -35.815002 0.086550
-208.424988 352.808105 -35.815002 0.115929
-194.941696 352.808105 -35.815002 0.161225
-181.458389 352.808105 -35.815002 0.000000
-167.975098 352.808105 -35.815002 0.000000
-154.491791 352.808105 -35.815002 0.000000
-141.008499 352.808105 -35.815002 0.000000
-127.525192 352.808105 -35.815002 0.000000
-114.041885 352.808105 -35.815002 0.000000
-100.558594 352.808105 -35.815002 0.000000
-87.075287 352.808105 -35.815002 0.000000
-73.591980 352.808105 -35.815002 0.000000
-60.108704 352.808105 -35.815002 0.000000
-46.625397 352.808105 -35.815002 0.000000
-33.142090 352.808105 -35.815002 0.000000
-19.658783 352.808105 -35.815002 0.000000
-6.175476 352.808105 -35.815002 0.000000
7.307800 352.808105 -35.815002 0.000000
20.791107 352.808105 -35.815002 0.000000
34.274414 352.808105 -35.815002 0.212159
47.757721 352.808105 -35.815002 0.204267
61.240997 352.808105 -35.815002 0.191609
74.724304 352.808105 -35.815002 0.000000
88.207611 352.808105 -35.815002 0.000000
101.690918 352.808105 -35.815002 0.000000
115.174225 352.808105 -35.815002 0.000000
128.657501 352.808105 -35.815002 0.000000
142.140808 352.808105 -35.815002 0.000000
155.624115 352.808105 -35.815002 0.000000
169.107422 352.808105 -35.815002 0.000000
182.590698 352.808105 -35.815002 0.000000
196.074036 352.808105 -35.815002 0.000000
209.557312 352.808105 -35.815002 0.000000
223.040588 352.808105 -35.815002 0.000000
236.523926 352.808105 -35.815002 0.000000
250.007202 352.808105 -35.815002 0.000000
263.490540 352.808105 -35.815002 0.000000
276.973816 352.808105 -35.815002 0.000000
290.457092 352.808105 -35.815002 0.000000
303.940430 352.808105 -35.815002 0.000000
317.423706 352.808105 -35.815002 0.000000
330.907043 352.808105 -35.815002 0.000000
344.390320 352.808105 -35.815002 0.000000
-343.257996 339.324799 -35.815002 0.000000
-329.774689 339.324799 -35.815002 0.000000
-316.291382 339.324799 -35.815002 0.035379
-302.808105 339.324799 -35.815002 0.034795
-289.324799 339.324799 -35.815002 0.037197
-275.841492 339.324799 -35.815002 0.039682
-262.358185 339.324799 -35.815002 0.049349
-248.874893 339.324799 -35.815002 0.057572
-235.391602 339.324799 -35.815002 0.074332
-221.908295 339.324799 -35.815002 0.098615
-208.424988 339.324799 -35.815002 0.131825
-194.941696 339.324799 -35.815002 0.176057
-181.458389 339.324799 -35.815002 0.237841
-167.975098 339.324799 -35.815002 0.296579
-154.491791 339.324799 -35.815002 0.364699
-141.008499 339.324799 -35.815002 0.399436
-127.525192 339.324799 -35.815002 0.415762
-114.041885 339.324799 -35.815002 0.425884
-100.558594 339.324799 -35.815002 0.412245
-87.075287 339.324799 -35.815002 0.396670
-73.591980 339.324799 -35.815002 0.375008
-60.108704 339.324799 -35.815002 0.381695
-46.625397 339.324799 -35.815002 0.388444
-33.142090 339.324799 -35.815002 0.368590
-19.658783 339.324799 -35.815002 0.336246
-6.175476 339.324799 -35.815002 0.290956
7.307800 339.324799 -35.815002 0.253377
20.791107 339.324799 -35.815002 0.235734
34.274414 339.324799 -35.815002 0.204573
47.757721 339.324799 -35.815002 0.206190
61.240997 339.324799 -35.815002 0.206855
74.724304 339.324799 -35.815002 0.205456
88.207611 339.324799 -35.815002 0.212501
101.690918 339.324799 -35.815002 0.251279
115.174225 339.324799 -35.815002 0.330616
128.657501 339.324799 -35.815002 0.378367
142.140808 339.324799 -35.815002 0.429457
155.624115 339.324799 -35.815002 0.478314
169.107422 339.324799 -35.815002 0.500560
182.590698 339.324799 -35.815002 0.535359
196.074036 339.324799 -35.815002 0.484177
209.557312 339.324799 -35.815002 0.439528
223.040588 339.324799 -35.815002 0.361234
236.523926 339.324799 -35.815002 0.284812
250.007202 339.324799 -35.815002 0.206045
263.490540 339.324799 -35.815002 0.183236
276.973816 339.324799 -35.815002 0.190989
290.457092 339.324799 -35.815002 0.000000
303.940430 339.324799 -35.815002 0.000000
317.423706 339.324799 -35.815002 0.000000
330.907043 339.324799 -35.815002 0.000000
344.390320 339.324799 -35.815002 0.000000
-343.257996 325.841492 -35.815002 0.000000
-329.774689 325.841492 -35.815002 0.000000
-316.291382 325.841492 -35.815002 0.032253
-302.808105 325.841492 -35.815002 0.033080
-289.324799 325.841492 -35.815002 0.035250
-275.841492 325.841492 -35.815002 0.037807
-262.358185 325.841492 -35.815002 0.043462
-248.874893 325.841492 -35.815002 0.053069
-235.391602 325.841492 -35.815002 0.069277
-221.908295 325.841492 -35.815002 0.094708
-208.424988 325.841492 -35.815002 0.139818
-194.941696 325.841492 -35.815002 0.193797
-181.458389 325.841492 -35.815002 0.268497
-167.975098 325.841492 -35.815002 0.323575
-154.491791 325.841492 -35.815002 0.366701
-141.008499 325.841492 -35.815002 0.386612
-127.525192 325.841492 -35.815002 0.390126
-114.041885 325.841492 -35.815002 0.402254
-100.558594 325.841492 -35.815002 0.376637
-87.075287 325.841492 -35.815002 0.365766
-73.591980 325.841492 -35.815002 0.343467
-60.108704 325.841492 -35.815002 0.330090
-46.625397 325.841492 -35.815002 0.334428
-33.142090 325.841492 -35.815002 0.339240
-19.658783 325.841492 -35.815002 0.331734
-6.175476 325.841492 -35.815002 0.294055
7.307800 325.841492 -35.815002 0.247780
20.791107 325.841492 -35.815002 0.226188
34.274414 325.841492 -35.815002 0.208839
47.757721 325.841492 -35.815002 0.206471
61.240997 325.841492 -35.815002 0.200016
74.724304 325.841492 -35.815002 0.212403
88.207611 325.841492 -35.815002 0.252559
101.690918 325.841492 -35.815002 0.325134
115.174225 325.841492 -35.815002 0.391290
128.657501 325.841492 -35.815002 0.443665
142.140808 325.841492 -35.815002 0.497498
155.624115 325.841492 -35.815002 0.570282
169.107422 325.841492 -35.815002 0.577964
182.590698 325.841492 -35.815002 0.588469
196.074036 325.841492 -35.815002 0.575113
209.557312 325.841492 -35.815002 0.517601
223.040588 325.841492 -35.815002 0.422872
236.523926 325.841492 -35.815002 0.321581
250.007202 325.841492 -35.815002 0.234285
263.490540 325.841492 -35.815002 0.188658
276.973816 325.841492 -35.815002 0.185240
290.457092 325.841492 -35.815002 0.193565
303.940430 325.841492 -35.815002 0.000000
317.423706 325.841492 -35.815002 0.000000
330.907043 325.841492 -35.815002 0.000000
344.390320 325.841492 -35.815002 0.000000
-343.257996 312.358185 -35.815002 0.000000
-329.774689 312.358185 -35.815002 0.000000
-316.291382 312.358185 -35.815002 0.030319
-302.808105 312.358185 -35.815002 0.031167
-289.324799 312.358185 -35.815002 0.031417
-275.841492 312.358185 -35.815002 0.036206
-262.358185 312.358185 -35.815002 0.043517
-248.874893 312.358185 -35.815002 0.053143
-235.391602 312.358185 -35.815002 0.076081
-221.908295 312.358185 -35.815002 0.112733
-208.424988 312.358185 -35.815002 0.161957
-194.941696 312.358185 -35.815002 0.222472
-181.458389 312.358185 -35.815002 0.278036
-167.975098 312.358185 -35.815002 0.343842
-154.491791 312.358185 -35.815002 0.382985
-141.008499 312.358185 -35.815002 0.395694
-127.525192 312.358185 -35.815002 0.412479
-114.041885 312.358185 -35.815002 0.394409
-100.558594 312.358185 -35.815002 0.362523
-87.075287 312.358185 -35.815002 0.349905
-73.591980 312.358185 -35.815002 0.337573
-60.108704 312.358185 -35.815002 0.303654
-46.625397 312.358185 -35.815002 0.302414
-33.142090 312.358185 -35.815002 0.301172
-19.658783 312.358185 -35.815002 0.328635
-6.175476 312.358185 -35.815002 0.300018
7.307800 312.358185 -35.815002 0.255547
20.791107 312.358185 -35.815002 0.222779
34.274414 312.358185 -35.815002 0.211204
47.757721 312.358185 -35.815002 0.207686
61.240997 312.358185 -35.815002 0.214081
74.724304 312.358185 -35.815002 0.242771
88.207611 312.358185 -35.815002 0.297692
101.690918 312.358185 -35.815002 0.377898
115.174225 312.358185 -35.815002 0.469338
128.657501 312.358185 -35.815002 0.470916
142.140808 312.358185 -35.815002 0.543255
155.624115 312.358185 -35.815002 0.542583
169.107422 312.358185 -35.815002 0.566590
182.590698 312.358185 -35.815002 0.589565
196.074036 312.358185 -35.815002 0.604449
209.557312 312.358185 -35.815002 0.557778
223.040588 312.358185 -35.815002 0.468456
236.523926 312.358185 -35.815002 0.358482
250.007202 312.358185 -35.815002 0.254197
263.490540 312.358185 -35.815002 0.195580
276.973816 312.358185 -35.815002 0.163477
290.457092 312.358185 -35.815002 0.175571
303.940430 312.358185 -35.815002 0.000000
317.423706 312.358185 -35.815002 0.000000
330.907043 312.358185 -35.815002 0.000000
344.390320 312.358185 -35.815002 0.000000
-343.257996 298.874878 -35.815002 0.000000
-329.774689 298.874878 -35.815002 0.000000
-316.291382 298.874878 -35.815002 0.028918
-302.808105 298.874878 -35.815002 0.029818
-289.324799 298.874878 -35.815002 0.032737
-275.841492 298.874878 -35.815002 0.037489
-262.358185 298.874878 -35.815002 0.043107
-248.874893 298.874878 -35.815002 0.059647
-235.391602 298.874878 -35.815002 0.090119
-221.908295 298.874878 -35.815002 0.125941
-208.424988 298.874878 -35.815002 0.187987
-194.941696 298.874878 -35.815002 0.251730
-181.458389 298.874878 -35.815002 0.305176
-167.975098 298.874878 -35.815002 0.364952
-154.491791 298.874878 -35.815002 0.401839
-141.008499 298.874878 -35.815002 0.422187
-127.525192 298.874878 -35.815002 0.429279
-114.041885 298.874878 -35.815002 0.410732
-100.558594 298.874878 -35.815002 0.363367
-87.075287 298.874878 -35.815002 0.337517
-73.591980 298.874878 -35.815002 0.325714
-60.108704 298.874878 -35.815002 0.296932
-46.625397 298.874878 -35.815002 0.275842
-33.142090 298.874878 -35.815002 0.276066
-19.658783 298.874878 -35.815002 0.294284
-6.175476 298.874878 -35.815002 0.284113
7.307800 298.874878 -35.815002 0.260326
20.791107 298.874878 -35.815002 0.237033
34.274414 298.874878 -35.815002 0.217710
47.757721 298.874878 -35.815002 0.212843
61.240997 298.874878 -35.815002 0.230672
74.724304 298.874878 -35.815002 0.267921
88.207611 298.874878 -35.815002 0.317766
101.690918 298.874878 -35.815002 0.402054
115.174225 298.874878 -35.815002 0.424189
128.657501 298.874878 -35.815002 0.445776
142.140808 298.874878 -35.815002 0.482672
155.624115 298.874878 -35.815002 0.493684
169.107422 298.874878 -35.815002 0.535457
182.590698 298.874878 -35.815002 0.543885
196.074036 298.874878 -35.815002 0.589208
209.557312 298.874878 -35.815002 0.557499
223.040588 298.874878 -35.815002 0.499282
236.523926 298.874878 -35.815002 0.396600
250.007202 298.874878 -35.815002 0.287954
263.490540 298.874878 -35.815002 0.217818
276.973816 298.874878 -35.815002 0.159091
290.457092 298.874878 -35.815002 0.116414
303.940430 298.874878 -35.815002 0.000000
317.423706 298.874878 -35.815002 0.000000
330.907043 298.874878 -35.815002 0.000000
344.390320 298.874878 -35.815002 0.000000
-343.257996 285.391602 -35.815002 0.000000
-329.774689 285.391602 -35.815002 0.000000
-316.291382 285.391602 -35.815002 0.028038
-302.808105 285.391602 -35.815002 0.032052
-289.324799 285.391602 -35.815002 0.033089
-275.841492 285.391602 -35.815002 0.039894
-262.358185 285.391602 -35.815002 0.050456
-248.874893 285.391602 -35.815002 0.067981
-235.391602 285.391602 -35.815002 0.110088
-221.908295 285.391602 -35.815002 0.155262
-208.424988 285.391602 -35.815002 0.209467
-194.941696 285.391602 -35.815002 0.289315
-181.458389 285.391602 -35.815002 0.330809
-167.975098 285.391602 -35.815002 0.392862
-154.491791 285.391602 -35.815002 0.418182
-141.008499 285.391602 -35.815002 0.426674
-127.525192 285.391602 -35.815002 0.447030
-114.041885 285.391602 -35.815002 0.412059
-100.558594 285.391602 -35.815002 0.372427
-87.075287 285.391602 -35.815002 0.348110
-73.591980 285.391602 -35.815002 0.345963
-60.108704 285.391602 -35.815002 0.316811
-46.625397 285.391602 -35.815002 0.276409
-33.142090 285.391602 -35.815002 0.251775
-19.658783 285.391602 -35.815002 0.260843
-6.175476 285.391602 -35.815002 0.263806
7.307800 285.391602 -35.815002 0.245461
20.791107 285.391602 -35.815002 0.241434
34.274414 285.391602 -35.815002 0.233707
47.757721 285.391602 -35.815002 0.212896
61.240997 285.391602 -35.815002 0.255137
74.724304 285.391602 -35.815002 0.299304
88.207611 285.391602 -35.815002 0.333697
101.690918 285.391602 -35.815002 0.376191
115.174225 285.391602 -35.815002 0.373510
128.657501 285.391602 -35.815002 0.371725
142.140808 285.391602 -35.815002 0.393581
155.624115 285.391602 -35.815002 0.407079
169.107422 285.391602 -35.815002 0.465605
182.590698 285.391602 -35.815002 0.496754
196.074036 285.391602 -35.815002 0.560636
209.557312 285.391602 -35.815002 0.540407
223.040588 285.391602 -35.815002 0.512070
236.523926 285.391602 -35.815002 0.433208
250.007202 285.391602 -35.815002 0.325172
263.490540 285.391602 -35.815002 0.233225
276.973816 285.391602 -35.815002 0.162083
290.457092 285.391602 -35.815002 0.109970
303.940430 285.391602 -35.815002 0.094227
317.423706 285.391602 -35.815002 0.000000
330.907043 285.391602 -35.815002 0.000000
344.390320 285.391602 -35.815002 0.000000
-343.257996 271.908295 -35.815002 0.000000
-329.774689 271.908295 -35.815002 0.000000
-316.291382 271.908295 -35.815002 0.027311
-302.808105 271.908295 -35.815002 0.030315
-289.324799 271.908295 -35.815002 0.035003
-275.841492 271.908295 -35.815002 0.043214
-262.358185 271.908295 -35.815002 0.055333
-248.874893 271.908295 -35.815002 0.080793
-235.391602 271.908295 -35.815002 0.124742
-221.908295 271.908295 -35.815002 0.180757
-208.424988 271.908295 -35.815002 0.246428
-194.941696 271.908295 -35.815002 0.299133
-181.458389 271.908295 -35.815002 0.367199
-167.975098 271.908295 -35.815002 0.419557
-154.491791 271.908295 -35.815002 0.445323
-141.008499 271.908295 -35.815002 0.450614
-127.525192 271.908295 -35.815002 0.460596
-114.041885 271.908295 -35.815002 0.397818
-100.558594 271.908295 -35.815002 0.388170
-87.075287 271.908295 -35.815002 0.404237
-73.591980 271.908295 -35.815002 0.374671
-60.108704 271.908295 -35.815002 0.322393
-46.625397 271.908295 -35.815002 0.268475
-33.142090 271.908295 -35.815002 0.228894
-19.658783 271.908295 -35.815002 0.243837
-6.175476 271.908295 -35.815002 0.256303
7.307800 271.908295 -35.815002 0.259175
20.791107 271.908295 -35.815002 0.242624
34.274414 271.908295 -35.815002 0.219941
47.757721 271.908295 -35.815002 0.227554
61.240997 271.908295 -35.815002 0.272959
74.724304 271.908295 -35.815002 0.286133
88.207611 271.908295 -35.815002 0.305667
101.690918 271.908295 -35.815002 0.318316
115.174225 271.908295 -35.815002 0.313920
128.657501 271.908295 -35.815002 0.307231
142.140808 271.908295 -35.815002 0.329473
155.624115 271.908295 -35.815002 0.348226
169.107422 271.908295 -35.815002 0.379806
182.590698 271.908295 -35.815002 0.454179
196.074036 271.908295 -35.815002 0.512793
209.557312 271.908295 -35.815002 0.530863
223.040588 271.908295 -35.815002 0.516364
236.523926 271.908295 -35.815002 0.421452
250.007202 271.908295 -35.815002 0.326884
263.490540 271.908295 -35.815002 0.245798
276.973816 271.908295 -35.815002 0.153689
290.457092 271.908295 -35.815002 0.098685
303.940430 271.908295 -35.815002 0.075268
317.423706 271.908295 -35.815002 0.000000
330.907043 271.908295 -35.815002 0.000000
344.390320 271.908295 -35.815002 0.000000
-343.257996 258.424988 -35.815002 0.000000
-329.774689 258.424988 -35.815002 0.000000
-316.291382 258.424988 -35.815002 0.027258
-302.808105 258.424988 -35.815002 0.030672
-289.324799 258.424988 -35.815002 0.037455
-275.841492 258.424988 -35.815002 0.046791
-262.358185 258.424988 -35.815002 0.063243
-248.874893 258.424988 -35.815002 0.094414
-235.391602 258.424988 -35.815002 0.139075
-221.908295 258.424988 -35.815002 0.199758
-208.424988 258.424988 -35.815002 0.274922
-194.941696 258.424988 -35.815002 0.328687
-181.458389 258.424988 -35.815002 0.378280
-167.975098 258.424988 -35.815002 0.419086
-154.491791 258.424988 -35.815002 0.453123
-141.008499 258.424988 -35.815002 0.462664
-127.525192 258.424988 -35.815002 0.463999
-114.041885 258.424988 -35.815002 0.420521
-100.558594 258.424988 -35.815002 0.422107
-87.075287 258.424988 -35.815002 0.429065
-73.591980 258.424988 -35.815002 0.371398
-60.108704 258.424988 -35.815002 0.311821
-46.625397 258.424988 -35.815002 0.251256
-33.142090 258.424988 -35.815002 0.219788
-19.658783 258.424988 -35.815002 0.232150
-6.175476 258.424988 -35.815002 0.248930
7.307800 258.424988 -35.815002 0.251824
20.791107 258.424988 -35.815002 0.231268
34.274414 258.424988 -35.815002 0.225375
47.757721 258.424988 -35.815002 0.242204
61.240997 258.424988 -35.815002 0.263237
74.724304 258.424988 -35.815002 0.260872
88.207611 258.424988 -35.815002 0.281926
101.690918 258.424988 -35.815002 0.278439
115.174225 258.424988 -35.815002 0.254863
128.657501 258.424988 -35.815002 0.247100
142.140808 258.424988 -35.815002 0.267754
155.624115 258.424988 -35.815002 0.297869
169.107422 258.424988 -35.815002 0.348548
182.590698 258.424988 -35.815002 0.415116
196.074036 258.424988 -35.815002 0.474729
209.557312 258.424988 -35.815002 0.501239
223.040588 258.424988 -35.815002 0.490673
236.523926 258.424988 -35.815002 0.415307
250.007202 258.424988 -35.815002 0.318488
263.490540 258.424988 -35.815002 0.234193
276.973816 258.424988 -35.815002 0.143488
290.457092 258.424988 -35.815002 0.085520
303.940430 258.424988 -35.815002 0.060524
317.423706 258.424988 -35.815002 0.049681
330.907043 258.424988 -35.815002 0.000000
344.390320 258.424988 -35.815002 0.000000
-343.257996 244.941696 -35.815002 0.000000
-329.774689 244.941696 -35.815002 0.000000
-316.291382 244.941696 -35.815002 0.028428
-302.808105 244.941696 -35.815002 0.033347
-289.324799 244.941696 -35.815002 0.040757
-275.841492 244.941696 -35.815002 0.051939
-262.358185 244.941696 -35.815002 0.074209
-248.874893 244.941696 -35.815002 0.106485
-235.391602 244.941696 -35.815002 0.149654
-221.908295 244.941696 -35.815002 0.224385
-208.424988 244.941696 -35.815002 0.285075
-194.941696 244.941696 -35.815002 0.339066
-181.458389 244.941696 -35.815002 0.381322
-167.975098 244.941696 -35.815002 0.420291
-154.491791 244.941696 -35.815002 0.451158
-141.008499 244.941696 -35.815002 0.453927
-127.525192 244.941696 -35.815002 0.464188
-114.041885 244.941696 -35.815002 0.451844
-100.558594 244.941696 -35.815002 0.456437
-87.075287 244.941696 -35.815002 0.441871
-73.591980 244.941696 -35.815002 0.380345
-60.108704 244.941696 -35.815002 0.291233
-46.625397 244.941696 -35.815002 0.245763
-33.142090 244.941696 -35.815002 0.216537
-19.658783 244.941696 -35.815002 0.216582
-6.175476 244.941696 -35.815002 0.215710
7.307800 244.941696 -35.815002 0.221598
20.791107 244.941696 -35.815002 0.210068
34.274414 244.941696 -35.815002 0.213536
47.757721 244.941696 -35.815002 0.232196
61.240997 244.941696 -35.815002 0.232803
74.724304 244.941696 -35.815002 0.239821
88.207611 244.941696 -35.815002 0.248566
101.690918 244.941696 -35.815002 0.254315
115.174225 244.941696 -35.815002 0.230982
128.657501 244.941696 -35.815002 0.229707
142.140808 244.941696 -35.815002 0.241467
155.624115 244.941696 -35.815002 0.282281
169.107422 244.941696 -35.815002 0.335987
182.590698 244.941696 -35.815002 0.394520
196.074036 244.941696 -35.815002 0.443485
209.557312 244.941696 -35.815002 0.501441
223.040588 244.941696 -35.815002 0.463413
236.523926 244.941696 -35.815002 0.402379
250.007202 244.941696 -35.815002 0.302421
263.490540 244.941696 -35.815002 0.201888
276.973816 244.941696 -35.815002 0.119699
290.457092 244.941696 -35.815002 0.070647
303.940430 244.941696 -35.815002 0.052284
317.423706 244.941696 -35.815002 0.040846
330.907043 244.941696 -35.815002 0.000000
344.390320 244.941696 -35.815002 0.000000
-343.257996 231.458389 -35.815002 0.000000
-329.774689 231.458389 -35.815002 0.000000
-316.291382 231.458389 -35.815002 0.029193
-302.808105 231.458389 -35.815002 0.033769
-289.324799 231.458389 -35.815002 0.043900
-275.841492 231.458389 -35.815002 0.055375
-262.358185 231.458389 -35.815002 0.083283
-248.874893 231.458389 -35.815002 0.120949
-235.391602 231.458389 -35.815002 0.166720
-221.908295 231.458389 -35.815002 0.253661
-208.424988 231.458389 -35.815002 0.306339
-194.941696 231.458389 -35.815002 0.348325
-181.458389 231.458389 -35.815002 0.388753
-167.975098 231.458389 -35.815002 0.413109
-154.491791 231.458389 -35.815002 0.436606
-141.008499 231.458389 -35.815002 0.446139
-127.525192 231.458389 -35.815002 0.452274
-114.041885 231.458389 -35.815002 0.480627
-100.558594 231.458389 -35.815002 0.476953
-87.075287 231.458389 -35.815002 0.440078
-73.591980 231.458389 -35.815002 0.367059
-60.108704 231.458389 -35.815002 0.304084
-46.625397 231.458389 -35.815002 0.250815
-33.142090 231.458389 -35.815002 0.224652
-19.658783 231.458389 -35.815002 0.213142
-6.175476 231.458389 -35.815002 0.207202
7.307800 231.458389 -35.815002 0.213827
20.791107 231.458389 -35.815002 0.199368
34.274414 231.458389 -35.815002 0.212393
47.757721 231.458389 -35.815002 0.215107
61.240997 231.458389 -35.815002 0.224732
74.724304 231.458389 -35.815002 0.208629
88.207611 231.458389 -35.815002 0.226971
101.690918 231.458389 -35.815002 0.219601
115.174225 231.458389 -35.815002 0.207098
128.657501 231.458389 -35.815002 0.219139
142.140808 231.458389 -35.815002 0.245223
155.624115 231.458389 -35.815002 0.274807
169.107422 231.458389 -35.815002 0.350591
182.590698 231.458389 -35.815002 0.414606
196.074036 231.458389 -35.815002 0.454756
209.557312 231.458389 -35.815002 0.479838
223.040588 231.458389 -35.815002 0.461201
236.523926 231.458389 -35.815002 0.386811
250.007202 231.458389 -35.815002 0.297012
263.490540 231.458389 -35.815002 0.186434
276.973816 231.458389 -35.815002 0.102603
290.457092 231.458389 -35.815002 0.061437
303.940430 231.458389 -35.815002 0.044049
317.423706 231.458389 -35.815002 0.032453
330.907043 231.458389 -35.815002 0.000000
344.390320 231.458389 -35.815002 0.000000
-343.257996 217.975098 -35.815002 0.000000
-329.774689 217.975098 -35.815002 0.000000
-316.291382 217.975098 -35.815002 0.028814
-302.808105 217.975098 -35.815002 0.035925
-289.324799 217.975098 -35.815002 0.044480
-275.841492 217.975098 -35.815002 0.059114
-262.358185 217.975098 -35.815002 0.083748
-248.874893 217.975098 -35.815002 0.126527
-235.391602 217.975098 -35.815002 0.171002
-221.908295 217.975098 -35.815002 0.231848
-208.424988 217.975098 -35.815002 0.313850
-194.941696 217.975098 -35.815002 0.364176
-181.458389 217.975098 -35.815002 0.403451
-167.975098 217.975098 -35.815002 0.420028
-154.491791 217.975098 -35.815002 0.430537
-141.008499 217.975098 -35.815002 0.451768
-127.525192 217.975098 -35.815002 0.463748
-114.041885 217.975098 -35.815002 0.499417
-100.558594 217.975098 -35.815002 0.492473
-87.075287 217.975098 -35.815002 0.429865
-73.591980 217.975098 -35.815002 0.353314
-60.108704 217.975098 -35.815002 0.309272
-46.625397 217.975098 -35.815002 0.241784
-33.142090 217.975098 -35.815002 0.206783
-19.658783 217.975098 -35.815002 0.194773
-6.175476 217.975098 -35.815002 0.196756
7.307800 217.975098 -35.815002 0.209940
20.791107 217.975098 -35.815002 0.198970
34.274414 217.975098 -35.815002 0.208781
47.757721 217.975098 -35.815002 0.207223
61.240997 217.975098 -35.815002 0.212556
74.724304 217.975098 -35.815002 0.192259
88.207611 217.975098 -35.815002 0.204070
101.690918 217.975098 -35.815002 0.218428
115.174225 217.975098 -35.815002 0.217221
128.657501 217.975098 -35.815002 0.238826
142.140808 217.975098 -35.815002 0.266173
155.624115 217.975098 -35.815002 0.322349
169.107422 217.975098 -35.815002 0.383203
182.590698 217.975098 -35.815002 0.404617
196.074036 217.975098 -35.815002 0.442927
209.557312 217.975098 -35.815002 0.440142
223.040588 217.975098 -35.815002 0.430874
236.523926 217.975098 -35.815002 0.367302
250.007202 217.975098 -35.815002 0.276200
263.490540 217.975098 -35.815002 0.169137
276.973816 217.975098 -35.815002 0.093018
290.457092 217.975098 -35.815002 0.053816
303.940430 217.975098 -35.815002 0.036175
317.423706 217.975098 -35.815002 0.029757
330.907043 217.975098 -35.815002 0.000000
344.390320 217.975098 -35.815002 0.000000
-343.257996 204.491791 -35.815002 0.000000
-329.774689 204.491791 -35.815002 0.000000
-316.291382 204.491791 -35.815002 0.027516
-302.808105 204.491791 -35.815002 0.034360
-289.324799 204.491791 -35.815002 0.042962
-275.841492 204.491791 -35.815002 0.058263
-262.358185 204.491791 -35.815002 0.086910
-248.874893 204.491791 -35.815002 0.132621
-235.391602 204.491791 -35.815002 0.177797
-221.908295 204.491791 -35.815002 0.244722
-208.424988 204.491791 -35.815002 0.322780
-194.941696 204.491791 -35.815002 0.374606
-181.458389 204.491791 -35.815002 0.414548
-167.975098 204.491791 -35.815002 0.428760
-154.491791 204.491791 -35.815002 0.434175
-141.008499 204.491791 -35.815002 0.486601
-127.525192 204.491791 -35.815002 0.487597
-114.041885 204.491791 -35.815002 0.504388
-100.558594 204.491791 -35.815002 0.486035
-87.075287 204.491791 -35.815002 0.447177
-73.591980 204.491791 -35.815002 0.357344
-60.108704 204.491791 -35.815002 0.276547
-46.625397 204.491791 -35.815002 0.214251
-33.142090 204.491791 -35.815002 0.192342
-19.658783 204.491791 -35.815002 0.189125
-6.175476 204.491791 -35.815002 0.190378
7.307800 204.491791 -35.815002 0.206648
20.791107 204.491791 -35.815002 0.203924
34.274414 204.491791 -35.815002 0.206539
47.757721 204.491791 -35.815002 0.206665
61.240997 204.491791 -35.815002 0.194174
74.724304 204.491791 -35.815002 0.197311
88.207611 204.491791 -35.815002 0.223255
101.690918 204.491791 -35.815002 0.237632
115.174225 204.491791 -35.815002 0.265155
128.657501 204.491791 -35.815002 0.303606
142.140808 204.491791 -35.815002 0.320087
155.624115 204.491791 -35.815002 0.365192
169.107422 204.491791 -35.815002 0.395521
182.590698 204.491791 -35.815002 0.403057
196.074036 204.491791 -35.815002 0.415473
209.557312 204.491791 -35.815002 0.425602
223.040588 204.491791 -35.815002 0.410864
236.523926 204.491791 -35.815002 0.340028
250.007202 204.491791 -35.815002 0.228482
263.490540 204.491791 -35.815002 0.135819
276.973816 204.491791 -35.815002 0.077688
290.457092 204.491791 -35.815002 0.048603
303.940430 204.491791 -35.815002 0.034483
317.423706 204.491791 -35.815002 0.027703
330.907043 204.491791 -35.815002 0.000000
344.390320 204.491791 -35.815002 0.000000
-343.257996 191.008499 -35.815002 0.000000
-329.774689 191.008499 -35.815002 0.000000
-316.291382 191.008499 -35.815002 0.025366
-302.808105 191.008499 -35.815002 0.031276
-289.324799 191.008499 -35.815002 0.038856
-275.841492 191.008499 -35.815002 0.057432
-262.358185 191.008499 -35.815002 0.085809
-248.874893 191.008499 -35.815002 0.121341
-235.391602 191.008499 -35.815002 0.180172
-221.908295 191.008499 -35.815002 0.253373
-208.424988 191.008499 -35.815002 0.318883
-194.941696 191.008499 -35.815002 0.371755
-181.458389 191.008499 -35.815002 0.402641
-167.975098 191.008499 -35.815002 0.424782
-154.491791 191.008499 -35.815002 0.477890
-141.008499 191.008499 -35.815002 0.526293
-127.525192 191.008499 -35.815002 0.550813
-114.041885 191.008499 -35.815002 0.538362
-100.558594 191.008499 -35.815002 0.512630
-87.075287 191.008499 -35.815002 0.434744
-73.591980 191.008499 -35.815002 0.361810
-60.108704 191.008499 -35.815002 0.279473
-46.625397 191.008499 -35.815002 0.223574
-33.142090 191.008499 -35.815002 0.201991
-19.658783 191.008499 -35.815002 0.184031
-6.175476 191.008499 -35.815002 0.189400
7.307800 191.008499 -35.815002 0.195958
20.791107 191.008499 -35.815002 0.200700
34.274414 191.008499 -35.815002 0.202551
47.757721 191.008499 -35.815002 0.213196
61.240997 191.008499 -35.815002 0.207275
74.724304 191.008499 -35.815002 0.219634
88.207611 191.008499 -35.815002 0.259637
101.690918 191.008499 -35.815002 0.281147
115.174225 191.008499 -35.815002 0.320586
128.657501 191.008499 -35.815002 0.356021
142.140808 191.008499 -35.815002 0.403769
155.624115 191.008499 -35.815002 0.411887
169.107422 191.008499 -35.815002 0.412519
182.590698 191.008499 -35.815002 0.408934
196.074036 191.008499 -35.815002 0.396124
209.557312 191.008499 -35.815002 0.406849
223.040588 191.008499 -35.815002 0.345408
236.523926 191.008499 -35.815002 0.255679
250.007202 191.008499 -35.815002 0.173209
263.490540 191.008499 -35.815002 0.113413
276.973816 191.008499 -35.815002 0.068398
290.457092 191.008499 -35.815002 0.044573
303.940430 191.008499 -35.815002 0.030858
317.423706 191.008499 -35.815002 0.025151
330.907043 191.008499 -35.815002 0.000000
344.390320 191.008499 -35.815002 0.000000
-343.257996 177.525192 -35.815002 0.000000
-329.774689 177.525192 -35.815002 0.000000
-316.291382 177.525192 -35.815002 0.025140
-302.808105 177.525192 -35.815002 0.029301
-289.324799 177.525192 -35.815002 0.037964
-275.841492 177.525192 -35.815002 0.055478
-262.358185 177.525192 -35.815002 0.083914
-248.874893 177.525192 -35.815002 0.124596
-235.391602 177.525192 -35.815002 0.189473
-221.908295 177.525192 -35.815002 0.267927
-208.424988 177.525192 -35.815002 0.325568
-194.941696 177.525192 -35.815002 0.373530
-181.458389 177.525192 -35.815002 0.389515
-167.975098 177.525192 -35.815002 0.456502
-154.491791 177.525192 -35.815002 0.495146
-141.008499 177.525192 -35.815002 0.564733
-127.525192 177.525192 -35.815002 0.610772
-114.041885 177.525192 -35.815002 0.578547
-100.558594 177.525192 -35.815002 0.527371
-87.075287 177.525192 -35.815002 0.450506
-73.591980 177.525192 -35.815002 0.360116
-60.108704 177.525192 -35.815002 0.279694
-46.625397 177.525192 -35.815002 0.240056
-33.142090 177.525192 -35.815002 0.212850
-19.658783 177.525192 -35.815002 0.187021
-6.175476 177.525192 -35.815002 0.182531
7.307800 177.525192 -35.815002 0.198647
20.791107 177.525192 -35.815002 0.209832
34.274414 177.525192 -35.815002 0.222453
47.757721 177.525192 -35.815002 0.243450
61.240997 177.525192 -35.815002 0.237898
74.724304 177.525192 -35.815002 0.248023
88.207611 177.525192 -35.815002 0.287766
101.690918 177.525192 -35.815002 0.328031
115.174225 177.525192 -35.815002 0.359057
128.657501 177.525192 -35.815002 0.376973
142.140808 177.525192 -35.815002 0.390363
155.624115 177.525192 -35.815002 0.393761
169.107422 177.525192 -35.815002 0.389279
182.590698 177.525192 -35.815002 0.366119
196.074036 177.525192 -35.815002 0.357999
209.557312 177.525192 -35.815002 0.344084
223.040588 177.525192 -35.815002 0.295665
236.523926 177.525192 -35.815002 0.209295
250.007202 177.525192 -35.815002 0.136734
263.490540 177.525192 -35.815002 0.093832
276.973816 177.525192 -35.815002 0.056972
290.457092 177.525192 -35.815002 0.039703
303.940430 177.525192 -35.815002 0.025879
317.423706 177.525192 -35.815002 0.021838
330.907043 177.525192 -35.815002 0.000000
344.390320 177.525192 -35.815002 0.000000
-343.257996 164.041885 -35.815002 0.000000
-329.774689 164.041885 -35.815002 0.000000
-316.291382 164.041885 -35.815002 0.025000
-302.808105 164.041885 -35.815002 0.030142
-289.324799 164.041885 -35.815002 0.038200
-275.841492 164.041885 -35.815002 0.053934
-262.358185 164.041885 -35.815002 0.083858
-248.874893 164.041885 -35.815002 0.131561
-235.391602 164.041885 -35.815002 0.198090
-221.908295 164.041885 -35.815002 0.274854
-208.424988 164.041885 -35.815002 0.345734
-194.941696 164.041885 -35.815002 0.406545
-181.458389 164.041885 -35.815002 0.455659
-167.975098 164.041885 -35.815002 0.511414
-154.491791 164.041885 -35.815002 0.576326
-141.008499 164.041885 -35.815002 0.671421
-127.525192 164.041885 -35.815002 0.670199
-114.041885 164.041885 -35.815002 0.578718
-100.558594 164.041885 -35.815002 0.528509
-87.075287 164.041885 -35.815002 0.453364
-73.591980 164.041885 -35.815002 0.365905
-60.108704 164.041885 -35.815002 0.276917
-46.625397 164.041885 -35.815002 0.233358
-33.142090 164.041885 -35.815002 0.198753
-19.658783 164.041885 -35.815002 0.180467
-6.175476 164.041885 -35.815002 0.185840
7.307800 164.041885 -35.815002 0.201262
20.791107 164.041885 -35.815002 0.228906
34.274414 164.041885 -35.815002 0.259103
47.757721 164.041885 -35.815002 0.281214
61.240997 164.041885 -35.815002 0.289890
74.724304 164.041885 -35.815002 0.299394
88.207611 164.041885 -35.815002 0.322732
101.690918 164.041885 -35.815002 0.330838
115.174225 164.041885 -35.815002 0.355785
128.657501 164.041885 -35.815002 0.364621
142.140808 164.041885 -35.815002 0.354844
155.624115 164.041885 -35.815002 0.363818
169.107422 164.041885 -35.815002 0.362858
182.590698 164.041885 -35.815002 0.331105
196.074036 164.041885 -35.815002 0.301417
209.557312 164.041885 -35.815002 0.265958
223.040588 164.041885 -35.815002 0.216751
236.523926 164.041885 -35.815002 0.159784
250.007202 164.041885 -35.815002 0.107666
263.490540 164.041885 -35.815002 0.067882
276.973816 164.041885 -35.815002 0.046135
290.457092 164.041885 -35.815002 0.033501
303.940430 164.041885 -35.815002 0.023006
317.423706 164.041885 -35.815002 0.019255
330.907043 164.041885 -35.815002 0.000000
344.390320 164.041885 -35.815002 0.000000
-343.257996 150.558594 -35.815002 0.000000
-329.774689 150.558594 -35.815002 0.000000
-316.291382 150.558594 -35.815002 0.026696
-302.808105 150.558594 -35.815002 0.031472
-289.324799 150.558594 -35.815002 0.040463
-275.841492 150.558594 -35.815002 0.058410
-262.358185 150.558594 -35.815002 0.085619
-248.874893 150.558594 -35.815002 0.136966
-235.391602 150.558594 -35.815002 0.207628
-221.908295 150.558594 -35.815002 0.280313
-208.424988 150.558594 -35.815002 0.363808
-194.941696 150.558594 -35.815002 0.452877
-181.458389 150.558594 -35.815002 0.531446
-167.975098 150.558594 -35.815002 0.611232
-154.491791 150.558594 -35.815002 0.694107
-141.008499 150.558594 -35.815002 0.759737
-127.525192 150.558594 -35.815002 0.746546
-114.041885 150.558594 -35.815002 0.657050
-100.558594 150.558594 -35.815002 0.542438
-87.075287 150.558594 -35.815002 0.446553
-73.591980 150.558594 -35.815002 0.348636
-60.108704 150.558594 -35.815002 0.265330
-46.625397 150.558594 -35.815002 0.227673
-33.142090 150.558594 -35.815002 0.187085
-19.658783 150.558594 -35.815002 0.188465
-6.175476 150.558594 -35.815002 0.198662
7.307800 150.558594 -35.815002 0.229309
20.791107 150.558594 -35.815002 0.256231
34.274414 150.558594 -35.815002 0.292232
47.757721 150.558594 -35.815002 0.327046
61.240997 150.558594 -35.815002 0.357354
74.724304 150.558594 -35.815002 0.363454
88.207611 150.558594 -35.815002 0.366988
101.690918 150.558594 -35.815002 0.344292
115.174225 150.558594 -35.815002 0.352211
128.657501 150.558594 -35.815002 0.340528
142.140808 150.558594 -35.815002 0.324637
155.624115 150.558594 -35.815002 0.311349
169.107422 150.558594 -35.815002 0.298750
182.590698 150.558594 -35.815002 0.271926
196.074036 150.558594 -35.815002 0.239892
209.557312 150.558594 -35.815002 0.200139
223.040588 150.558594 -35.815002 0.154230
236.523926 150.558594 -35.815002 0.108384
250.007202 150.558594 -35.815002 0.073281
263.490540 150.558594 -35.815002 0.051596
276.973816 150.558594 -35.815002 0.037770
290.457092 150.558594 -35.815002 0.026601
303.940430 150.558594 -35.815002 0.020703
317.423706 150.558594 -35.815002 0.015929
330.907043 150.558594 -35.815002 0.000000
344.390320 150.558594 -35.815002 0.000000
-343.257996 137.075287 -35.815002 0.000000
-329.774689 137.075287 -35.815002 0.000000
-316.291382 137.075287 -35.815002 0.029455
-302.808105 137.075287 -35.815002 0.035979
-289.324799 137.075287 -35.815002 0.045574
-275.841492 137.075287 -35.815002 0.064921
-262.358185 137.075287 -35.815002 0.088692
-248.874893 137.075287 -35.815002 0.136033
-235.391602 137.075287 -35.815002 0.198116
-221.908295 137.075287 -35.815002 0.277742
-208.424988 137.075287 -35.815002 0.368445
-194.941696 137.075287 -35.815002 0.493179
-181.458389 137.075287 -35.815002 0.607156
-167.975098 137.075287 -35.815002 0.739394
-154.491791 137.075287 -35.815002 0.831325
-141.008499 137.075287 -35.815002 0.873600
-127.525192 137.075287 -35.815002 0.808415
-114.041885 137.075287 -35.815002 0.695473
-100.558594 137.075287 -35.815002 0.571160
-87.075287 137.075287 -35.815002 0.461581
-73.591980 137.075287 -35.815002 0.331028
-60.108704 137.075287 -35.815002 0.257780
-46.625397 137.075287 -35.815002 0.220185
-33.142090 137.075287 -35.815002 0.201975
-19.658783 137.075287 -35.815002 0.203220
-6.175476 137.075287 -35.815002 0.234013
7.307800 137.075287 -35.815002 0.264078
20.791107 137.075287 -35.815002 0.289641
34.274414 137.075287 -35.815002 0.351382
47.757721 137.075287 -35.815002 0.371893
61.240997 137.075287 -35.815002 0.390379
74.724304 137.075287 -35.815002 0.402234
88.207611 137.075287 -35.815002 0.385125
101.690918 137.075287 -35.815002 0.359497
115.174225 137.075287 -35.815002 0.315521
128.657501 137.075287 -35.815002 0.305194
142.140808 137.075287 -35.815002 0.277081
155.624115 137.075287 -35.815002 0.255823
169.107422 137.075287 -35.815002 0.236234
182.590698 137.075287 -35.815002 0.219885
196.074036 137.075287 -35.815002 0.186983
209.557312 137.075287 -35.815002 0.147320
223.040588 137.075287 -35.815002 0.102365
236.523926 137.075287 -35.815002 0.073673
250.007202 137.075287 -35.815002 0.051738
263.490540 137.075287 -35.815002 0.037732
276.973816 137.075287 -35.815002 0.029873
290.457092 137.075287 -35.815002 0.022323
303.940430 137.075287 -35.815002 0.017203
317.423706 137.075287 -35.815002 0.013561
330.907043 137.075287 -35.815002 0.000000
344.390320 137.075287 -35.815002 0.000000
-343.257996 123.591980 -35.815002 0.000000
-329.774689 123.591980 -35.815002 0.000000
-316.291382 123.591980 -35.815002 0.035128
-302.808105 123.591980 -35.815002 0.040216
-289.324799 123.591980 -35.815002 0.050814
-275.841492 123.591980 -35.815002 0.064992
-262.358185 123.591980 -35.815002 0.091951
-248.874893 123.591980 -35.815002 0.136768
-235.391602 123.591980 -35.815002 0.208258
-221.908295 123.591980 -35.815002 0.284531
-208.424988 123.591980 -35.815002 0.377639
-194.941696 123.591980 -35.815002 0.545500
-181.458389 123.591980 -35.815002 0.762469
-167.975098 123.591980 -35.815002 0.886381
-154.491791 123.591980 -35.815002 0.965113
-141.008499 123.591980 -35.815002 0.932784
-127.525192 123.591980 -35.815002 0.859813
-114.041885 123.591980 -35.815002 0.763140
-100.558594 123.591980 -35.815002 0.613300
-87.075287 123.591980 -35.815002 0.480140
-73.591980 123.591980 -35.815002 0.334887
-60.108704 123.591980 -35.815002 0.260908
-46.625397 123.591980 -35.815002 0.215151
-33.142090 123.591980 -35.815002 0.211188
-19.658783 123.591980 -35.815002 0.224969
-6.175476 123.591980 -35.815002 0.256907
7.307800 123.591980 -35.815002 0.288550
20.791107 123.591980 -35.815002 0.307417
34.274414 123.591980 -35.815002 0.351622
47.757721 123.591980 -35.815002 0.388747
61.240997 123.591980 -35.815002 0.404671
74.724304 123.591980 -35.815002 0.412587
88.207611 123.591980 -35.815002 0.370355
101.690918 123.591980 -35.815002 0.314299
115.174225 123.591980 -35.815002 0.282854
128.657501 123.591980 -35.815002 0.270075
142.140808 123.591980 -35.815002 0.234735
155.624115 123.591980 -35.815002 0.209086
169.107422 123.591980 -35.815002 0.189022
182.590698 123.591980 -35.815002 0.166494
196.074036 123.591980 -35.815002 0.129979
209.557312 123.591980 -35.815002 0.094424
223.040588 123.591980 -35.815002 0.067217
236.523926 123.591980 -35.815002 0.048212
250.007202 123.591980 -35.815002 0.035400
263.490540 123.591980 -35.815002 0.026882
276.973816 123.591980 -35.815002 0.023128
290.457092 123.591980 -35.815002 0.018861
303.940430 123.591980 -35.815002 0.014199
317.423706 123.591980 -35.815002 0.012239
330.907043 123.591980 -35.815002 0.000000
344.390320 123.591980 -35.815002 0.000000
-343.257996 110.108704 -35.815002 0.000000
-329.774689 110.108704 -35.815002 0.000000
-316.291382 110.108704 -35.815002 0.037386
-302.808105 110.108704 -35.815002 0.044565
-289.324799 110.108704 -35.815002 0.055118
-275.841492 110.108704 -35.815002 0.069793
-262.358185 110.108704 -35.815002 0.096981
-248.874893 110.108704 -35.815002 0.145117
-235.391602 110.108704 -35.815002 0.202673
-221.908295 110.108704 -35.815002 0.308120
-208.424988 110.108704 -35.815002 0.407647
-194.941696 110.108704 -35.815002 0.646486
-181.458389 110.108704 -35.815002 0.878474
-167.975098 110.108704 -35.815002 1.035448
-154.491791 110.108704 -35.815002 1.074639
-141.008499 110.108704 -35.815002 1.036752
-127.525192 110.108704 -35.815002 0.899913
-114.041885 110.108704 -35.815002 0.780334
-100.558594 110.108704 -35.815002 0.567295
-87.075287 110.108704 -35.815002 0.433214
-73.591980 110.108704 -35.815002 0.334990
-60.108704 110.108704 -35.815002 0.262217
-46.625397 110.108704 -35.815002 0.227979
-33.142090 110.108704 -35.815002 0.220669
-19.658783 110.108704 -35.815002 0.244159
-6.175476 110.108704 -35.815002 0.276281
7.307800 110.108704 -35.815002 0.307640
20.791107 110.108704 -35.815002 0.331268
34.274414 110.108704 -35.815002 0.349608
47.757721 110.108704 -35.815002 0.376065
61.240997 110.108704 -35.815002 0.390928
74.724304 110.108704 -35.815002 0.350474
88.207611 110.108704 -35.815002 0.314718
101.690918 110.108704 -35.815002 0.289585
115.174225 110.108704 -35.815002 0.248529
128.657501 110.108704 -35.815002 0.221044
142.140808 110.108704 -35.815002 0.202342
155.624115 110.108704 -35.815002 0.174681
169.107422 110.108704 -35.815002 0.146053
182.590698 110.108704 -35.815002 0.117122
196.074036 110.108704 -35.815002 0.086101
209.557312 110.108704 -35.815002 0.059322
223.040588 110.108704 -35.815002 0.046636
236.523926 110.108704 -35.815002 0.034825
250.007202 110.108704 -35.815002 0.026283
263.490540 110.108704 -35.815002 0.021322
276.973816 110.108704 -35.815002 0.018440
290.457092 110.108704 -35.815002 0.015159
303.940430 110.108704 -35.815002 0.011816
317.423706 110.108704 -35.815002 0.010836
330.907043 110.108704 -35.815002 0.000000
344.390320 110.108704 -35.815002 0.000000
-343.257996 96.625397 -35.815002 0.000000
-329.774689 96.625397 -35.815002 0.000000
-316.291382 96.625397 -35.815002 0.041772
-302.808105 96.625397 -35.815002 0.047094
-289.324799 96.625397 -35.815002 0.058975
-275.841492 96.625397 -35.815002 0.075617
-262.358185 96.625397 -35.815002 0.101958
-248.874893 96.625397 -35.815002 0.138652
-235.391602 96.625397 -35.815002 0.200195
-221.908295 96.625397 -35.815002 0.334535
-208.424988 96.625397 -35.815002 0.481598
-194.941696 96.625397 -35.815002 0.726640
-181.458389 96.625397 -35.815002 0.962292
-167.975098 96.625397 -35.815002 1.130554
-154.491791 96.625397 -35.815002 1.187235
-141.008499 96.625397 -35.815002 1.109161
-127.525192 96.625397 -35.815002 0.941749
-114.041885 96.625397 -35.815002 0.722960
-100.558594 96.625397 -35.815002 0.535092
-87.075287 96.625397 -35.815002 0.402600
-73.591980 96.625397 -35.815002 0.315200
-60.108704 96.625397 -35.815002 0.260989
-46.625397 96.625397 -35.815002 0.225488
-33.142090 96.625397 -35.815002 0.216075
-19.658783 96.625397 -35.815002 0.236066
-6.175476 96.625397 -35.815002 0.264064
7.307800 96.625397 -35.815002 0.301425
20.791107 96.625397 -35.815002 0.348979
34.274414 96.625397 -35.815002 0.355785
47.757721 96.625397 -35.815002 0.379423
61.240997 96.625397 -35.815002 0.357142
74.724304 96.625397 -35.815002 0.302299
88.207611 96.625397 -35.815002 0.250516
101.690918 96.625397 -35.815002 0.236516
115.174225 96.625397 -35.815002 0.201971
128.657501 96.625397 -35.815002 0.173527
142.140808 96.625397 -35.815002 0.153574
155.624115 96.625397 -35.815002 0.134345
169.107422 96.625397 -35.815002 0.106596
182.590698 96.625397 -35.815002 0.081817
196.074036 96.625397 -35.815002 0.058630
209.557312 96.625397 -35.815002 0.044534
223.040588 96.625397 -35.815002 0.033539
236.523926 96.625397 -35.815002 0.026759
250.007202 96.625397 -35.815002 0.021892
263.490540 96.625397 -35.815002 0.019134
276.973816 96.625397 -35.815002 0.016537
290.457092 96.625397 -35.815002 0.013163
303.940430 96.625397 -35.815002 0.010647
317.423706 96.625397 -35.815002 0.010124
330.907043 96.625397 -35.815002 0.000000
344.390320 96.625397 -35.815002 0.000000
-343.257996 83.142090 -35.815002 0.000000
-329.774689 83.142090 -35.815002 0.000000
-316.291382 83.142090 -35.815002 0.047608
-302.808105 83.142090 -35.815002 0.052385
-289.324799 83.142090 -35.815002 0.063986
-275.841492 83.142090 -35.815002 0.082166
-262.358185 83.142090 -35.815002 0.106352
-248.874893 83.142090 -35.815002 0.146549
-235.391602 83.142090 -35.815002 0.217671
-221.908295 83.142090 -35.815002 0.345092
-208.424988 83.142090 -35.815002 0.511257
-194.941696 83.142090 -35.815002 0.809699
-181.458389 83.142090 -35.815002 1.089274
-167.975098 83.142090 -35.815002 1.288478
-154.491791 83.142090 -35.815002 1.273790
-141.008499 83.142090 -35.815002 1.101690
-127.525192 83.142090 -35.815002 0.877708
-114.041885 83.142090 -35.815002 0.652695
-100.558594 83.142090 -35.815002 0.484988
-87.075287 83.142090 -35.815002 0.364827
-73.591980 83.142090 -35.815002 0.296160
-60.108704 83.142090 -35.815002 0.246410
-46.625397 83.142090 -35.815002 0.226787
-33.142090 83.142090 -35.815002 0.226273
-19.658783 83.142090 -35.815002 0.224346
-6.175476 83.142090 -35.815002 0.249288
7.307800 83.142090 -35.815002 0.301508
20.791107 83.142090 -35.815002 0.358622
34.274414 83.142090 -35.815002 0.372506
47.757721 83.142090 -35.815002 0.359912
61.240997 83.142090 -35.815002 0.336644
74.724304 83.142090 -35.815002 0.257607
88.207611 83.142090 -35.815002 0.234429
101.690918 83.142090 -35.815002 0.192066
115.174225 83.142090 -35.815002 0.168985
128.657501 83.142090 -35.815002 0.140302
142.140808 83.142090 -35.815002 0.122029
155.624115 83.142090 -35.815002 0.096542
169.107422 83.142090 -35.815002 0.077075
182.590698 83.142090 -35.815002 0.062712
196.074036 83.142090 -35.815002 0.045862
209.557312 83.142090 -35.815002 0.035682
223.040588 83.142090 -35.815002 0.027316
236.523926 83.142090 -35.815002 0.022785
250.007202 83.142090 -35.815002 0.019430
263.490540 83.142090 -35.815002 0.016234
276.973816 83.142090 -35.815002 0.013722
290.457092 83.142090 -35.815002 0.011565
303.940430 83.142090 -35.815002 0.009774
317.423706 83.142090 -35.815002 0.009285
330.907043 83.142090 -35.815002 0.000000
344.390320 83.142090 -35.815002 0.000000
-343.257996 69.658783 -35.815002 0.000000
-329.774689 69.658783 -35.815002 0.000000
-316.291382 69.658783 -35.815002 0.051633
-302.808105 69.658783 -35.815002 0.056844
-289.324799 69.658783 -35.815002 0.066892
-275.841492 69.658783 -35.815002 0.088575
-262.358185 69.658783 -35.815002 0.116260
-248.874893 69.658783 -35.815002 0.163560
-235.391602 69.658783 -35.815002 0.238512
-221.908295 69.658783 -35.815002 0.384969
-208.424988 69.658783 -35.815002 0.610998
-194.941696 69.658783 -35.815002 0.907326
-181.458389 69.658783 -35.815002 1.253722
-167.975098 69.658783 -35.815002 1.365736
-154.491791 69.658783 -35.815002 1.316842
-141.008499 69.658783 -35.815002 1.102022
-127.525192 69.658783 -35.815002 0.852558
-114.041885 69.658783 -35.815002 0.622350
-100.558594 69.658783 -35.815002 0.442684
-87.075287 69.658783 -35.815002 0.364303
-73.591980 69.658783 -35.815002 0.296853
-60.108704 69.658783 -35.815002 0.250966
-46.625397 69.658783 -35.815002 0.236417
-33.142090 69.658783 -35.815002 0.232031
-19.658783 69.658783 -35.815002 0.224776
-6.175476 69.658783 -35.815002 0.252349
7.307800 69.658783 -35.815002 0.315985
20.791107 69.658783 -35.815002 0.359772
34.274414 69.658783 -35.815002 0.389887
47.757721 69.658783 -35.815002 0.390523
61.240997 69.658783 -35.815002 0.354474
74.724304 69.658783 -35.815002 0.273838
88.207611 69.658783 -35.815002 0.230783
101.690918 69.658783 -35.815002 0.188946
115.174225 69.658783 -35.815002 0.150341
128.657501 69.658783 -35.815002 0.118720
142.140808 69.658783 -35.815002 0.099521
155.624115 69.658783 -35.815002 0.080522
169.107422 69.658783 -35.815002 0.062539
182.590698 69.658783 -35.815002 0.049873
196.074036 69.658783 -35.815002 0.038227
209.557312 69.658783 -35.815002 0.032989
223.040588 69.658783 -35.815002 0.026516
236.523926 69.658783 -35.815002 0.021673
250.007202 69.658783 -35.815002 0.017647
263.490540 69.658783 -35.815002 0.014597
276.973816 69.658783 -35.815002 0.012468
290.457092 69.658783 -35.815002 0.010596
303.940430 69.658783 -35.815002 0.009320
317.423706 69.658783 -35.815002 0.009377
330.907043 69.658783 -35.815002 0.000000
344.390320 69.658783 -35.815002 0.000000
-343.257996 56.175476 -35.815002 0.000000
-329.774689 56.175476 -35.815002 0.000000
-316.291382 56.175476 -35.815002 0.055565
-302.808105 56.175476 -35.815002 0.059861
-289.324799 56.175476 -35.815002 0.073672
-275.841492 56.175476 -35.815002 0.094354
-262.358185 56.175476 -35.815002 0.133545
-248.874893 56.175476 -35.815002 0.182583
-235.391602 56.175476 -35.815002 0.288186
-221.908295 56.175476 -35.815002 0.457538
-208.424988 56.175476 -35.815002 0.728663
-194.941696 56.175476 -35.815002 1.046219
-181.458389 56.175476 -35.815002 1.310311
-167.975098 56.175476 -35.815002 1.389814
-154.491791 56.175476 -35.815002 1.261056
-141.008499 56.175476 -35.815002 1.069019
-127.525192 56.175476 -35.815002 0.794940
-114.041885 56.175476 -35.815002 0.527939
-100.558594 56.175476 -35.815002 0.385863
-87.075287 56.175476 -35.815002 0.332876
-73.591980 56.175476 -35.815002 0.273076
-60.108704 56.175476 -35.815002 0.239312
-46.625397 56.175476 -35.815002 0.236730
-33.142090 56.175476 -35.815002 0.233182
-19.658783 56.175476 -35.815002 0.242131
-6.175476 56.175476 -35.815002 0.262165
7.307800 56.175476 -35.815002 0.309541
20.791107 56.175476 -35.815002 0.378173
34.274414 56.175476 -35.815002 0.443859
47.757721 56.175476 -35.815002 0.453048
61.240997 56.175476 -35.815002 0.416970
74.724304 56.175476 -35.815002 0.325150
88.207611 56.175476 -35.815002 0.260139
101.690918 56.175476 -35.815002 0.203546
115.174225 56.175476 -35.815002 0.166486
128.657501 56.175476 -35.815002 0.132299
142.140808 56.175476 -35.815002 0.096780
155.624115 56.175476 -35.815002 0.075116
169.107422 56.175476 -35.815002 0.056088
182.590698 56.175476 -35.815002 0.046319
196.074036 56.175476 -35.815002 0.039980
209.557312 56.175476 -35.815002 0.034409
223.040588 56.175476 -35.815002 0.028689
236.523926 56.175476 -35.815002 0.022778
250.007202 56.175476 -35.815002 0.018254
263.490540 56.175476 -35.815002 0.014399
276.973816 56.175476 -35.815002 0.012102
290.457092 56.175476 -35.815002 0.010783
303.940430 56.175476 -35.815002 0.010227
317.423706 56.175476 -35.815002 0.010119
330.907043 56.175476 -35.815002 0.000000
344.390320 56.175476 -35.815002 0.000000
-343.257996 42.692200 -35.815002 0.000000
-329.774689 42.692200 -35.815002 0.000000
-316.291382 42.692200 -35.815002 0.059542
-302.808105 42.692200 -35.815002 0.063794
-289.324799 42.692200 -35.815002 0.077467
-275.841492 42.692200 -35.815002 0.106378
-262.358185 42.692200 -35.815002 0.150751
-248.874893 42.692200 -35.815002 0.208643
-235.391602 42.692200 -35.815002 0.341865
-221.908295 42.692200 -35.815002 0.565739
-208.424988 42.692200 -35.815002 0.868168
-194.941696 42.692200 -35.815002 1.152689
-181.458389 42.692200 -35.815002 1.347072
-167.975098 42.692200 -35.815002 1.314873
-154.491791 42.692200 -35.815002 1.176684
-141.008499 42.692200 -35.815002 0.979547
-127.525192 42.692200 -35.815002 0.681857
-114.041885 42.692200 -35.815002 0.509659
-100.558594 42.692200 -35.815002 0.395834
-87.075287 42.692200 -35.815002 0.306002
-73.591980 42.692200 -35.815002 0.256386
-60.108704 42.692200 -35.815002 0.231042
-46.625397 42.692200 -35.815002 0.226462
-33.142090 42.692200 -35.815002 0.232828
-19.658783 42.692200 -35.815002 0.234043
-6.175476 42.692200 -35.815002 0.257045
7.307800 42.692200 -35.815002 0.320871
20.791107 42.692200 -35.815002 0.401518
34.274414 42.692200 -35.815002 0.518731
47.757721 42.692200 -35.815002 0.520574
61.240997 42.692200 -35.815002 0.498087
74.724304 42.692200 -35.815002 0.400742
88.207611 42.692200 -35.815002 0.317740
101.690918 42.692200 -35.815002 0.243602
115.174225 42.692200 -35.815002 0.193951
128.657501 42.692200 -35.815002 0.159288
142.140808 42.692200 -35.815002 0.118305
155.624115 42.692200 -35.815002 0.083435
169.107422 42.692200 -35.815002 0.062861
182.590698 42.692200 -35.815002 0.050994
196.074036 42.692200 -35.815002 0.044520
209.557312 42.692200 -35.815002 0.037651
223.040588 42.692200 -35.815002 0.031287
236.523926 42.692200 -35.815002 0.024753
250.007202 42.692200 -35.815002 0.018810
263.490540 42.692200 -35.815002 0.014788
276.973816 42.692200 -35.815002 0.012982
290.457092 42.692200 -35.815002 0.012107
303.940430 42.692200 -35.815002 0.011052
317.423706 42.692200 -35.815002 0.011242
330.907043 42.692200 -35.815002 0.000000
344.390320 42.692200 -35.815002 0.000000
-343.257996 29.208893 -35.815002 0.000000
-329.774689 29.208893 -35.815002 0.000000
-316.291382 29.208893 -35.815002 0.063404
-302.808105 29.208893 -35.815002 0.079115
-289.324799 29.208893 -35.815002 0.086040
-275.841492 29.208893 -35.815002 0.122496
-262.358185 29.208893 -35.815002 0.167319
-248.874893 29.208893 -35.815002 0.245796
-235.391602 29.208893 -35.815002 0.418289
-221.908295 29.208893 -35.815002 0.636449
-208.424988 29.208893 -35.815002 0.935466
-194.941696 29.208893 -35.815002 1.196215
-181.458389 29.208893 -35.815002 1.314825
-167.975098 29.208893 -35.815002 1.223406
-154.491791 29.208893 -35.815002 1.032014
-141.008499 29.208893 -35.815002 0.811250
-127.525192 29.208893 -35.815002 0.587328
-114.041885 29.208893 -35.815002 0.455545
-100.558594 29.208893 -35.815002 0.366818
-87.075287 29.208893 -35.815002 0.285668
-73.591980 29.208893 -35.815002 0.232193
-60.108704 29.208893 -35.815002 0.229619
-46.625397 29.208893 -35.815002 0.226197
-33.142090 29.208893 -35.815002 0.233328
-19.658783 29.208893 -35.815002 0.255161
-6.175476 29.208893 -35.815002 0.278467
7.307800 29.208893 -35.815002 0.354499
20.791107 29.208893 -35.815002 0.456667
34.274414 29.208893 -35.815002 0.580044
47.757721 29.208893 -35.815002 0.594352
61.240997 29.208893 -35.815002 0.568858
74.724304 29.208893 -35.815002 0.453698
88.207611 29.208893 -35.815002 0.354601
101.690918 29.208893 -35.815002 0.276994
115.174225 29.208893 -35.815002 0.226853
128.657501 29.208893 -35.815002 0.191388
142.140808 29.208893 -35.815002 0.156046
155.624115 29.208893 -35.815002 0.105750
169.107422 29.208893 -35.815002 0.072793
182.590698 29.208893 -35.815002 0.058176
196.074036 29.208893 -35.815002 0.050756
209.557312 29.208893 -35.815002 0.043751
223.040588 29.208893 -35.815002 0.034776
236.523926 29.208893 -35.815002 0.026093
250.007202 29.208893 -35.815002 0.020440
263.490540 29.208893 -35.815002 0.015225
276.973816 29.208893 -35.815002 0.013607
290.457092 29.208893 -35.815002 0.013145
303.940430 29.208893 -35.815002 0.012392
317.423706 29.208893 -35.815002 0.012449
330.907043 29.208893 -35.815002 0.000000
344.390320 29.208893 -35.815002 0.000000
-343.257996 15.725586 -35.815002 0.000000
-329.774689 15.725586 -35.815002 0.000000
-316.291382 15.725586 -35.815002 0.073910
-302.808105 15.725586 -35.815002 0.083289
-289.324799 15.725586 -35.815002 0.094599
-275.841492 15.725586 -35.815002 0.133643
-262.358185 15.725586 -35.815002 0.195462
-248.874893 15.725586 -35.815002 0.290207
-235.391602 15.725586 -35.815002 0.462125
-221.908295 15.725586 -35.815002 0.709758
-208.424988 15.725586 -35.815002 0.975535
-194.941696 15.725586 -35.815002 1.153768
-181.458389 15.725586 -35.815002 1.285406
-167.975098 15.725586 -35.815002 1.122474
-154.491791 15.725586 -35.815002 0.905421
-141.008499 15.725586 -35.815002 0.702046
-127.525192 15.725586 -35.815002 0.546166
-114.041885 15.725586 -35.815002 0.426800
-100.558594 15.725586 -35.815002 0.390303
-87.075287 15.725586 -35.815002 0.284127
-73.591980 15.725586 -35.815002 0.232457
-60.108704 15.725586 -35.815002 0.219234
-46.625397 15.725586 -35.815002 0.227766
-33.142090 15.725586 -35.815002 0.236320
-19.658783 15.725586 -35.815002 0.263298
-6.175476 15.725586 -35.815002 0.310529
7.307800 15.725586 -35.815002 0.394885
20.791107 15.725586 -35.815002 0.503780
34.274414 15.725586 -35.815002 0.619896
47.757721 15.725586 -35.815002 0.653677
61.240997 15.725586 -35.815002 0.593761
74.724304 15.725586 -35.815002 0.471466
88.207611 15.725586 -35.815002 0.381495
101.690918 15.725586 -35.815002 0.294941
115.174225 15.725586 -35.815002 0.248508
128.657501 15.725586 -35.815002 0.210330
142.140808 15.725586 -35.815002 0.188667
155.624115 15.725586 -35.815002 0.128145
169.107422 15.725586 -35.815002 0.088938
182.590698 15.725586 -35.815002 0.068470
196.074036 15.725586 -35.815002 0.056954
209.557312 15.725586 -35.815002 0.048084
223.040588 15.725586 -35.815002 0.038789
236.523926 15.725586 -35.815002 0.031157
250.007202 15.725586 -35.815002 0.022877
263.490540 15.725586 -35.815002 0.017281
276.973816 15.725586 -35.815002 0.014285
290.457092 15.725586 -35.815002 0.013593
303.940430 15.725586 -35.815002 0.013042
317.423706 15.725586 -35.815002 0.013183
330.907043 15.725586 -35.815002 0.000000
344.390320 15.725586 -35.815002 0.000000
-343.257996 2.242279 -35.815002 0.000000
-329.774689 2.242279 -35.815002 0.000000
-316.291382 2.242279 -35.815002 0.083881
-302.808105 2.242279 -35.815002 0.091178
-289.324799 2.242279 -35.815002 0.112351
-275.841492 2.242279 -35.815002 0.141707
-262.358185 2.242279 -35.815002 0.216040
-248.874893 2.242279 -35.815002 0.345477
-235.391602 2.242279 -35.815002 0.538463
-221.908295 2.242279 -35.815002 0.761092
-208.424988 2.242279 -35.815002 0.931624
-194.941696 2.242279 -35.815002 1.130826
-181.458389 2.242279 -35.815002 1.203836
-167.975098 2.242279 -35.815002 1.068555
-154.491791 2.242279 -35.815002 0.890656
-141.008499 2.242279 -35.815002 0.664283
-127.525192 2.242279 -35.815002 0.507891
-114.041885 2.242279 -35.815002 0.418524
-100.558594 2.242279 -35.815002 0.364671
-87.075287 2.242279 -35.815002 0.283992
-73.591980 2.242279 -35.815002 0.233306
-60.108704 2.242279 -35.815002 0.228093
-46.625397 2.242279 -35.815002 0.227123
-33.142090 2.242279 -35.815002 0.238011
-19.658783 2.242279 -35.815002 0.274525
-6.175476 2.242279 -35.815002 0.343324
7.307800 2.242279 -35.815002 0.459605
20.791107 2.242279 -35.815002 0.560645
34.274414 2.242279 -35.815002 0.703370
47.757721 2.242279 -35.815002 0.729044
61.240997 2.242279 -35.815002 0.645706
74.724304 2.242279 -35.815002 0.543525
88.207611 2.242279 -35.815002 0.416581
101.690918 2.242279 -35.815002 0.305972
115.174225 2.242279 -35.815002 0.243338
128.657501 2.242279 -35.815002 0.220203
142.140808 2.242279 -35.815002 0.181731
155.624115 2.242279 -35.815002 0.148973
169.107422 2.242279 -35.815002 0.102119
182.590698 2.242279 -35.815002 0.076603
196.074036 2.242279 -35.815002 0.063379
209.557312 2.242279 -35.815002 0.050704
223.040588 2.242279 -35.815002 0.041399
236.523926 2.242279 -35.815002 0.034051
250.007202 2.242279 -35.815002 0.025463
263.490540 2.242279 -35.815002 0.019412
276.973816 2.242279 -35.815002 0.015490
290.457092 2.242279 -35.815002 0.014351
303.940430 2.242279 -35.815002 0.012896
317.423706 2.242279 -35.815002 0.013883
330.907043 2.242279 -35.815002 0.000000
344.390320 2.242279 -35.815002 0.000000
-343.257996 -11.240997 -35.815002 0.000000
-329.774689 -11.240997 -35.815002 0.000000
-316.291382 -11.240997 -35.815002 0.088848
-302.808105 -11.240997 -35.815002 0.095248
-289.324799 -11.240997 -35.815002 0.116561
-275.841492 -11.240997 -35.815002 0.151464
-262.358185 -11.240997 -35.815002 0.225905
-248.874893 -11.240997 -35.815002 0.366369
-235.391602 -11.240997 -35.815002 0.540273
-221.908295 -11.240997 -35.815002 0.751062
-208.424988 -11.240997 -35.815002 0.943985
-194.941696 -11.240997 -35.815002 1.046107
-181.458389 -11.240997 -35.815002 1.048985
-167.975098 -11.240997 -35.815002 0.995274
-154.491791 -11.240997 -35.815002 0.821168
-141.008499 -11.240997 -35.815002 0.648054
-127.525192 -11.240997 -35.815002 0.486101
-114.041885 -11.240997 -35.815002 0.412825
-100.558594 -11.240997 -35.815002 0.335309
-87.075287 -11.240997 -35.815002 0.287642
-73.591980 -11.240997 -35.815002 0.246783
-60.108704 -11.240997 -35.815002 0.241128
-46.625397 -11.240997 -35.815002 0.236077
-33.142090 -11.240997 -35.815002 0.245800
-19.658783 -11.240997 -35.815002 0.303168
-6.175476 -11.240997 -35.815002 0.399091
7.307800 -11.240997 -35.815002 0.524388
20.791107 -11.240997 -35.815002 0.659612
34.274414 -11.240997 -35.815002 0.784520
47.757721 -11.240997 -35.815002 0.763397
61.240997 -11.240997 -35.815002 0.695965
74.724304 -11.240997 -35.815002 0.553341
88.207611 -11.240997 -35.815002 0.395683
101.690918 -11.240997 -35.815002 0.298084
115.174225 -11.240997 -35.815002 0.235780
128.657501 -11.240997 -35.815002 0.220923
142.140808 -11.240997 -35.815002 0.187912
155.624115 -11.240997 -35.815002 0.153120
169.107422 -11.240997 -35.815002 0.110490
182.590698 -11.240997 -35.815002 0.078359
196.074036 -11.240997 -35.815002 0.064504
209.557312 -11.240997 -35.815002 0.053341
223.040588 -11.240997 -35.815002 0.045253
236.523926 -11.240997 -35.815002 0.036432
250.007202 -11.240997 -35.815002 0.028847
263.490540 -11.240997 -35.815002 0.021650
276.973816 -11.240997 -35.815002 0.017283
290.457092 -11.240997 -35.815002 0.014424
303.940430 -11.240997 -35.815002 0.013577
317.423706 -11.240997 -35.815002 0.013005
330.907043 -11.240997 -35.815002 0.000000
344.390320 -11.240997 -35.815002 0.000000
-343.257996 -24.724304 -35.815002 0.000000
-329.774689 -24.724304 -35.815002 0.000000
-316.291382 -24.724304 -35.815002 0.100092
-302.808105 -24.724304 -35.815002 0.103298
-289.324799 -24.724304 -35.815002 0.126407
-275.841492 -24.724304 -35.815002 0.161922
-262.358185 -24.724304 -35.815002 0.249630
-248.874893 -24.724304 -35.815002 0.368090
-235.391602 -24.724304 -35.815002 0.546201
-221.908295 -24.724304 -35.815002 0.763840
-208.424988 -24.724304 -35.815002 0.930663
-194.941696 -24.724304 -35.815002 1.035715
-181.458389 -24.724304 -35.815002 1.019082
-167.975098 -24.724304 -35.815002 0.923913
-154.491791 -24.724304 -35.815002 0.764394
-141.008499 -24.724304 -35.815002 0.606756
-127.525192 -24.724304 -35.815002 0.486164
-114.041885 -24.724304 -35.815002 0.390495
-100.558594 -24.724304 -35.815002 0.341036
-87.075287 -24.724304 -35.815002 0.310841
-73.591980 -24.724304 -35.815002 0.284612
-60.108704 -24.724304 -35.815002 0.269312
-46.625397 -24.724304 -35.815002 0.269789
-33.142090 -24.724304 -35.815002 0.298473
-19.658783 -24.724304 -35.815002 0.376253
-6.175476 -24.724304 -35.815002 0.475812
7.307800 -24.724304 -35.815002 0.643171
20.791107 -24.724304 -35.815002 0.801463
34.274414 -24.724304 -35.815002 0.882311
47.757721 -24.724304 -35.815002 0.828302
61.240997 -24.724304 -35.815002 0.697611
74.724304 -24.724304 -35.815002 0.543324
88.207611 -24.724304 -35.815002 0.401531
101.690918 -24.724304 -35.815002 0.277635
115.174225 -24.724304 -35.815002 0.229565
128.657501 -24.724304 -35.815002 0.218303
142.140808 -24.724304 -35.815002 0.197307
155.624115 -24.724304 -35.815002 0.162259
169.107422 -24.724304 -35.815002 0.118630
182.590698 -24.724304 -35.815002 0.082270
196.074036 -24.724304 -35.815002 0.064130
209.557312 -24.724304 -35.815002 0.050020
223.040588 -24.724304 -35.815002 0.046820
236.523926 -24.724304 -35.815002 0.040147
250.007202 -24.724304 -35.815002 0.030815
263.490540 -24.724304 -35.815002 0.024442
276.973816 -24.724304 -35.815002 0.018421
290.457092 -24.724304 -35.815002 0.014941
303.940430 -24.724304 -35.815002 0.013841
317.423706 -24.724304 -35.815002 0.014503
330.907043 -24.724304 -35.815002 0.000000
344.390320 -24.724304 -35.815002 0.000000
-343.257996 -38.207611 -35.815002 0.000000
-329.774689 -38.207611 -35.815002 0.000000
-316.291382 -38.207611 -35.815002 0.107834
-302.808105 -38.207611 -35.815002 0.115786
-289.324799 -38.207611 -35.815002 0.148908
-275.841492 -38.207611 -35.815002 0.199064
-262.358185 -38.207611 -35.815002 0.303560
-248.874893 -38.207611 -35.815002 0.461899
-235.391602 -38.207611 -35.815002 0.653062
-221.908295 -38.207611 -35.815002 0.796966
-208.424988 -38.207611 -35.815002 0.937973
-194.941696 -38.207611 -35.815002 0.977997
-181.458389 -38.207611 -35.815002 0.951810
-167.975098 -38.207611 -35.815002 0.905197
-154.491791 -38.207611 -35.815002 0.771727
-141.008499 -38.207611 -35.815002 0.597926
-127.525192 -38.207611 -35.815002 0.498006
-114.041885 -38.207611 -35.815002 0.433292
-100.558594 -38.207611 -35.815002 0.378742
-87.075287 -38.207611 -35.815002 0.344704
-73.591980 -38.207611 -35.815002 0.344455
-60.108704 -38.207611 -35.815002 0.362168
-46.625397 -38.207611 -35.815002 0.384132
-33.142090 -38.207611 -35.815002 0.432505
-19.658783 -38.207611 -35.815002 0.503209
-6.175476 -38.207611 -35.815002 0.612489
7.307800 -38.207611 -35.815002 0.766607
20.791107 -38.207611 -35.815002 0.901695
34.274414 -38.207611 -35.815002 0.946880
47.757721 -38.207611 -35.815002 0.810618
61.240997 -38.207611 -35.815002 0.602670
74.724304 -38.207611 -35.815002 0.480825
88.207611 -38.207611 -35.815002 0.350760
101.690918 -38.207611 -35.815002 0.250459
115.174225 -38.207611 -35.815002 0.226992
128.657501 -38.207611 -35.815002 0.218089
142.140808 -38.207611 -35.815002 0.192118
155.624115 -38.207611 -35.815002 0.172915
169.107422 -38.207611 -35.815002 0.131713
182.590698 -38.207611 -35.815002 0.093574
196.074036 -38.207611 -35.815002 0.065022
209.557312 -38.207611 -35.815002 0.051271
223.040588 -38.207611 -35.815002 0.044720
236.523926 -38.207611 -35.815002 0.040110
250.007202 -38.207611 -35.815002 0.033065
263.490540 -38.207611 -35.815002 0.026795
276.973816 -38.207611 -35.815002 0.021476
290.457092 -38.207611 -35.815002 0.016753
303.940430 -38.207611 -35.815002 0.015888
317.423706 -38.207611 -35.815002 0.014993
330.907043 -38.207611 -35.815002 0.000000
344.390320 -38.207611 -35.815002 0.000000
-343.257996 -51.690918 -35.815002 0.000000
-329.774689 -51.690918 -35.815002 0.000000
-316.291382 -51.690918 -35.815002 0.000000
-302.808105 -51.690918 -35.815002 0.161591
-289.324799 -51.690918 -35.815002 0.179888
-275.841492 -51.690918 -35.815002 0.240813
-262.358185 -51.690918 -35.815002 0.341045
-248.874893 -51.690918 -35.815002 0.487581
-235.391602 -51.690918 -35.815002 0.689000
-221.908295 -51.690918 -35.815002 0.798186
-208.424988 -51.690918 -35.815002 0.926001
-194.941696 -51.690918 -35.815002 0.939502
-181.458389 -51.690918 -35.815002 0.954083
-167.975098 -51.690918 -35.815002 0.850924
-154.491791 -51.690918 -35.815002 0.762170
-141.008499 -51.690918 -35.815002 0.597963
-127.525192 -51.690918 -35.815002 0.540071
-114.041885 -51.690918 -35.815002 0.457434
-100.558594 -51.690918 -35.815002 0.446014
-87.075287 -51.690918 -35.815002 0.417646
-73.591980 -51.690918 -35.815002 0.428575
-60.108704 -51.690918 -35.815002 0.475646
-46.625397 -51.690918 -35.815002 0.517571
-33.142090 -51.690918 -35.815002 0.526307
-19.658783 -51.690918 -35.815002 0.637304
-6.175476 -51.690918 -35.815002 0.717799
7.307800 -51.690918 -35.815002 0.827311
20.791107 -51.690918 -35.815002 0.887074
34.274414 -51.690918 -35.815002 0.864893
47.757721 -51.690918 -35.815002 0.683248
61.240997 -51.690918 -35.815002 0.535170
74.724304 -51.690918 -35.815002 0.419974
88.207611 -51.690918 -35.815002 0.291689
101.690918 -51.690918 -35.815002 0.227864
115.174225 -51.690918 -35.815002 0.214205
128.657501 -51.690918 -35.815002 0.204759
142.140808 -51.690918 -35.815002 0.180241
155.624115 -51.690918 -35.815002 0.164244
169.107422 -51.690918 -35.815002 0.135519
182.590698 -51.690918 -35.815002 0.104403
196.074036 -51.690918 -35.815002 0.071766
209.557312 -51.690918 -35.815002 0.055381
223.040588 -51.690918 -35.815002 0.046279
236.523926 -51.690918 -35.815002 0.042533
250.007202 -51.690918 -35.815002 0.034649
263.490540 -51.690918 -35.815002 0.029417
276.973816 -51.690918 -35.815002 0.023225
290.457092 -51.690918 -35.815002 0.019793
303.940430 -51.690918 -35.815002 0.018255
317.423706 -51.690918 -35.815002 0.020832
330.907043 -51.690918 -35.815002 0.000000
344.390320 -51.690918 -35.815002 0.000000
-343.257996 -65.174225 -35.815002 0.000000
-329.774689 -65.174225 -35.815002 0.000000
-316.291382 -65.174225 -35.815002 0.000000
-302.808105 -65.174225 -35.815002 0.000000
-289.324799 -65.174225 -35.815002 0.000000
-275.841492 -65.174225 -35.815002 0.000000
-262.358185 -65.174225 -35.815002 0.000000
-248.874893 -65.174225 -35.815002 0.000000
-235.391602 -65.174225 -35.815002 0.000000
-221.908295 -65.174225 -35.815002 0.810676
-208.424988 -65.174225 -35.815002 0.872774
-194.941696 -65.174225 -35.815002 0.874612
-181.458389 -65.174225 -35.815002 0.858615
-167.975098 -65.174225 -35.815002 0.772665
-154.491791 -65.174225 -35.815002 0.646575
-141.008499 -65.174225 -35.815002 0.630640
-127.525192 -65.174225 -35.815002 0.564006
-114.041885 -65.174225 -35.815002 0.529447
-100.558594 -65.174225 -35.815002 0.507209
-87.075287 -65.174225 -35.815002 0.519878
-73.591980 -65.174225 -35.815002 0.564902
-60.108704 -65.174225 -35.815002 0.600023
-46.625397 -65.174225 -35.815002 0.649240
-33.142090 -65.174225 -35.815002 0.695501
-19.658783 -65.174225 -35.815002 0.703853
-6.175476 -65.174225 -35.815002 0.821377
7.307800 -65.174225 -35.815002 0.853658
20.791107 -65.174225 -35.815002 0.807623
34.274414 -65.174225 -35.815002 0.712507
47.757721 -65.174225 -35.815002 0.574337
61.240997 -65.174225 -35.815002 0.438409
74.724304 -65.174225 -35.815002 0.340270
88.207611 -65.174225 -35.815002 0.234170
101.690918 -65.174225 -35.815002 0.202528
115.174225 -65.174225 -35.815002 0.188415
128.657501 -65.174225 -35.815002 0.180779
142.140808 -65.174225 -35.815002 0.170773
155.624115 -65.174225 -35.815002 0.151384
169.107422 -65.174225 -35.815002 0.128898
182.590698 -65.174225 -35.815002 0.104670
196.074036 -65.174225 -35.815002 0.080151
209.557312 -65.174225 -35.815002 0.063488
223.040588 -65.174225 -35.815002 0.050045
236.523926 -65.174225 -35.815002 0.043396
250.007202 -65.174225 -35.815002 0.036294
263.490540 -65.174225 -35.815002 0.030609
276.973816 -65.174225 -35.815002 0.025418
290.457092 -65.174225 -35.815002 0.022616
303.940430 -65.174225 -35.815002 0.020726
317.423706 -65.174225 -35.815002 0.023249
330.907043 -65.174225 -35.815002 0.000000
344.390320 -65.174225 -35.815002 0.000000
-343.257996 -78.657501 -35.815002 0.000000
-329.774689 -78.657501 -35.815002 0.000000
-316.291382 -78.657501 -35.815002 0.000000
-302.808105 -78.657501 -35.815002 0.000000
-289.324799 -78.657501 -35.815002 0.000000
-275.841492 -78.657501 -35.815002 0.000000
-262.358185 -78.657501 -35.815002 0.000000
-248.874893 -78.657501 -35.815002 0.000000
-235.391602 -78.657501 -35.815002 0.000000
-221.908295 -78.657501 -35.815002 0.000000
-208.424988 -78.657501 -35.815002 0.841953
-194.941696 -78.657501 -35.815002 0.000000
-181.458389 -78.657501 -35.815002 0.000000
-167.975098 -78.657501 -35.815002 0.685782
-154.491791 -78.657501 -35.815002 0.666319
-141.008499 -78.657501 -35.815002 0.629344
-127.525192 -78.657501 -35.815002 0.614684
-114.041885 -78.657501 -35.815002 0.578958
-100.558594 -78.657501 -35.815002 0.566467
-87.075287 -78.657501 -35.815002 0.574223
-73.591980 -78.657501 -35.815002 0.611481
-60.108704 -78.657501 -35.815002 0.662145
-46.625397 -78.657501 -35.815002 0.705551
-33.142090 -78.657501 -35.815002 0.742076
-19.658783 -78.657501 -35.815002 0.765903
-6.175476 -78.657501 -35.815002 0.793688
7.307800 -78.657501 -35.815002 0.784805
20.791107 -78.657501 -35.815002 0.665411
34.274414 -78.657501 -35.815002 0.561349
47.757721 -78.657501 -35.815002 0.441602
61.240997 -78.657501 -35.815002 0.347702
74.724304 -78.657501 -35.815002 0.262481
88.207611 -78.657501 -35.815002 0.205063
101.690918 -78.657501 -35.815002 0.174894
115.174225 -78.657501 -35.815002 0.157686
128.657501 -78.657501 -35.815002 0.160328
142.140808 -78.657501 -35.815002 0.154316
155.624115 -78.657501 -35.815002 0.141022
169.107422 -78.657501 -35.815002 0.123381
182.590698 -78.657501 -35.815002 0.109464
196.074036 -78.657501 -35.815002 0.093144
209.557312 -78.657501 -35.815002 0.070498
223.040588 -78.657501 -35.815002 0.057018
236.523926 -78.657501 -35.815002 0.044618
250.007202 -78.657501 -35.815002 0.037200
263.490540 -78.657501 -35.815002 0.031682
276.973816 -78.657501 -35.815002 0.027141
290.457092 -78.657501 -35.815002 0.025315
303.940430 -78.657501 -35.815002 0.022959
317.423706 -78.657501 -35.815002 0.024036
330.907043 -78.657501 -35.815002 0.000000
344.390320 -78.657501 -35.815002 0.000000
-343.257996 -92.140808 -35.815002 0.000000
-329.774689 -92.140808 -35.815002 0.000000
-316.291382 -92.140808 -35.815002 0.000000
-302.808105 -92.140808 -35.815002 0.000000
-289.324799 -92.140808 -35.815002 0.000000
-275.841492 -92.140808 -35.815002 0.000000
-262.358185 -92.140808 -35.815002 0.000000
-248.874893 -92.140808 -35.815002 0.000000
-235.391602 -92.140808 -35.815002 0.000000
-221.908295 -92.140808 -35.815002 0.000000
-208.424988 -92.140808 -35.815002 0.000000
-194.941696 -92.140808 -35.815002 0.000000
-181.458389 -92.140808 -35.815002 0.764163
-167.975098 -92.140808 -35.815002 0.000000
-154.491791 -92.140808 -35.815002 0.696457
-141.008499 -92.140808 -35.815002 0.656720
-127.525192 -92.140808 -35.815002 0.616817
-114.041885 -92.140808 -35.815002 0.600024
-100.558594 -92.140808 -35.815002 0.576550
-87.075287 -92.140808 -35.815002 0.611428
-73.591980 -92.140808 -35.815002 0.659799
-60.108704 -92.140808 -35.815002 0.699419
-46.625397 -92.140808 -35.815002 0.726783
-33.142090 -92.140808 -35.815002 0.753256
-19.658783 -92.140808 -35.815002 0.725250
-6.175476 -92.140808 -35.815002 0.713678
7.307800 -92.140808 -35.815002 0.685460
20.791107 -92.140808 -35.815002 0.563536
34.274414 -92.140808 -35.815002 0.440983
47.757721 -92.140808 -35.815002 0.366868
61.240997 -92.140808 -35.815002 0.292583
74.724304 -92.140808 -35.815002 0.247365
88.207611 -92.140808 -35.815002 0.181271
101.690918 -92.140808 -35.815002 0.156863
115.174225 -92.140808 -35.815002 0.155282
128.657501 -92.140808 -35.815002 0.150488
142.140808 -92.140808 -35.815002 0.141842
155.624115 -92.140808 -35.815002 0.136935
169.107422 -92.140808 -35.815002 0.127879
182.590698 -92.140808 -35.815002 0.117066
196.074036 -92.140808 -35.815002 0.102841
209.557312 -92.140808 -35.815002 0.082812
223.040588 -92.140808 -35.815002 0.063590
236.523926 -92.140808 -35.815002 0.050602
250.007202 -92.140808 -35.815002 0.040507
263.490540 -92.140808 -35.815002 0.040712
276.973816 -92.140808 -35.815002 0.035241
290.457092 -92.140808 -35.815002 0.029178
303.940430 -92.140808 -35.815002 0.029335
317.423706 -92.140808 -35.815002 0.032872
330.907043 -92.140808 -35.815002 0.000000
344.390320 -92.140808 -35.815002 0.000000
-343.257996 -105.624115 -35.815002 0.000000
-329.774689 -105.624115 -35.815002 0.000000
-316.291382 -105.624115 -35.815002 0.000000
-302.808105 -105.624115 -35.815002 0.000000
-289.324799 -105.624115 -35.815002 0.000000
-275.841492 -105.624115 -35.815002 0.000000
-262.358185 -105.624115 -35.815002 0.000000
-248.874893 -105.624115 -35.815002 0.000000
-235.391602 -105.624115 -35.815002 0.000000
-221.908295 -105.624115 -35.815002 0.000000
-208.424988 -105.624115 -35.815002 0.000000
-194.941696 -105.624115 -35.815002 0.815246
-181.458389 -105.624115 -35.815002 0.000000
-167.975098 -105.624115 -35.815002 0.000000
-154.491791 -105.624115 -35.815002 0.698269
-141.008499 -105.624115 -35.815002 0.656108
-127.525192 -105.624115 -35.815002 0.615639
-114.041885 -105.624115 -35.815002 0.601130
-100.558594 -105.624115 -35.815002 0.595384
-87.075287 -105.624115 -35.815002 0.000000
-73.591980 -105.624115 -35.815002 0.000000
-60.108704 -105.624115 -35.815002 0.000000
-46.625397 -105.624115 -35.815002 0.675383
-33.142090 -105.624115 -35.815002 0.694165
-19.658783 -105.624115 -35.815002 0.684406
-6.175476 -105.624115 -35.815002 0.650203
7.307800 -105.624115 -35.815002 0.567698
20.791107 -105.624115 -35.815002 0.472151
34.274414 -105.624115 -35.815002 0.402269
47.757721 -105.624115 -35.815002 0.302094
61.240997 -105.624115 -35.815002 0.263767
74.724304 -105.624115 -35.815002 0.221756
88.207611 -105.624115 -35.815002 0.181592
101.690918 -105.624115 -35.815002 0.162533
115.174225 -105.624115 -35.815002 0.150045
128.657501 -105.624115 -35.815002 0.146894
142.140808 -105.624115 -35.815002 0.138169
155.624115 -105.624115 -35.815002 0.138709
169.107422 -105.624115 -35.815002 0.135620
182.590698 -105.624115 -35.815002 0.119151
196.074036 -105.624115 -35.815002 0.110538
209.557312 -105.624115 -35.815002 0.096062
223.040588 -105.624115 -35.815002 0.072524
236.523926 -105.624115 -35.815002 0.065030
250.007202 -105.624115 -35.815002 0.051449
263.490540 -105.624115 -35.815002 0.046570
276.973816 -105.624115 -35.815002 0.042749
290.457092 -105.624115 -35.815002 0.036274
303.940430 -105.624115 -35.815002 0.036358
317.423706 -105.624115 -35.815002 0.038861
330.907043 -105.624115 -35.815002 0.000000
344.390320 -105.624115 -35.815002 0.000000
-343.257996 -119.107422 -35.815002 0.000000
-329.774689 -119.107422 -35.815002 0.000000
-316.291382 -119.107422 -35.815002 0.000000
-302.808105 -119.107422 -35.815002 0.000000
-289.324799 -119.107422 -35.815002 0.000000
-275.841492 -119.107422 -35.815002 0.000000
-262.358185 -119.107422 -35.815002 0.000000
-248.874893 -119.107422 -35.815002 0.000000
-235.391602 -119.107422 -35.815002 0.000000
-221.908295 -119.107422 -35.815002 0.000000
-208.424988 -119.107422 -35.815002 0.000000
-194.941696 -119.107422 -35.815002 0.000000
-181.458389 -119.107422 -35.815002 0.000000
-167.975098 -119.107422 -35.815002 0.000000
-154.491791 -119.107422 -35.815002 0.704634
-141.008499 -119.107422 -35.815002 0.642977
-127.525192 -119.107422 -35.815002 0.629209
-114.041885 -119.107422 -35.815002 0.000000
-100.558594 -119.107422 -35.815002 0.597104
-87.075287 -119.107422 -35.815002 0.000000
-73.591980 -119.107422 -35.815002 0.612448
-60.108704 -119.107422 -35.815002 0.000000
-46.625397 -119.107422 -35.815002 0.633725
-33.142090 -119.107422 -35.815002 0.627231
-19.658783 -119.107422 -35.815002 0.646899
-6.175476 -119.107422 -35.815002 0.574722
7.307800 -119.107422 -35.815002 0.504393
20.791107 -119.107422 -35.815002 0.405721
34.274414 -119.107422 -35.815002 0.342670
47.757721 -119.107422 -35.815002 0.299197
61.240997 -119.107422 -35.815002 0.241897
74.724304 -119.107422 -35.815002 0.210394
88.207611 -119.107422 -35.815002 0.184912
101.690918 -119.107422 -35.815002 0.171495
115.174225 -119.107422 -35.815002 0.160088
128.657501 -119.107422 -35.815002 0.157042
142.140808 -119.107422 -35.815002 0.147447
155.624115 -119.107422 -35.815002 0.135420
169.107422 -119.107422 -35.815002 0.135381
182.590698 -119.107422 -35.815002 0.125547
196.074036 -119.107422 -35.815002 0.120115
209.557312 -119.107422 -35.815002 0.107638
223.040588 -119.107422 -35.815002 0.093619
236.523926 -119.107422 -35.815002 0.081455
250.007202 -119.107422 -35.815002 0.066108
263.490540 -119.107422 -35.815002 0.058904
276.973816 -119.107422 -35.815002 0.052262
290.457092 -119.107422 -35.815002 0.048929
303.940430 -119.107422 -35.815002 0.051227
317.423706 -119.107422 -35.815002 0.048022
330.907043 -119.107422 -35.815002 0.000000
344.390320 -119.107422 -35.815002 0.000000
-343.257996 -132.590698 -35.815002 0.000000
-329.774689 -132.590698 -35.815002 0.000000
-316.291382 -132.590698 -35.815002 0.000000
-302.808105 -132.590698 -35.815002 0.000000
-289.324799 -132.590698 -35.815002 0.000000
-275.841492 -132.590698 -35.815002 0.000000
-262.358185 -132.590698 -35.815002 0.000000
-248.874893 -132.590698 -35.815002 0.000000
-235.391602 -132.590698 -35.815002 0.000000
-221.908295 -132.590698 -35.815002 0.000000
-208.424988 -132.590698 -35.815002 0.000000
-194.941696 -132.590698 -35.815002 0.000000
-181.458389 -132.590698 -35.815002 0.872792
-167.975098 -132.590698 -35.815002 0.795921
-154.491791 -132.590698 -35.815002 0.000000
-141.008499 -132.590698 -35.815002 0.657844
-127.525192 -132.590698 -35.815002 0.642120
-114.041885 -132.590698 -35.815002 0.609535
-100.558594 -132.590698 -35.815002 0.613269
-87.075287 -132.590698 -35.815002 0.616217
-73.591980 -132.590698 -35.815002 0.608322
-60.108704 -132.590698 -35.815002 0.000000
-46.625397 -132.590698 -35.815002 0.000000
-33.142090 -132.590698 -35.815002 0.000000
-19.658783 -132.590698 -35.815002 0.618870
-6.175476 -132.590698 -35.815002 0.553863
7.307800 -132.590698 -35.815002 0.479596
20.791107 -132.590698 -35.815002 0.360871
34.274414 -132.590698 -35.815002 0.308235
47.757721 -132.590698 -35.815002 0.284446
61.240997 -132.590698 -35.815002 0.244680
74.724304 -132.590698 -35.815002 0.216394
88.207611 -132.590698 -35.815002 0.201503
101.690918 -132.590698 -35.815002 0.185797
115.174225 -132.590698 -35.815002 0.187045
128.657501 -132.590698 -35.815002 0.182093
142.140808 -132.590698 -35.815002 0.157190
155.624115 -132.590698 -35.815002 0.142271
169.107422 -132.590698 -35.815002 0.138957
182.590698 -132.590698 -35.815002 0.137071
196.074036 -132.590698 -35.815002 0.132386
209.557312 -132.590698 -35.815002 0.125903
223.040588 -132.590698 -35.815002 0.116727
236.523926 -132.590698 -35.815002 0.107932
250.007202 -132.590698 -35.815002 0.085844
263.490540 -132.590698 -35.815002 0.073291
276.973816 -132.590698 -35.815002 0.074290
290.457092 -132.590698 -35.815002 0.077722
303.940430 -132.590698 -35.815002 0.068014
317.423706 -132.590698 -35.815002 0.000000
330.907043 -132.590698 -35.815002 0.000000
344.390320 -132.590698 -35.815002 0.000000
-343.257996 -146.074036 -35.815002 0.000000
-329.774689 -146.074036 -35.815002 0.000000
-316.291382 -146.074036 -35.815002 0.000000
-302.808105 -146.074036 -35.815002 0.000000
-289.324799 -146.074036 -35.815002 0.000000
-275.841492 -146.074036 -35.815002 0.000000
-262.358185 -146.074036 -35.815002 0.000000
-248.874893 -146.074036 -35.815002 0.000000
-235.391602 -146.074036 -35.815002 0.000000
-221.908295 -146.074036 -35.815002 0.000000
-208.424988 -146.074036 -35.815002 0.000000
-194.941696 -146.074036 -35.815002 0.000000
-181.458389 -146.074036 -35.815002 0.000000
-167.975098 -146.074036 -35.815002 0.000000
-154.491791 -146.074036 -35.815002 0.000000
-141.008499 -146.074036 -35.815002 0.000000
-127.525192 -146.074036 -35.815002 0.000000
-114.041885 -146.074036 -35.815002 0.000000
-100.558594 -146.074036 -35.815002 0.000000
-87.075287 -146.074036 -35.815002 0.000000
-73.591980 -146.074036 -35.815002 0.000000
-60.108704 -146.074036 -35.815002 0.000000
-46.625397 -146.074036 -35.815002 0.000000
-33.142090 -146.074036 -35.815002 0.000000
-19.658783 -146.074036 -35.815002 0.000000
-6.175476 -146.074036 -35.815002 0.000000
7.307800 -146.074036 -35.815002 0.000000
20.791107 -146.074036 -35.815002 0.000000
34.274414 -146.074036 -35.815002 0.000000
47.757721 -146.074036 -35.815002 0.000000
61.240997 -146.074036 -35.815002 0.000000
74.724304 -146.074036 -35.815002 0.000000
88.207611 -146.074036 -35.815002 0.000000
101.690918 -146.074036 -35.815002 0.000000
115.174225 -146.074036 -35.815002 0.000000
128.657501 -146.074036 -35.815002 0.188006
142.140808 -146.074036 -35.815002 0.169288
155.624115 -146.074036 -35.815002 0.153211
169.107422 -146.074036 -35.815002 0.149183
182.590698 -146.074036 -35.815002 0.150518
196.074036 -146.074036 -35.815002 0.148435
209.557312 -146.074036 -35.815002 0.143667
223.040588 -146.074036 -35.815002 0.141605
236.523926 -146.074036 -35.815002 0.127056
250.007202 -146.074036 -35.815002 0.113490
263.490540 -146.074036 -35.815002 0.109559
276.973816 -146.074036 -35.815002 0.000000
290.457092 -146.074036 -35.815002 0.000000
303.940430 -146.074036 -35.815002 0.000000
317.423706 -146.074036 -35.815002 0.000000
330.907043 -146.074036 -35.815002 0.000000
344.390320 -146.074036 -35.815002 0.000000
-343.257996 -159.557312 -35.815002 0.000000
-329.774689 -159.557312 -35.815002 0.000000
-316.291382 -159.557312 -35.815002 0.000000
-302.808105 -159.557312 -35.815002 0.000000
-289.324799 -159.557312 -35.815002 0.000000
-275.841492 -159.557312 -35.815002 0.000000
-262.358185 -159.557312 -35.815002 0.000000
-248.874893 -159.557312 -35.815002 0.000000
-235.391602 -159.557312 -35.815002 0.000000
-221.908295 -159.557312 -35.815002 0.000000
-208.424988 -159.557312 -35.815002 0.000000
-194.941696 -159.557312 -35.815002 0.000000
-181.458389 -159.557312 -35.815002 0.000000
-167.975098 -159.557312 -35.815002 0.000000
-154.491791 -159.557312 -35.815002 0.000000
-141.008499 -159.557312 -35.815002 0.000000
-127.525192 -159.557312 -35.815002 0.000000
-114.041885 -159.557312 -35.815002 0.000000
-100.558594 -159.557312 -35.815002 0.000000
-87.075287 -159.557312 -35.815002 0.000000
-73.591980 -159.557312 -35.815002 0.000000
-60.108704 -159.557312 -35.815002 0.000000
-46.625397 -159.557312 -35.815002 0.000000
-33.142090 -159.557312 -35.815002 0.000000
-19.658783 -159.557312 -35.815002 0.000000
-6.175476 -159.557312 -35.815002 0.000000
7.307800 -159.557312 -35.815002 0.000000
20.791107 -159.557312 -35.815002 0.000000
34.274414 -159.557312 -35.815002 0.000000
47.757721 -159.557312 -35.815002 0.000000
61.240997 -159.557312 -35.815002 0.000000
74.724304 -159.557312 -35.815002 0.000000
88.207611 -159.557312 -35.815002 0.000000
101.690918 -159.557312 -35.815002 0.000000
115.174225 -159.557312 -35.815002 0.000000
128.657501 -159.557312 -35.815002 0.000000
142.140808 -159.557312 -35.815002 0.000000
155.624115 -159.557312 -35.815002 0.000000
169.107422 -159.557312 -35.815002 0.000000
182.590698 -159.557312 -35.815002 0.000000
196.074036 -159.557312 -35.815002 0.000000
209.557312 -159.557312 -35.815002 0.000000
223.040588 -159.557312 -35.815002 0.000000
236.523926 -159.557312 -35.815002 0.000000
250.007202 -159.557312 -35.815002 0.000000
263.490540 -159.557312 -35.815002 0.000000
276.973816 -159.557312 -35.815002 0.000000
290.457092 -159.557312 -35.815002 0.000000
303.940430 -159.557312 -35.815002 0.000000
317.423706 -159.557312 -35.815002 0.000000
330.907043 -159.557312 -35.815002 0.000000
344.390320 -159.557312 -35.815002 0.000000
-343.257996 -173.040588 -35.815002 0.000000
-329.774689 -173.040588 -35.815002 0.000000
-316.291382 -173.040588 -35.815002 0.000000
-302.808105 -173.040588 -35.815002 0.000000
-289.324799 -173.040588 -35.815002 0.000000
-275.841492 -173.040588 -35.815002 0.000000
-262.358185 -173.040588 -35.815002 0.000000
-248.874893 -173.040588 -35.815002 0.000000
-235.391602 -173.040588 -35.815002 0.000000
-221.908295 -173.040588 -35.815002 0.000000
-208.424988 -173.040588 -35.815002 0.000000
-194.941696 -173.040588 -35.815002 0.000000
-181.458389 -173.040588 -35.815002 0.000000
-167.975098 -173.040588 -35.815002 0.000000
-154.491791 -173.040588 -35.815002 0.000000
-141.008499 -173.040588 -35.815002 0.000000
-127.525192 -173.040588 -35.815002 0.000000
-114.041885 -173.040588 -35.815002 0.000000
-100.558594 -173.040588 -35.815002 0.000000
-87.075287 -173.040588 -35.815002 0.000000
-73.591980 -173.040588 -35.815002 0.000000
-60.108704 -173.040588 -35.815002 0.000000
-46.625397 -173.040588 -35.815002 0.000000
-33.142090 -173.040588 -35.815002 0.000000
-19.658783 -173.040588 -35.815002 0.000000
-6.175476 -173.040588 -35.815002 0.000000
7.307800 -173.040588 -35.815002 0.000000
20.791107 -173.040588 -35.815002 0.000000
34.274414 -173.040588 -35.815002 0.000000
47.757721 -173.040588 -35.815002 0.000000
61.240997 -173.040588 -35.815002 0.000000
74.724304 -173.040588 -35.815002 0.000000
88.207611 -173.040588 -35.815002 0.000000
101.690918 -173.040588 -35.815002 0.000000
115.174225 -173.040588 -35.815002 0.000000
128.657501 -173.040588 -35.815002 0.000000
142.140808 -173.040588 -35.815002 0.000000
155.624115 -173.040588 -35.815002 0.000000
169.107422 -173.040588 -35.815002 0.000000
182.590698 -173.040588 -35.815002 0.000000
196.074036 -173.040588 -35.815002 0.000000
209.557312 -173.040588 -35.815002 0.000000
223.040588 -173.040588 -35.815002 0.000000
236.523926 -173.040588 -35.815002 0.000000
250.007202 -173.040588 -35.815002 0.000000
263.490540 -173.040588 -35.815002 0.000000
276.973816 -173.040588 -35.815002 0.000000
290.457092 -173.040588 -35.815002 0.000000
303.940430 -173.040588 -35.815002 0.000000
317.423706 -173.040588 -35.815002 0.000000
330.907043 -173.040588 -35.815002 0.000000
344.390320 -173.040588 -35.815002 0.000000
-343.257996 -186.523926 -35.815002 0.000000
-329.774689 -186.523926 -35.815002 0.000000
-316.291382 -186.523926 -35.815002 0.000000
-302.808105 -186.523926 -35.815002 0.000000
-289.324799 -186.523926 -35.815002 0.000000
-275.841492 -186.523926 -35.815002 0.000000
-262.358185 -186.523926 -35.815002 0.000000
-248.874893 -186.523926 -35.815002 0.000000
-235.391602 -186.523926 -35.815002 0.000000
-221.908295 -186.523926 -35.815002 0.000000
-208.424988 -186.523926 -35.815002 0.000000
-194.941696 -186.523926 -35.815002 0.000000
-181.458389 -186.523926 -35.815002 0.000000
-167.975098 -186.523926 -35.815002 0.000000
-154.491791 -186.523926 -35.815002 0.000000
-141.008499 -186.523926 -35.815002 0.000000
-127.525192 -186.523926 -35.815002 0.000000
-114.041885 -186.523926 -35.815002 0.000000
-100.558594 -186.523926 -35.815002 0.000000
-87.075287 -186.523926 -35.815002 0.000000
-73.591980 -186.523926 -35.815002 0.000000
-60.108704 -186.523926 -35.815002 0.000000
-46.625397 -186.523926 -35.815002 0.000000
-33.142090 -186.523926 -35.815002 0.000000
-19.658783 -186.523926 -35.815002 0.000000
-6.175476 -186.523926 -35.815002 0.000000
7.307800 -186.523926 -35.815002 0.000000
20.791107 -186.523926 -35.815002 0.000000
34.274414 -186.523926 -35.815002 0.000000
47.757721 -186.523926 -35.815002 0.000000
61.240997 -186.523926 -35.815002 0.000000
74.724304 -186.523926 -35.815002 0.000000
88.207611 -186.523926 -35.815002 0.000000
101.690918 -186.523926 -35.815002 0.000000
115.174225 -186.523926 -35.815002 0.000000
128.657501 -186.523926 -35.815002 0.000000
142.140808 -186.523926 -35.815002 0.000000
155.624115 -186.523926 -35.815002 0.000000
169.107422 -186.523926 -35.815002 0.000000
182.590698 -186.523926 -35.815002 0.000000
196.074036 -186.523926 -35.815002 0.000000
209.557312 -186.523926 -35.815002 0.000000
223.040588 -186.523926 -35.815002 0.000000
236.523926 -186.523926 -35.815002 0.000000
250.007202 -186.523926 -35.815002 0.000000
263.490540 -186.523926 -35.815002 0.000000
276.973816 -186.523926 -35.815002 0.000000
290.457092 -186.523926 -35.815002 0.000000
303.940430 -186.523926 -35.815002 0.000000
317.423706 -186.523926 -35.815002 0.000000
330.907043 -186.523926 -35.815002 0.000000
344.390320 -186.523926 -35.815002 0.000000
-343.257996 -200.007202 -35.815002 0.000000
-329.774689 -200.007202 -35.815002 0.000000
-316.291382 -200.007202 -35.815002 0.000000
-302.808105 -200.007202 -35.815002 0.000000
-289.324799 -200.007202 -35.815002 0.000000
-275.841492 -200.007202 -35.815002 0.000000
-262.358185 -200.007202 -35.815002 0.000000
-248.874893 -200.007202 -35.815002 0.000000
-235.391602 -200.007202 -35.815002 0.000000
-221.908295 -200.007202 -35.815002 0.000000
-208.424988 -200.007202 -35.815002 0.000000
-194.941696 -200.007202 -35.815002 0.000000
-181.458389 -200.007202 -35.815002 0.000000
-167.975098 -200.007202 -35.815002 0.000000
-154.491791 -200.007202 -35.815002 0.000000
-141.008499 -200.007202 -35.815002 0.000000
-127.525192 -200.007202 -35.815002 0.000000
-114.041885 -200.007202 -35.815002 0.000000
-100.558594 -200.007202 -35.815002 0.000000
-87.075287 -200.007202 -35.815002 0.000000
-73.591980 -200.007202 -35.815002 0.000000
-60.108704 -200.007202 -35.815002 0.000000
-46.625397 -200.007202 -35.815002 0.000000
-33.142090 -200.007202 -35.815002 0.000000
-19.658783 -200.007202 -35.815002 0.000000
-6.175476 -200.007202 -35.815002 0.000000
7.307800 -200.007202 -35.815002 0.000000
20.791107 -200.007202 -35.815002 0.000000
34.274414 -200.007202 -35.815002 0.000000
47.757721 -200.007202 -35.815002 0.000000
61.240997 -200.007202 -35.815002 0.000000
74.724304 -200.007202 -35.815002 0.000000
88.207611 -200.007202 -35.815002 0.000000
101.690918 -200.007202 -35.815002 0.000000
115.174225 -200.007202 -35.815002 0.000000
128.657501 -200.007202 -35.815002 0.000000
142.140808 -200.007202 -35.815002 0.000000
155.624115 -200.007202 -35.815002 0.000000
169.107422 -200.007202 -35.815002 0.000000
182.590698 -200.007202 -35.815002 0.000000
196.074036 -200.007202 -35.815002 0.000000
209.557312 -200.007202 -35.815002 0.000000
223.040588 -200.007202 -35.815002 0.000000
236.523926 -200.007202 -35.815002 0.000000
250.007202 -200.007202 -35.815002 0.000000
263.490540 -200.007202 -35.815002 0.000000
276.973816 -200.007202 -35.815002 0.000000
290.457092 -200.007202 -35.815002 0.000000
303.940430 -200.007202 -35.815002 0.000000
317.423706 -200.007202 -35.815002 0.000000
330.907043 -200.007202 -35.815002 0.000000
344.390320 -200.007202 -35.815002 0.000000
-343.257996 393.257996 -22.331701 0.000000
-329.774689 393.257996 -22.331701 0.000000
-316.291382 393.257996 -22.331701 0.000000
-302.808105 393.257996 -22.331701 0.000000
-289.324799 393.257996 -22.331701 0.000000
-275.841492 393.257996 -22.331701 0.000000
-262.358185 393.257996 -22.331701 0.000000
-248.874893 393.257996 -22.331701 0.000000
-235.391602 393.257996 -22.331701 0.000000
-221.908295 393.257996 -22.331701 0.000000
-208.424988 393.257996 -22.331701 0.000000
-194.941696 393.257996 -22.331701 0.000000
-181.458389 393.257996 -22.331701 0.000000
-167.975098 393.257996 -22.331701 0.000000
-154.491791 393.257996 -22.331701 0.000000
-141.008499 393.257996 -22.331701 0.000000
-127.525192 393.257996 -22.331701 0.000000
-114.041885 393.257996 -22.331701 0.000000
-100.558594 393.257996 -22.331701 0.000000
-87.075287 393.257996 -22.331701 0.000000
-73.591980 393.257996 -22.331701 0.000000
-60.108704 393.257996 -22.331701 0.000000
-46.625397 393.257996 -22.331701 0.000000
-33.142090 393.257996 -22.331701 0.000000
-19.658783 393.257996 -22.331701 0.000000
-6.175476 393.257996 -22.331701 0.000000
7.307800 393.257996 -22.331701 0.000000
20.791107 393.257996 -22.331701 0.000000
34.274414 393.257996 -22.331701 0.000000
47.757721 393.257996 -22.331701 0.000000
61.240997 393.257996 -22.331701 0.000000
74.724304 393.257996 -22.331701 0.000000
88.207611 393.257996 -22.331701 0.000000
101.690918 393.257996 -22.331701 0.000000
115.174225 393.257996 -22.331701 0.000000
128.657501 393.257996 -22.331701 0.000000
142.140808 393.257996 -22.331701 0.000000
155.624115 393.257996 -22.331701 0.000000
169.107422 393.257996 -22.331701 0.000000
182.590698 393.257996 -22.331701 0.000000
196.074036 393.257996 -22.331701 0.000000
209.557312 393.257996 -22.331701 0.000000
223.040588 393.257996 -22.331701 0.000000
236.523926 393.257996 -22.331701 0.000000
250.007202 393.257996 -22.331701 0.000000
263.490540 393.257996 -22.331701 0.000000
276.973816 393.257996 -22.331701 0.000000
290.457092 393.257996 -22.331701 0.000000
303.940430 393.257996 -22.331701 0.000000
317.423706 393.257996 -22.331701 0.000000
330.907043 393.257996 -22.331701 0.000000
344.390320 393.257996 -22.331701 0.000000
-343.257996 379.774689 -22.331701 0.000000
-329.774689 379.774689 -22.331701 0.000000
-316.291382 379.774689 -22.331701 0.000000
-302.808105 379.774689 -22.331701 0.000000
-289.324799 379.774689 -22.331701 0.000000
-275.841492 379.774689 -22.331701 0.000000
-262.358185 379.774689 -22.331701 0.000000
-248.874893 379.774689 -22.331701 0.000000
-235.391602 379.774689 -22.331701 0.000000
-221.908295 379.774689 -22.331701 0.000000
-208.424988 379.774689 -22.331701 0.000000
-194.941696 379.774689 -22.331701 0.000000
-181.458389 379.774689 -22.331701 0.000000
-167.975098 379.774689 -22.331701 0.000000
-154.491791 379.774689 -22.331701 0.000000
-141.008499 379.774689 -22.331701 0.000000
-127.525192 379.774689 -22.331701 0.000000
-114.041885 379.774689 -22.331701 0.000000
-100.558594 379.774689 -22.331701 0.000000
-87.075287 379.774689 -22.331701 0.000000
-73.591980 379.774689 -22.331701 0.000000
-60.108704 379.774689 -22.331701 0.000000
-46.625397 379.774689 -22.331701 0.000000
-33.142090 379.774689 -22.331701 0.000000
-19.658783 379.774689 -22.331701 0.000000
-6.175476 379.774689 -22.331701 0.000000
7.307800 379.774689 -22.331701 0.000000
20.791107 379.774689 -22.331701 0.000000
34.274414 379.774689 -22.331701 0.000000
47.757721 379.774689 -22.331701 0.000000
61.240997 379.774689 -22.331701 0.000000
74.724304 379.774689 -22.331701 0.000000
88.207611 379.774689 -22.331701 0.000000
101.690918 379.774689 -22.331701 0.000000
115.174225 379.774689 -22.331701 0.000000
128.657501 379.774689 -22.331701 0.000000
142.140808 379.774689 -22.331701 0.000000
155.624115 379.774689 -22.331701 0.000000
169.107422 379.774689 -22.331701 0.000000
182.590698 379.774689 -22.331701 0.000000
196.074036 379.774689 -22.331701 0.000000
209.557312 379.774689 -22.331701 0.000000
223.040588 379.774689 -22.331701 0.000000
236.523926 379.774689 -22.331701 0.000000
250.007202 379.774689 -22.331701 0.000000
263.490540 379.774689 -22.331701 0.000000
276.973816 379.774689 -22.331701 0.000000
290.457092 379.774689 -22.331701 0.000000
303.940430 379.774689 -22.331701 0.000000
317.423706 379.774689 -22.331701 0.000000
330.907043 379.774689 -22.331701 0.000000
344.390320 379.774689 -22.331701 0.000000
-343.257996 366.291382 -22.331701 0.000000
-329.774689 366.291382 -22.331701 0.000000
-316.291382 366.291382 -22.331701 0.000000
-302.808105 366.291382 -22.331701 0.000000
-289.324799 366.291382 -22.331701 0.000000
-275.841492 366.291382 -22.331701 0.000000
-262.358185 366.291382 -22.331701 0.000000
-248.874893 366.291382 -22.331701 0.000000
-235.391602 366.291382 -22.331701 0.000000
-221.908295 366.291382 -22.331701 0.000000
-208.424988 366.291382 -22.331701 0.000000
-194.941696 366.291382 -22.331701 0.000000
-181.458389 366.291382 -22.331701 0.000000
-167.975098 366.291382 -22.331701 0.000000
-154.491791 366.291382 -22.331701 0.000000
-141.008499 366.291382 -22.331701 0.000000
-127.525192 366.291382 -22.331701 0.000000
-114.041885 366.291382 -22.331701 0.000000
-100.558594 366.291382 -22.331701 0.000000
-87.075287 366.291382 -22.331701 0.000000
-73.591980 366.291382 -22.331701 0.000000
-60.108704 366.291382 -22.331701 0.000000
-46.625397 366.291382 -22.331701 0.000000
-33.142090 366.291382 -22.331701 0.000000
-19.658783 366.291382 -22.331701 0.000000
-6.175476 366.291382 -22.331701 0.000000
7.307800 366.291382 -22.331701 0.000000
20.791107 366.291382 -22.331701 0.000000
34.274414 366.291382 -22.331701 0.000000
47.757721 366.291382 -22.331701 0.000000
61.240997 366.291382 -22.331701 0.000000
74.724304 366.291382 -22.331701 0.000000
88.207611 366.291382 -22.331701 0.000000
101.690918 366.291382 -22.331701 0.000000
115.174225 366.291382 -22.331701 0.000000
128.657501 366.291382 -22.331701 0.000000
142.140808 366.291382 -22.331701 0.000000
155.624115 366.291382 -22.331701 0.000000
169.107422 366.291382 -22.331701 0.000000
182.590698 366.291382 -22.331701 0.000000
196.074036 366.291382 -22.331701 0.000000
209.557312 366.291382 -22.331701 0.000000
223.040588 366.291382 -22.331701 0.000000
236.523926 366.291382 -22.331701 0.000000
250.007202 366.291382 -22.331701 0.000000
263.490540 366.291382 -22.331701 0.000000
276.973816 366.291382 -22.331701 0.000000
290.457092 366.291382 -22.331701 0.000000
303.940430 366.291382 -22.331701 0.000000
317.423706 366.291382 -22.331701 0.000000
330.907043 366.291382 -22.331701 0.000000
344.390320 366.291382 -22.331701 0.000000
-343.257996 352.808105 -22.331701 0.000000
-329.774689 352.808105 -22.331701 0.000000
-316.291382 352.808105 -22.331701 0.000000
-302.808105 352.808105 -22.331701 0.040745
-289.324799 352.808105 -22.331701 0.044030
-275.841492 352.808105 -22.331701 0.045445
-262.358185 352.808105 -22.331701 0.053634
-248.874893 352.808105 -22.331701 0.056775
-235.391602 352.808105 -22.331701 0.069673
-221.908295 352.808105 -22.331701 0.084953
-208.424988 352.808105 -22.331701 0.115964
-194.941696 352.808105 -22.331701 0.156091
-181.458389 352.808105 -22.331701 0.000000
-167.975098 352.808105 -22.331701 0.000000
-154.491791 352.808105 -22.331701 0.000000
-141.008499 352.808105 -22.331701 0.000000
-127.525192 352.808105 -22.331701 0.000000
-114.041885 352.808105 -22.331701 0.000000
-100.558594 352.808105 -22.331701 0.000000
-87.075287 352.808105 -22.331701 0.000000
-73.591980 352.808105 -22.331701 0.000000
-60.108704 352.808105 -22.331701 0.000000
-46.625397 352.808105 -22.331701 0.000000
-33.142090 352.808105 -22.331701 0.000000
-19.658783 352.808105 -22.331701 0.000000
-6.175476 352.808105 -22.331701 0.000000
7.307800 352.808105 -22.331701 0.000000
20.791107 352.808105 -22.331701 0.000000
34.274414 352.808105 -22.331701 0.214019
47.757721 352.808105 -22.331701 0.203054
61.240997 352.808105 -22.331701 0.181714
74.724304 352.808105 -22.331701 0.178277
88.207611 352.808105 -22.331701 0.000000
101.690918 352.808105 -22.331701 0.000000
115.174225 352.808105 -22.331701 0.000000
128.657501 352.808105 -22.331701 0.000000
142.140808 352.808105 -22.331701 0.000000
155.624115 352.808105 -22.331701 0.000000
169.107422 352.808105 -22.331701 0.000000
182.590698 352.808105 -22.331701 0.000000
196.074036 352.808105 -22.331701 0.000000
209.557312 352.808105 -22.331701 0.000000
223.040588 352.808105 -22.331701 0.000000
236.523926 352.808105 -22.331701 0.000000
250.007202 352.808105 -22.331701 0.000000
263.490540 352.808105 -22.331701 0.000000
276.973816 352.808105 -22.331701 0.000000
290.457092 352.808105 -22.331701 0.000000
303.940430 352.808105 -22.331701 0.000000
317.423706 352.808105 -22.331701 0.000000
330.907043 352.808105 -22.331701 0.000000
344.390320 352.808105 -22.331701 0.000000
-343.257996 339.324799 -22.331701 0.000000
-329.774689 339.324799 -22.331701 0.000000
-316.291382 339.324799 -22.331701 0.000000
-302.808105 339.324799 -22.331701 0.034497
-289.324799 339.324799 -22.331701 0.038662
-275.841492 339.324799 -22.331701 0.040873
-262.358185 339.324799 -22.331701 0.048968
-248.874893 339.324799 -22.331701 0.057127
-235.391602 339.324799 -22.331701 0.071863
-221.908295 339.324799 -22.331701 0.096473
-208.424988 339.324799 -22.331701 0.132300
-194.941696 339.324799 -22.331701 0.173648
-181.458389 339.324799 -22.331701 0.245902
-167.975098 339.324799 -22.331701 0.295509
-154.491791 339.324799 -22.331701 0.363483
-141.008499 339.324799 -22.331701 0.402490
-127.525192 339.324799 -22.331701 0.420673
-114.041885 339.324799 -22.331701 0.426508
-100.558594 339.324799 -22.331701 0.428565
-87.075287 339.324799 -22.331701 0.401201
-73.591980 339.324799 -22.331701 0.372846
-60.108704 339.324799 -22.331701 0.379036
-46.625397 339.324799 -22.331701 0.380860
-33.142090 339.324799 -22.331701 0.372698
-19.658783 339.324799 -22.331701 0.336305
-6.175476 339.324799 -22.331701 0.295136
7.307800 339.324799 -22.331701 0.254377
20.791107 339.324799 -22.331701 0.226026
34.274414 339.324799 -22.331701 0.206675
47.757721 339.324799 -22.331701 0.205046
61.240997 339.324799 -22.331701 0.205611
74.724304 339.324799 -22.331701 0.203993
88.207611 339.324799 -22.331701 0.208128
101.690918 339.324799 -22.331701 0.254174
115.174225 339.324799 -22.331701 0.322547
128.657501 339.324799 -22.331701 0.387337
142.140808 339.324799 -22.331701 0.438032
155.624115 339.324799 -22.331701 0.486477
169.107422 339.324799 -22.331701 0.510562
182.590698 339.324799 -22.331701 0.549658
196.074036 339.324799 -22.331701 0.502529
209.557312 339.324799 -22.331701 0.435284
223.040588 339.324799 -22.331701 0.366144
236.523926 339.324799 -22.331701 0.277089
250.007202 339.324799 -22.331701 0.206296
263.490540 339.324799 -22.331701 0.200494
276.973816 339.324799 -22.331701 0.193877
290.457092 339.324799 -22.331701 0.000000
303.940430 339.324799 -22.331701 0.000000
317.423706 339.324799 -22.331701 0.000000
330.907043 339.324799 -22.331701 0.000000
344.390320 339.324799 -22.331701 0.000000
-343.257996 325.841492 -22.331701 0.000000
-329.774689 325.841492 -22.331701 0.000000
-316.291382 325.841492 -22.331701 0.032826
-302.808105 325.841492 -22.331701 0.033022
-289.324799 325.841492 -22.331701 0.035498
-275.841492 325.841492 -22.331701 0.038198
-262.358185 325.841492 -22.331701 0.043670
-248.874893 325.841492 -22.331701 0.053755
-235.391602 325.841492 -22.331701 0.070340
-221.908295 325.841492 -22.331701 0.095791
-208.424988 325.841492 -22.331701 0.136280
-194.941696 325.841492 -22.331701 0.191333
-181.458389 325.841492 -22.331701 0.268726
-167.975098 325.841492 -22.331701 0.331333
-154.491791 325.841492 -22.331701 0.368709
-141.008499 325.841492 -22.331701 0.388096
-127.525192 325.841492 -22.331701 0.383230
-114.041885 325.841492 -22.331701 0.401058
-100.558594 325.841492 -22.331701 0.370820
-87.075287 325.841492 -22.331701 0.367777
-73.591980 325.841492 -22.331701 0.342976
-60.108704 325.841492 -22.331701 0.325980
-46.625397 325.841492 -22.331701 0.336905
-33.142090 325.841492 -22.331701 0.336691
-19.658783 325.841492 -22.331701 0.337223
-6.175476 325.841492 -22.331701 0.300340
7.307800 325.841492 -22.331701 0.250649
20.791107 325.841492 -22.331701 0.225467
34.274414 325.841492 -22.331701 0.203649
47.757721 325.841492 -22.331701 0.198003
61.240997 325.841492 -22.331701 0.196786
74.724304 325.841492 -22.331701 0.204173
88.207611 325.841492 -22.331701 0.253005
101.690918 325.841492 -22.331701 0.326021
115.174225 325.841492 -22.331701 0.390550
128.657501 325.841492 -22.331701 0.451534
142.140808 325.841492 -22.331701 0.487611
155.624115 325.841492 -22.331701 0.567740
169.107422 325.841492 -22.331701 0.579941
182.590698 325.841492 -22.331701 0.600576
196.074036 325.841492 -22.331701 0.600222
209.557312 325.841492 -22.331701 0.515333
223.040588 325.841492 -22.331701 0.419404
236.523926 325.841492 -22.331701 0.327327
250.007202 325.841492 -22.331701 0.234658
263.490540 325.841492 -22.331701 0.191152
276.973816 325.841492 -22.331701 0.160373
290.457092 325.841492 -22.331701 0.000000
303.940430 325.841492 -22.331701 0.000000
317.423706 325.841492 -22.331701 0.000000
330.907043 325.841492 -22.331701 0.000000
344.390320 325.841492 -22.331701 0.000000
-343.257996 312.358185 -22.331701 0.000000
-329.774689 312.358185 -22.331701 0.000000
-316.291382 312.358185 -22.331701 0.030782
-302.808105 312.358185 -22.331701 0.031550
-289.324799 312.358185 -22.331701 0.031849
-275.841492 312.358185 -22.331701 0.035885
-262.358185 312.358185 -22.331701 0.042896
-248.874893 312.358185 -22.331701 0.054705
-235.391602 312.358185 -22.331701 0.076166
-221.908295 312.358185 -22.331701 0.112556
-208.424988 312.358185 -22.331701 0.163376
-194.941696 312.358185 -22.331701 0.221103
-181.458389 312.358185 -22.331701 0.279891
-167.975098 312.358185 -22.331701 0.349541
-154.491791 312.358185 -22.331701 0.375638
-141.008499 312.358185 -22.331701 0.400593
-127.525192 312.358185 -22.331701 0.406898
-114.041885 312.358185 -22.331701 0.390803
-100.558594 312.358185 -22.331701 0.356687
-87.075287 312.358185 -22.331701 0.353801
-73.591980 312.358185 -22.331701 0.337102
-60.108704 312.358185 -22.331701 0.292942
-46.625397 312.358185 -22.331701 0.295767
-33.142090 312.358185 -22.331701 0.307040
-19.658783 312.358185 -22.331701 0.320027
-6.175476 312.358185 -22.331701 0.297148
7.307800 312.358185 -22.331701 0.260218
20.791107 312.358185 -22.331701 0.222916
34.274414 312.358185 -22.331701 0.201700
47.757721 312.358185 -22.331701 0.205273
61.240997 312.358185 -22.331701 0.212180
74.724304 312.358185 -22.331701 0.231283
88.207611 312.358185 -22.331701 0.300908
101.690918 312.358185 -22.331701 0.381071
115.174225 312.358185 -22.331701 0.436851
128.657501 312.358185 -22.331701 0.469316
142.140808 312.358185 -22.331701 0.529741
155.624115 312.358185 -22.331701 0.546037
169.107422 312.358185 -22.331701 0.563326
182.590698 312.358185 -22.331701 0.576363
196.074036 312.358185 -22.331701 0.606871
209.557312 312.358185 -22.331701 0.579843
223.040588 312.358185 -22.331701 0.489221
236.523926 312.358185 -22.331701 0.368361
250.007202 312.358185 -22.331701 0.256147
263.490540 312.358185 -22.331701 0.195772
276.973816 312.358185 -22.331701 0.156106
290.457092 312.358185 -22.331701 0.179726
303.940430 312.358185 -22.331701 0.000000
317.423706 312.358185 -22.331701 0.000000
330.907043 312.358185 -22.331701 0.000000
344.390320 312.358185 -22.331701 0.000000
-343.257996 298.874878 -22.331701 0.000000
-329.774689 298.874878 -22.331701 0.000000
-316.291382 298.874878 -22.331701 0.029566
-302.808105 298.874878 -22.331701 0.030166
-289.324799 298.874878 -22.331701 0.033469
-275.841492 298.874878 -22.331701 0.037376
-262.358185 298.874878 -22.331701 0.043778
-248.874893 298.874878 -22.331701 0.060297
-235.391602 298.874878 -22.331701 0.089258
-221.908295 298.874878 -22.331701 0.125637
-208.424988 298.874878 -22.331701 0.186024
-194.941696 298.874878 -22.331701 0.259050
-181.458389 298.874878 -22.331701 0.308265
-167.975098 298.874878 -22.331701 0.372006
-154.491791 298.874878 -22.331701 0.396720
-141.008499 298.874878 -22.331701 0.417281
-127.525192 298.874878 -22.331701 0.416883
-114.041885 298.874878 -22.331701 0.404133
-100.558594 298.874878 -22.331701 0.356518
-87.075287 298.874878 -22.331701 0.344857
-73.591980 298.874878 -22.331701 0.336775
-60.108704 298.874878 -22.331701 0.300518
-46.625397 298.874878 -22.331701 0.284026
-33.142090 298.874878 -22.331701 0.277474
-19.658783 298.874878 -22.331701 0.293494
-6.175476 298.874878 -22.331701 0.286952
7.307800 298.874878 -22.331701 0.259053
20.791107 298.874878 -22.331701 0.239534
34.274414 298.874878 -22.331701 0.212044
47.757721 298.874878 -22.331701 0.206648
61.240997 298.874878 -22.331701 0.216402
74.724304 298.874878 -22.331701 0.254369
88.207611 298.874878 -22.331701 0.314608
101.690918 298.874878 -22.331701 0.387254
115.174225 298.874878 -22.331701 0.411509
128.657501 298.874878 -22.331701 0.432459
142.140808 298.874878 -22.331701 0.464495
155.624115 298.874878 -22.331701 0.473639
169.107422 298.874878 -22.331701 0.521039
182.590698 298.874878 -22.331701 0.542590
196.074036 298.874878 -22.331701 0.571551
209.557312 298.874878 -22.331701 0.575797
223.040588 298.874878 -22.331701 0.514931
236.523926 298.874878 -22.331701 0.411436
250.007202 298.874878 -22.331701 0.290145
263.490540 298.874878 -22.331701 0.218682
276.973816 298.874878 -22.331701 0.160607
290.457092 298.874878 -22.331701 0.127436
303.940430 298.874878 -22.331701 0.000000
317.423706 298.874878 -22.331701 0.000000
330.907043 298.874878 -22.331701 0.000000
344.390320 298.874878 -22.331701 0.000000
-343.257996 285.391602 -22.331701 0.000000
-329.774689 285.391602 -22.331701 0.000000
-316.291382 285.391602 -22.331701 0.028560
-302.808105 285.391602 -22.331701 0.031815
-289.324799 285.391602 -22.331701 0.034055
-275.841492 285.391602 -22.331701 0.039711
-262.358185 285.391602 -22.331701 0.050794
-248.874893 285.391602 -22.331701 0.068173
-235.391602 285.391602 -22.331701 0.111138
-221.908295 285.391602 -22.331701 0.153759
-208.424988 285.391602 -22.331701 0.211907
-194.941696 285.391602 -22.331701 0.295441
-181.458389 285.391602 -22.331701 0.345176
-167.975098 285.391602 -22.331701 0.391339
-154.491791 285.391602 -22.331701 0.412105
-141.008499 285.391602 -22.331701 0.424735
-127.525192 285.391602 -22.331701 0.431726
-114.041885 285.391602 -22.331701 0.404721
-100.558594 285.391602 -22.331701 0.370025
-87.075287 285.391602 -22.331701 0.365790
-73.591980 285.391602 -22.331701 0.348788
-60.108704 285.391602 -22.331701 0.308770
-46.625397 285.391602 -22.331701 0.271497
-33.142090 285.391602 -22.331701 0.252812
-19.658783 285.391602 -22.331701 0.261244
-6.175476 285.391602 -22.331701 0.273142
7.307800 285.391602 -22.331701 0.255170
20.791107 285.391602 -22.331701 0.242125
34.274414 285.391602 -22.331701 0.231690
47.757721 285.391602 -22.331701 0.216280
61.240997 285.391602 -22.331701 0.239589
74.724304 285.391602 -22.331701 0.281781
88.207611 285.391602 -22.331701 0.332936
101.690918 285.391602 -22.331701 0.369263
115.174225 285.391602 -22.331701 0.369878
128.657501 285.391602 -22.331701 0.365053
142.140808 285.391602 -22.331701 0.384145
155.624115 285.391602 -22.331701 0.407829
169.107422 285.391602 -22.331701 0.448230
182.590698 285.391602 -22.331701 0.488485
196.074036 285.391602 -22.331701 0.538247
209.557312 285.391602 -22.331701 0.545905
223.040588 285.391602 -22.331701 0.519233
236.523926 285.391602 -22.331701 0.434537
250.007202 285.391602 -22.331701 0.327571
263.490540 285.391602 -22.331701 0.229814
276.973816 285.391602 -22.331701 0.162636
290.457092 285.391602 -22.331701 0.106868
303.940430 285.391602 -22.331701 0.094924
317.423706 285.391602 -22.331701 0.000000
330.907043 285.391602 -22.331701 0.000000
344.390320 285.391602 -22.331701 0.000000
-343.257996 271.908295 -22.331701 0.000000
-329.774689 271.908295 -22.331701 0.000000
-316.291382 271.908295 -22.331701 0.027450
-302.808105 271.908295 -22.331701 0.030013
-289.324799 271.908295 -22.331701 0.035896
-275.841492 271.908295 -22.331701 0.043335
-262.358185 271.908295 -22.331701 0.055801
-248.874893 271.908295 -22.331701 0.082043
-235.391602 271.908295 -22.331701 0.124511
-221.908295 271.908295 -22.331701 0.179608
-208.424988 271.908295 -22.331701 0.243901
-194.941696 271.908295 -22.331701 0.293876
-181.458389 271.908295 -22.331701 0.368213
-167.975098 271.908295 -22.331701 0.414004
-154.491791 271.908295 -22.331701 0.444763
-141.008499 271.908295 -22.331701 0.446964
-127.525192 271.908295 -22.331701 0.451964
-114.041885 271.908295 -22.331701 0.396554
-100.558594 271.908295 -22.331701 0.380383
-87.075287 271.908295 -22.331701 0.406913
-73.591980 271.908295 -22.331701 0.374360
-60.108704 271.908295 -22.331701 0.321514
-46.625397 271.908295 -22.331701 0.270428
-33.142090 271.908295 -22.331701 0.232719
-19.658783 271.908295 -22.331701 0.244926
-6.175476 271.908295 -22.331701 0.258523
7.307800 271.908295 -22.331701 0.259936
20.791107 271.908295 -22.331701 0.244297
34.274414 271.908295 -22.331701 0.220554
47.757721 271.908295 -22.331701 0.231956
61.240997 271.908295 -22.331701 0.263570
74.724304 271.908295 -22.331701 0.292739
88.207611 271.908295 -22.331701 0.304120
101.690918 271.908295 -22.331701 0.316691
115.174225 271.908295 -22.331701 0.325769
128.657501 271.908295 -22.331701 0.310418
142.140808 271.908295 -22.331701 0.311049
155.624115 271.908295 -22.331701 0.352567
169.107422 271.908295 -22.331701 0.390963
182.590698 271.908295 -22.331701 0.447480
196.074036 271.908295 -22.331701 0.509329
209.557312 271.908295 -22.331701 0.533753
223.040588 271.908295 -22.331701 0.516485
236.523926 271.908295 -22.331701 0.431063
250.007202 271.908295 -22.331701 0.343696
263.490540 271.908295 -22.331701 0.237330
276.973816 271.908295 -22.331701 0.154503
290.457092 271.908295 -22.331701 0.097830
303.940430 271.908295 -22.331701 0.072265
317.423706 271.908295 -22.331701 0.000000
330.907043 271.908295 -22.331701 0.000000
344.390320 271.908295 -22.331701 0.000000
-343.257996 258.424988 -22.331701 0.000000
-329.774689 258.424988 -22.331701 0.000000
-316.291382 258.424988 -22.331701 0.026997
-302.808105 258.424988 -22.331701 0.030186
-289.324799 258.424988 -22.331701 0.037570
-275.841492 258.424988 -22.331701 0.046536
-262.358185 258.424988 -22.331701 0.064805
-248.874893 258.424988 -22.331701 0.096403
-235.391602 258.424988 -22.331701 0.136824
-221.908295 258.424988 -22.331701 0.198025
-208.424988 258.424988 -22.331701 0.277533
-194.941696 258.424988 -22.331701 0.330706
-181.458389 258.424988 -22.331701 0.382910
-167.975098 258.424988 -22.331701 0.418863
-154.491791 258.424988 -22.331701 0.449547
-141.008499 258.424988 -22.331701 0.467238
-127.525192 258.424988 -22.331701 0.447944
-114.041885 258.424988 -22.331701 0.417176
-100.558594 258.424988 -22.331701 0.429445
-87.075287 258.424988 -22.331701 0.438918
-73.591980 258.424988 -22.331701 0.385219
-60.108704 258.424988 -22.331701 0.310382
-46.625397 258.424988 -22.331701 0.263676
-33.142090 258.424988 -22.331701 0.226381
-19.658783 258.424988 -22.331701 0.234083
-6.175476 258.424988 -22.331701 0.248610
7.307800 258.424988 -22.331701 0.253877
20.791107 258.424988 -22.331701 0.235933
34.274414 258.424988 -22.331701 0.222052
47.757721 258.424988 -22.331701 0.245559
61.240997 258.424988 -22.331701 0.255712
74.724304 258.424988 -22.331701 0.266131
88.207611 258.424988 -22.331701 0.276135
101.690918 258.424988 -22.331701 0.275119
115.174225 258.424988 -22.331701 0.265380
128.657501 258.424988 -22.331701 0.246245
142.140808 258.424988 -22.331701 0.267733
155.624115 258.424988 -22.331701 0.305704
169.107422 258.424988 -22.331701 0.352118
182.590698 258.424988 -22.331701 0.413554
196.074036 258.424988 -22.331701 0.467185
209.557312 258.424988 -22.331701 0.488010
223.040588 258.424988 -22.331701 0.494757
236.523926 258.424988 -22.331701 0.429203
250.007202 258.424988 -22.331701 0.334090
263.490540 258.424988 -22.331701 0.233748
276.973816 258.424988 -22.331701 0.148335
290.457092 258.424988 -22.331701 0.083643
303.940430 258.424988 -22.331701 0.059404
317.423706 258.424988 -22.331701 0.000000
330.907043 258.424988 -22.331701 0.000000
344.390320 258.424988 -22.331701 0.000000
-343.257996 244.941696 -22.331701 0.000000
-329.774689 244.941696 -22.331701 0.000000
-316.291382 244.941696 -22.331701 0.028073
-302.808105 244.941696 -22.331701 0.032490
-289.324799 244.941696 -22.331701 0.041103
-275.841492 244.941696 -22.331701 0.052151
-262.358185 244.941696 -22.331701 0.073784
-248.874893 244.941696 -22.331701 0.103614
-235.391602 244.941696 -22.331701 0.151524
-221.908295 244.941696 -22.331701 0.227402
-208.424988 244.941696 -22.331701 0.290773
-194.941696 244.941696 -22.331701 0.348454
-181.458389 244.941696 -22.331701 0.384148
-167.975098 244.941696 -22.331701 0.421177
-154.491791 244.941696 -22.331701 0.443536
-141.008499 244.941696 -22.331701 0.456788
-127.525192 244.941696 -22.331701 0.449154
-114.041885 244.941696 -22.331701 0.450003
-100.558594 244.941696 -22.331701 0.464257
-87.075287 244.941696 -22.331701 0.449510
-73.591980 244.941696 -22.331701 0.382501
-60.108704 244.941696 -22.331701 0.294104
-46.625397 244.941696 -22.331701 0.249504
-33.142090 244.941696 -22.331701 0.218445
-19.658783 244.941696 -22.331701 0.216407
-6.175476 244.941696 -22.331701 0.219182
7.307800 244.941696 -22.331701 0.226705
20.791107 244.941696 -22.331701 0.216100
34.274414 244.941696 -22.331701 0.212272
47.757721 244.941696 -22.331701 0.000000
61.240997 244.941696 -22.331701 0.242262
74.724304 244.941696 -22.331701 0.239794
88.207611 244.941696 -22.331701 0.245604
101.690918 244.941696 -22.331701 0.253603
115.174225 244.941696 -22.331701 0.230682
128.657501 244.941696 -22.331701 0.231683
142.140808 244.941696 -22.331701 0.241337
155.624115 244.941696 -22.331701 0.282656
169.107422 244.941696 -22.331701 0.345052
182.590698 244.941696 -22.331701 0.382713
196.074036 244.941696 -22.331701 0.438093
209.557312 244.941696 -22.331701 0.493497
223.040588 244.941696 -22.331701 0.467863
236.523926 244.941696 -22.331701 0.416231
250.007202 244.941696 -22.331701 0.311624
263.490540 244.941696 -22.331701 0.206899
276.973816 244.941696 -22.331701 0.123349
290.457092 244.941696 -22.331701 0.072024
303.940430 244.941696 -22.331701 0.050118
317.423706 244.941696 -22.331701 0.040157
330.907043 244.941696 -22.331701 0.000000
344.390320 244.941696 -22.331701 0.000000
-343.257996 231.458389 -22.331701 0.000000
-329.774689 231.458389 -22.331701 0.000000
-316.291382 231.458389 -22.331701 0.029098
-302.808105 231.458389 -22.331701 0.032942
-289.324799 231.458389 -22.331701 0.043581
-275.841492 231.458389 -22.331701 0.056714
-262.358185 231.458389 -22.331701 0.082371
-248.874893 231.458389 -22.331701 0.119429
-235.391602 231.458389 -22.331701 0.171582
-221.908295 231.458389 -22.331701 0.252898
-208.424988 231.458389 -22.331701 0.313695
-194.941696 231.458389 -22.331701 0.340609
-181.458389 231.458389 -22.331701 0.377778
-167.975098 231.458389 -22.331701 0.410598
-154.491791 231.458389 -22.331701 0.428887
-141.008499 231.458389 -22.331701 0.451214
-127.525192 231.458389 -22.331701 0.446850
-114.041885 231.458389 -22.331701 0.477612
-100.558594 231.458389 -22.331701 0.478715
-87.075287 231.458389 -22.331701 0.450876
-73.591980 231.458389 -22.331701 0.365740
-60.108704 231.458389 -22.331701 0.306996
-46.625397 231.458389 -22.331701 0.256122
-33.142090 231.458389 -22.331701 0.224490
-19.658783 231.458389 -22.331701 0.219182
-6.175476 231.458389 -22.331701 0.206513
7.307800 231.458389 -22.331701 0.209669
20.791107 231.458389 -22.331701 0.198192
34.274414 231.458389 -22.331701 0.208937
47.757721 231.458389 -22.331701 0.213051
61.240997 231.458389 -22.331701 0.000000
74.724304 231.458389 -22.331701 0.213964
88.207611 231.458389 -22.331701 0.216394
101.690918 231.458389 -22.331701 0.224876
115.174225 231.458389 -22.331701 0.217280
128.657501 231.458389 -22.331701 0.000000
142.140808 231.458389 -22.331701 0.245072
155.624115 231.458389 -22.331701 0.280375
169.107422 231.458389 -22.331701 0.357534
182.590698 231.458389 -22.331701 0.413404
196.074036 231.458389 -22.331701 0.453622
209.557312 231.458389 -22.331701 0.475930
223.040588 231.458389 -22.331701 0.455926
236.523926 231.458389 -22.331701 0.395094
250.007202 231.458389 -22.331701 0.307614
263.490540 231.458389 -22.331701 0.188989
276.973816 231.458389 -22.331701 0.104270
290.457092 231.458389 -22.331701 0.062077
303.940430 231.458389 -22.331701 0.042471
317.423706 231.458389 -22.331701 0.032495
330.907043 231.458389 -22.331701 0.000000
344.390320 231.458389 -22.331701 0.000000
-343.257996 217.975098 -22.331701 0.000000
-329.774689 217.975098 -22.331701 0.000000
-316.291382 217.975098 -22.331701 0.028750
-302.808105 217.975098 -22.331701 0.034701
-289.324799 217.975098 -22.331701 0.044302
-275.841492 217.975098 -22.331701 0.058716
-262.358185 217.975098 -22.331701 0.083706
-248.874893 217.975098 -22.331701 0.125369
-235.391602 217.975098 -22.331701 0.172617
-221.908295 217.975098 -22.331701 0.236765
-208.424988 217.975098 -22.331701 0.317732
-194.941696 217.975098 -22.331701 0.360885
-181.458389 217.975098 -22.331701 0.401526
-167.975098 217.975098 -22.331701 0.406730
-154.491791 217.975098 -22.331701 0.421631
-141.008499 217.975098 -22.331701 0.449770
-127.525192 217.975098 -22.331701 0.474189
-114.041885 217.975098 -22.331701 0.495027
-100.558594 217.975098 -22.331701 0.499042
-87.075287 217.975098 -22.331701 0.437094
-73.591980 217.975098 -22.331701 0.357669
-60.108704 217.975098 -22.331701 0.306221
-46.625397 217.975098 -22.331701 0.241507
-33.142090 217.975098 -22.331701 0.207735
-19.658783 217.975098 -22.331701 0.201384
-6.175476 217.975098 -22.331701 0.201123
7.307800 217.975098 -22.331701 0.209941
20.791107 217.975098 -22.331701 0.196549
34.274414 217.975098 -22.331701 0.205663
47.757721 217.975098 -22.331701 0.210274
61.240997 217.975098 -22.331701 0.210723
74.724304 217.975098 -22.331701 0.195610
88.207611 217.975098 -22.331701 0.205140
101.690918 217.975098 -22.331701 0.215373
115.174225 217.975098 -22.331701 0.220963
128.657501 217.975098 -22.331701 0.237973
142.140808 217.975098 -22.331701 0.266368
155.624115 217.975098 -22.331701 0.326821
169.107422 217.975098 -22.331701 0.381483
182.590698 217.975098 -22.331701 0.404698
196.074036 217.975098 -22.331701 0.437574
209.557312 217.975098 -22.331701 0.442059
223.040588 217.975098 -22.331701 0.431970
236.523926 217.975098 -22.331701 0.376695
250.007202 217.975098 -22.331701 0.283256
263.490540 217.975098 -22.331701 0.170576
276.973816 217.975098 -22.331701 0.092708
290.457092 217.975098 -22.331701 0.053921
303.940430 217.975098 -22.331701 0.035746
317.423706 217.975098 -22.331701 0.029712
330.907043 217.975098 -22.331701 0.000000
344.390320 217.975098 -22.331701 0.000000
-343.257996 204.491791 -22.331701 0.000000
-329.774689 204.491791 -22.331701 0.000000
-316.291382 204.491791 -22.331701 0.027286
-302.808105 204.491791 -22.331701 0.033540
-289.324799 204.491791 -22.331701 0.042311
-275.841492 204.491791 -22.331701 0.058466
-262.358185 204.491791 -22.331701 0.086680
-248.874893 204.491791 -22.331701 0.132312
-235.391602 204.491791 -22.331701 0.182579
-221.908295 204.491791 -22.331701 0.247127
-208.424988 204.491791 -22.331701 0.325267
-194.941696 204.491791 -22.331701 0.367238
-181.458389 204.491791 -22.331701 0.407227
-167.975098 204.491791 -22.331701 0.424701
-154.491791 204.491791 -22.331701 0.429061
-141.008499 204.491791 -22.331701 0.476057
-127.525192 204.491791 -22.331701 0.487806
-114.041885 204.491791 -22.331701 0.509671
-100.558594 204.491791 -22.331701 0.487357
-87.075287 204.491791 -22.331701 0.452949
-73.591980 204.491791 -22.331701 0.353283
-60.108704 204.491791 -22.331701 0.280432
-46.625397 204.491791 -22.331701 0.211674
-33.142090 204.491791 -22.331701 0.193636
-19.658783 204.491791 -22.331701 0.197454
-6.175476 204.491791 -22.331701 0.196435
7.307800 204.491791 -22.331701 0.210468
20.791107 204.491791 -22.331701 0.206118
34.274414 204.491791 -22.331701 0.209226
47.757721 204.491791 -22.331701 0.204959
61.240997 204.491791 -22.331701 0.192428
74.724304 204.491791 -22.331701 0.199769
88.207611 204.491791 -22.331701 0.220096
101.690918 204.491791 -22.331701 0.242198
115.174225 204.491791 -22.331701 0.261877
128.657501 204.491791 -22.331701 0.306683
142.140808 204.491791 -22.331701 0.330220
155.624115 204.491791 -22.331701 0.366268
169.107422 204.491791 -22.331701 0.391878
182.590698 204.491791 -22.331701 0.391343
196.074036 204.491791 -22.331701 0.404528
209.557312 204.491791 -22.331701 0.413613
223.040588 204.491791 -22.331701 0.404387
236.523926 204.491791 -22.331701 0.346622
250.007202 204.491791 -22.331701 0.237470
263.490540 204.491791 -22.331701 0.138725
276.973816 204.491791 -22.331701 0.077285
290.457092 204.491791 -22.331701 0.047554
303.940430 204.491791 -22.331701 0.033753
317.423706 204.491791 -22.331701 0.027547
330.907043 204.491791 -22.331701 0.000000
344.390320 204.491791 -22.331701 0.000000
-343.257996 191.008499 -22.331701 0.000000
-329.774689 191.008499 -22.331701 0.000000
-316.291382 191.008499 -22.331701 0.025531
-302.808105 191.008499 -22.331701 0.030671
-289.324799 191.008499 -22.331701 0.038605
-275.841492 191.008499 -22.331701 0.056605
-262.358185 191.008499 -22.331701 0.083696
-248.874893 191.008499 -22.331701 0.122425
-235.391602 191.008499 -22.331701 0.177434
-221.908295 191.008499 -22.331701 0.256671
-208.424988 191.008499 -22.331701 0.323100
-194.941696 191.008499 -22.331701 0.366153
-181.458389 191.008499 -22.331701 0.402651
-167.975098 191.008499 -22.331701 0.417884
-154.491791 191.008499 -22.331701 0.468154
-141.008499 191.008499 -22.331701 0.513270
-127.525192 191.008499 -22.331701 0.553617
-114.041885 191.008499 -22.331701 0.536952
-100.558594 191.008499 -22.331701 0.514800
-87.075287 191.008499 -22.331701 0.425584
-73.591980 191.008499 -22.331701 0.360293
-60.108704 191.008499 -22.331701 0.262753
-46.625397 191.008499 -22.331701 0.221734
-33.142090 191.008499 -22.331701 0.204577
-19.658783 191.008499 -22.331701 0.188149
-6.175476 191.008499 -22.331701 0.194683
7.307800 191.008499 -22.331701 0.201577
20.791107 191.008499 -22.331701 0.203581
34.274414 191.008499 -22.331701 0.200451
47.757721 191.008499 -22.331701 0.208225
61.240997 191.008499 -22.331701 0.205235
74.724304 191.008499 -22.331701 0.222191
88.207611 191.008499 -22.331701 0.262157
101.690918 191.008499 -22.331701 0.292920
115.174225 191.008499 -22.331701 0.320685
128.657501 191.008499 -22.331701 0.355210
142.140808 191.008499 -22.331701 0.393196
155.624115 191.008499 -22.331701 0.396681
169.107422 191.008499 -22.331701 0.394981
182.590698 191.008499 -22.331701 0.390831
196.074036 191.008499 -22.331701 0.381497
209.557312 191.008499 -22.331701 0.402510
223.040588 191.008499 -22.331701 0.357249
236.523926 191.008499 -22.331701 0.269065
250.007202 191.008499 -22.331701 0.176702
263.490540 191.008499 -22.331701 0.110949
276.973816 191.008499 -22.331701 0.069557
290.457092 191.008499 -22.331701 0.042965
303.940430 191.008499 -22.331701 0.029616
317.423706 191.008499 -22.331701 0.024487
330.907043 191.008499 -22.331701 0.000000
344.390320 191.008499 -22.331701 0.000000
-343.257996 177.525192 -22.331701 0.000000
-329.774689 177.525192 -22.331701 0.000000
-316.291382 177.525192 -22.331701 0.024909
-302.808105 177.525192 -22.331701 0.028370
-289.324799 177.525192 -22.331701 0.036954
-275.841492 177.525192 -22.331701 0.054598
-262.358185 177.525192 -22.331701 0.081105
-248.874893 177.525192 -22.331701 0.122479
-235.391602 177.525192 -22.331701 0.188576
-221.908295 177.525192 -22.331701 0.268436
-208.424988 177.525192 -22.331701 0.330586
-194.941696 177.525192 -22.331701 0.362474
-181.458389 177.525192 -22.331701 0.378116
-167.975098 177.525192 -22.331701 0.448647
-154.491791 177.525192 -22.331701 0.479967
-141.008499 177.525192 -22.331701 0.555169
-127.525192 177.525192 -22.331701 0.609130
-114.041885 177.525192 -22.331701 0.570551
-100.558594 177.525192 -22.331701 0.531722
-87.075287 177.525192 -22.331701 0.451777
-73.591980 177.525192 -22.331701 0.358833
-60.108704 177.525192 -22.331701 0.288586
-46.625397 177.525192 -22.331701 0.233136
-33.142090 177.525192 -22.331701 0.208047
-19.658783 177.525192 -22.331701 0.194401
-6.175476 177.525192 -22.331701 0.195215
7.307800 177.525192 -22.331701 0.200078
20.791107 177.525192 -22.331701 0.209453
34.274414 177.525192 -22.331701 0.218202
47.757721 177.525192 -22.331701 0.241755
61.240997 177.525192 -22.331701 0.234734
74.724304 177.525192 -22.331701 0.250685
88.207611 177.525192 -22.331701 0.300046
101.690918 177.525192 -22.331701 0.325460
115.174225 177.525192 -22.331701 0.355385
128.657501 177.525192 -22.331701 0.377387
142.140808 177.525192 -22.331701 0.381498
155.624115 177.525192 -22.331701 0.382040
169.107422 177.525192 -22.331701 0.383063
182.590698 177.525192 -22.331701 0.363708
196.074036 177.525192 -22.331701 0.357257
209.557312 177.525192 -22.331701 0.356091
223.040588 177.525192 -22.331701 0.303581
236.523926 177.525192 -22.331701 0.211798
250.007202 177.525192 -22.331701 0.137584
263.490540 177.525192 -22.331701 0.090901
276.973816 177.525192 -22.331701 0.055258
290.457092 177.525192 -22.331701 0.039928
303.940430 177.525192 -22.331701 0.025728
317.423706 177.525192 -22.331701 0.021931
330.907043 177.525192 -22.331701 0.000000
344.390320 177.525192 -22.331701 0.000000
-343.257996 164.041885 -22.331701 0.000000
-329.774689 164.041885 -22.331701 0.000000
-316.291382 164.041885 -22.331701 0.024655
-302.808105 164.041885 -22.331701 0.028679
-289.324799 164.041885 -22.331701 0.037536
-275.841492 164.041885 -22.331701 0.054275
-262.358185 164.041885 -22.331701 0.083432
-248.874893 164.041885 -22.331701 0.132651
-235.391602 164.041885 -22.331701 0.201275
-221.908295 164.041885 -22.331701 0.278266
-208.424988 164.041885 -22.331701 0.350401
-194.941696 164.041885 -22.331701 0.396837
-181.458389 164.041885 -22.331701 0.445980
-167.975098 164.041885 -22.331701 0.507398
-154.491791 164.041885 -22.331701 0.573484
-141.008499 164.041885 -22.331701 0.656470
-127.525192 164.041885 -22.331701 0.661839
-114.041885 164.041885 -22.331701 0.592816
-100.558594 164.041885 -22.331701 0.528962
-87.075287 164.041885 -22.331701 0.447514
-73.591980 164.041885 -22.331701 0.358201
-60.108704 164.041885 -22.331701 0.279826
-46.625397 164.041885 -22.331701 0.234555
-33.142090 164.041885 -22.331701 0.199989
-19.658783 164.041885 -22.331701 0.178168
-6.175476 164.041885 -22.331701 0.190753
7.307800 164.041885 -22.331701 0.195818
20.791107 164.041885 -22.331701 0.234221
34.274414 164.041885 -22.331701 0.254088
47.757721 164.041885 -22.331701 0.281608
61.240997 164.041885 -22.331701 0.291277
74.724304 164.041885 -22.331701 0.299016
88.207611 164.041885 -22.331701 0.328253
101.690918 164.041885 -22.331701 0.333949
115.174225 164.041885 -22.331701 0.351527
128.657501 164.041885 -22.331701 0.359342
142.140808 164.041885 -22.331701 0.358520
155.624115 164.041885 -22.331701 0.358434
169.107422 164.041885 -22.331701 0.357903
182.590698 164.041885 -22.331701 0.335758
196.074036 164.041885 -22.331701 0.302015
209.557312 164.041885 -22.331701 0.271813
223.040588 164.041885 -22.331701 0.224988
236.523926 164.041885 -22.331701 0.160566
250.007202 164.041885 -22.331701 0.105863
263.490540 164.041885 -22.331701 0.068411
276.973816 164.041885 -22.331701 0.045750
290.457092 164.041885 -22.331701 0.034104
303.940430 164.041885 -22.331701 0.022485
317.423706 164.041885 -22.331701 0.018906
330.907043 164.041885 -22.331701 0.000000
344.390320 164.041885 -22.331701 0.000000
-343.257996 150.558594 -22.331701 0.000000
-329.774689 150.558594 -22.331701 0.000000
-316.291382 150.558594 -22.331701 0.026480
-302.808105 150.558594 -22.331701 0.030501
-289.324799 150.558594 -22.331701 0.039965
-275.841492 150.558594 -22.331701 0.059120
-262.358185 150.558594 -22.331701 0.085992
-248.874893 150.558594 -22.331701 0.136036
-235.391602 150.558594 -22.331701 0.198280
-221.908295 150.558594 -22.331701 0.277286
-208.424988 150.558594 -22.331701 0.364555
-194.941696 150.558594 -22.331701 0.450641
-181.458389 150.558594 -22.331701 0.526873
-167.975098 150.558594 -22.331701 0.600362
-154.491791 150.558594 -22.331701 0.685262
-141.008499 150.558594 -22.331701 0.779909
-127.525192 150.558594 -22.331701 0.746690
-114.041885 150.558594 -22.331701 0.667994
-100.558594 150.558594 -22.331701 0.539848
-87.075287 150.558594 -22.331701 0.449055
-73.591980 150.558594 -22.331701 0.349279
-60.108704 150.558594 -22.331701 0.271028
-46.625397 150.558594 -22.331701 0.225066
-33.142090 150.558594 -22.331701 0.193601
-19.658783 150.558594 -22.331701 0.186362
-6.175476 150.558594 -22.331701 0.202289
7.307800 150.558594 -22.331701 0.228928
20.791107 150.558594 -22.331701 0.272684
34.274414 150.558594 -22.331701 0.304419
47.757721 150.558594 -22.331701 0.325375
61.240997 150.558594 -22.331701 0.349726
74.724304 150.558594 -22.331701 0.365225
88.207611 150.558594 -22.331701 0.367170
101.690918 150.558594 -22.331701 0.343813
115.174225 150.558594 -22.331701 0.341895
128.657501 150.558594 -22.331701 0.335159
142.140808 150.558594 -22.331701 0.319911
155.624115 150.558594 -22.331701 0.317070
169.107422 150.558594 -22.331701 0.305881
182.590698 150.558594 -22.331701 0.275992
196.074036 150.558594 -22.331701 0.245418
209.557312 150.558594 -22.331701 0.204952
223.040588 150.558594 -22.331701 0.157503
236.523926 150.558594 -22.331701 0.102707
250.007202 150.558594 -22.331701 0.072651
263.490540 150.558594 -22.331701 0.051650
276.973816 150.558594 -22.331701 0.037846
290.457092 150.558594 -22.331701 0.026767
303.940430 150.558594 -22.331701 0.020201
317.423706 150.558594 -22.331701 0.015961
330.907043 150.558594 -22.331701 0.000000
344.390320 150.558594 -22.331701 0.000000
-343.257996 137.075287 -22.331701 0.000000
-329.774689 137.075287 -22.331701 0.000000
-316.291382 137.075287 -22.331701 0.029164
-302.808105 137.075287 -22.331701 0.034524
-289.324799 137.075287 -22.331701 0.045956
-275.841492 137.075287 -22.331701 0.064336
-262.358185 137.075287 -22.331701 0.090129
-248.874893 137.075287 -22.331701 0.138318
-235.391602 137.075287 -22.331701 0.197769
-221.908295 137.075287 -22.331701 0.276014
-208.424988 137.075287 -22.331701 0.358412
-194.941696 137.075287 -22.331701 0.489470
-181.458389 137.075287 -22.331701 0.606643
-167.975098 137.075287 -22.331701 0.734612
-154.491791 137.075287 -22.331701 0.835807
-141.008499 137.075287 -22.331701 0.873937
-127.525192 137.075287 -22.331701 0.800230
-114.041885 137.075287 -22.331701 0.711185
-100.558594 137.075287 -22.331701 0.589996
-87.075287 137.075287 -22.331701 0.463990
-73.591980 137.075287 -22.331701 0.336992
-60.108704 137.075287 -22.331701 0.261315
-46.625397 137.075287 -22.331701 0.220693
-33.142090 137.075287 -22.331701 0.204390
-19.658783 137.075287 -22.331701 0.203982
-6.175476 137.075287 -22.331701 0.237051
7.307800 137.075287 -22.331701 0.266252
20.791107 137.075287 -22.331701 0.306225
34.274414 137.075287 -22.331701 0.352382
47.757721 137.075287 -22.331701 0.364553
61.240997 137.075287 -22.331701 0.380994
74.724304 137.075287 -22.331701 0.404069
88.207611 137.075287 -22.331701 0.383036
101.690918 137.075287 -22.331701 0.343377
115.174225 137.075287 -22.331701 0.310748
128.657501 137.075287 -22.331701 0.290360
142.140808 137.075287 -22.331701 0.277621
155.624115 137.075287 -22.331701 0.266173
169.107422 137.075287 -22.331701 0.242845
182.590698 137.075287 -22.331701 0.217278
196.074036 137.075287 -22.331701 0.182759
209.557312 137.075287 -22.331701 0.145803
223.040588 137.075287 -22.331701 0.103262
236.523926 137.075287 -22.331701 0.074980
250.007202 137.075287 -22.331701 0.050870
263.490540 137.075287 -22.331701 0.038474
276.973816 137.075287 -22.331701 0.029719
290.457092 137.075287 -22.331701 0.022727
303.940430 137.075287 -22.331701 0.016772
317.423706 137.075287 -22.331701 0.013581
330.907043 137.075287 -22.331701 0.000000
344.390320 137.075287 -22.331701 0.000000
-343.257996 123.591980 -22.331701 0.000000
-329.774689 123.591980 -22.331701 0.000000
-316.291382 123.591980 -22.331701 0.034787
-302.808105 123.591980 -22.331701 0.039534
-289.324799 123.591980 -22.331701 0.050832
-275.841492 123.591980 -22.331701 0.065739
-262.358185 123.591980 -22.331701 0.094337
-248.874893 123.591980 -22.331701 0.137305
-235.391602 123.591980 -22.331701 0.207928
-221.908295 123.591980 -22.331701 0.284561
-208.424988 123.591980 -22.331701 0.384268
-194.941696 123.591980 -22.331701 0.543601
-181.458389 123.591980 -22.331701 0.769964
-167.975098 123.591980 -22.331701 0.878342
-154.491791 123.591980 -22.331701 0.954384
-141.008499 123.591980 -22.331701 0.947891
-127.525192 123.591980 -22.331701 0.885118
-114.041885 123.591980 -22.331701 0.766573
-100.558594 123.591980 -22.331701 0.613358
-87.075287 123.591980 -22.331701 0.484162
-73.591980 123.591980 -22.331701 0.336654
-60.108704 123.591980 -22.331701 0.268403
-46.625397 123.591980 -22.331701 0.221228
-33.142090 123.591980 -22.331701 0.217859
-19.658783 123.591980 -22.331701 0.232218
-6.175476 123.591980 -22.331701 0.259347
7.307800 123.591980 -22.331701 0.290381
20.791107 123.591980 -22.331701 0.309439
34.274414 123.591980 -22.331701 0.351536
47.757721 123.591980 -22.331701 0.380096
61.240997 123.591980 -22.331701 0.395108
74.724304 123.591980 -22.331701 0.401398
88.207611 123.591980 -22.331701 0.360094
101.690918 123.591980 -22.331701 0.311607
115.174225 123.591980 -22.331701 0.280978
128.657501 123.591980 -22.331701 0.263669
142.140808 123.591980 -22.331701 0.231755
155.624115 123.591980 -22.331701 0.209925
169.107422 123.591980 -22.331701 0.190164
182.590698 123.591980 -22.331701 0.163198
196.074036 123.591980 -22.331701 0.129488
209.557312 123.591980 -22.331701 0.092506
223.040588 123.591980 -22.331701 0.067990
236.523926 123.591980 -22.331701 0.048410
250.007202 123.591980 -22.331701 0.035699
263.490540 123.591980 -22.331701 0.026664
276.973816 123.591980 -22.331701 0.023354
290.457092 123.591980 -22.331701 0.018806
303.940430 123.591980 -22.331701 0.014041
317.423706 123.591980 -22.331701 0.012046
330.907043 123.591980 -22.331701 0.000000
344.390320 123.591980 -22.331701 0.000000
-343.257996 110.108704 -22.331701 0.000000
-329.774689 110.108704 -22.331701 0.000000
-316.291382 110.108704 -22.331701 0.037016
-302.808105 110.108704 -22.331701 0.043232
-289.324799 110.108704 -22.331701 0.054335
-275.841492 110.108704 -22.331701 0.069457
-262.358185 110.108704 -22.331701 0.096222
-248.874893 110.108704 -22.331701 0.144463
-235.391602 110.108704 -22.331701 0.205678
-221.908295 110.108704 -22.331701 0.313974
-208.424988 110.108704 -22.331701 0.424280
-194.941696 110.108704 -22.331701 0.647888
-181.458389 110.108704 -22.331701 0.891340
-167.975098 110.108704 -22.331701 1.041404
-154.491791 110.108704 -22.331701 1.076181
-141.008499 110.108704 -22.331701 1.025333
-127.525192 110.108704 -22.331701 0.925809
-114.041885 110.108704 -22.331701 0.791154
-100.558594 110.108704 -22.331701 0.564300
-87.075287 110.108704 -22.331701 0.450818
-73.591980 110.108704 -22.331701 0.346808
-60.108704 110.108704 -22.331701 0.265734
-46.625397 110.108704 -22.331701 0.226899
-33.142090 110.108704 -22.331701 0.218055
-19.658783 110.108704 -22.331701 0.249414
-6.175476 110.108704 -22.331701 0.272906
7.307800 110.108704 -22.331701 0.309103
20.791107 110.108704 -22.331701 0.321185
34.274414 110.108704 -22.331701 0.361495
47.757721 110.108704 -22.331701 0.372310
61.240997 110.108704 -22.331701 0.385964
74.724304 110.108704 -22.331701 0.342537
88.207611 110.108704 -22.331701 0.301267
101.690918 110.108704 -22.331701 0.290732
115.174225 110.108704 -22.331701 0.254872
128.657501 110.108704 -22.331701 0.231269
142.140808 110.108704 -22.331701 0.200914
155.624115 110.108704 -22.331701 0.175198
169.107422 110.108704 -22.331701 0.147551
182.590698 110.108704 -22.331701 0.110532
196.074036 110.108704 -22.331701 0.082044
209.557312 110.108704 -22.331701 0.058473
223.040588 110.108704 -22.331701 0.047404
236.523926 110.108704 -22.331701 0.034363
250.007202 110.108704 -22.331701 0.026459
263.490540 110.108704 -22.331701 0.021753
276.973816 110.108704 -22.331701 0.017894
290.457092 110.108704 -22.331701 0.014955
303.940430 110.108704 -22.331701 0.011896
317.423706 110.108704 -22.331701 0.011003
330.907043 110.108704 -22.331701 0.000000
344.390320 110.108704 -22.331701 0.000000
-343.257996 96.625397 -22.331701 0.000000
-329.774689 96.625397 -22.331701 0.000000
-316.291382 96.625397 -22.331701 0.041652
-302.808105 96.625397 -22.331701 0.047125
-289.324799 96.625397 -22.331701 0.059838
-275.841492 96.625397 -22.331701 0.076414
-262.358185 96.625397 -22.331701 0.102740
-248.874893 96.625397 -22.331701 0.140305
-235.391602 96.625397 -22.331701 0.202392
-221.908295 96.625397 -22.331701 0.327594
-208.424988 96.625397 -22.331701 0.495436
-194.941696 96.625397 -22.331701 0.745063
-181.458389 96.625397 -22.331701 0.970770
-167.975098 96.625397 -22.331701 1.152768
-154.491791 96.625397 -22.331701 1.181624
-141.008499 96.625397 -22.331701 1.101415
-127.525192 96.625397 -22.331701 0.933812
-114.041885 96.625397 -22.331701 0.728323
-100.558594 96.625397 -22.331701 0.544729
-87.075287 96.625397 -22.331701 0.408562
-73.591980 96.625397 -22.331701 0.317679
-60.108704 96.625397 -22.331701 0.260199
-46.625397 96.625397 -22.331701 0.231086
-33.142090 96.625397 -22.331701 0.215802
-19.658783 96.625397 -22.331701 0.231157
-6.175476 96.625397 -22.331701 0.267463
7.307800 96.625397 -22.331701 0.294590
20.791107 96.625397 -22.331701 0.347133
34.274414 96.625397 -22.331701 0.361888
47.757721 96.625397 -22.331701 0.384992
61.240997 96.625397 -22.331701 0.361616
74.724304 96.625397 -22.331701 0.297537
88.207611 96.625397 -22.331701 0.255285
101.690918 96.625397 -22.331701 0.245919
115.174225 96.625397 -22.331701 0.206677
128.657501 96.625397 -22.331701 0.171790
142.140808 96.625397 -22.331701 0.152935
155.624115 96.625397 -22.331701 0.136988
169.107422 96.625397 -22.331701 0.105025
182.590698 96.625397 -22.331701 0.080659
196.074036 96.625397 -22.331701 0.057746
209.557312 96.625397 -22.331701 0.044901
223.040588 96.625397 -22.331701 0.034020
236.523926 96.625397 -22.331701 0.026480
250.007202 96.625397 -22.331701 0.021858
263.490540 96.625397 -22.331701 0.018880
276.973816 96.625397 -22.331701 0.016437
290.457092 96.625397 -22.331701 0.012973
303.940430 96.625397 -22.331701 0.010830
317.423706 96.625397 -22.331701 0.010288
330.907043 96.625397 -22.331701 0.000000
344.390320 96.625397 -22.331701 0.000000
-343.257996 83.142090 -22.331701 0.000000
-329.774689 83.142090 -22.331701 0.000000
-316.291382 83.142090 -22.331701 0.048056
-302.808105 83.142090 -22.331701 0.052628
-289.324799 83.142090 -22.331701 0.064869
-275.841492 83.142090 -22.331701 0.081730
-262.358185 83.142090 -22.331701 0.106043
-248.874893 83.142090 -22.331701 0.146933
-235.391602 83.142090 -22.331701 0.222083
-221.908295 83.142090 -22.331701 0.361786
-208.424988 83.142090 -22.331701 0.541793
-194.941696 83.142090 -22.331701 0.846101
-181.458389 83.142090 -22.331701 1.106937
-167.975098 83.142090 -22.331701 1.272691
-154.491791 83.142090 -22.331701 1.267780
-141.008499 83.142090 -22.331701 1.120782
-127.525192 83.142090 -22.331701 0.887309
-114.041885 83.142090 -22.331701 0.646418
-100.558594 83.142090 -22.331701 0.474114
-87.075287 83.142090 -22.331701 0.378567
-73.591980 83.142090 -22.331701 0.303891
-60.108704 83.142090 -22.331701 0.251568
-46.625397 83.142090 -22.331701 0.232214
-33.142090 83.142090 -22.331701 0.230581
-19.658783 83.142090 -22.331701 0.225928
-6.175476 83.142090 -22.331701 0.244180
7.307800 83.142090 -22.331701 0.297711
20.791107 83.142090 -22.331701 0.349071
34.274414 83.142090 -22.331701 0.363867
47.757721 83.142090 -22.331701 0.357537
61.240997 83.142090 -22.331701 0.321074
74.724304 83.142090 -22.331701 0.255353
88.207611 83.142090 -22.331701 0.231240
101.690918 83.142090 -22.331701 0.199464
115.174225 83.142090 -22.331701 0.166411
128.657501 83.142090 -22.331701 0.140634
142.140808 83.142090 -22.331701 0.120640
155.624115 83.142090 -22.331701 0.095910
169.107422 83.142090 -22.331701 0.074773
182.590698 83.142090 -22.331701 0.062003
196.074036 83.142090 -22.331701 0.046335
209.557312 83.142090 -22.331701 0.035306
223.040588 83.142090 -22.331701 0.027472
236.523926 83.142090 -22.331701 0.023072
250.007202 83.142090 -22.331701 0.019407
263.490540 83.142090 -22.331701 0.016567
276.973816 83.142090 -22.331701 0.013674
290.457092 83.142090 -22.331701 0.011554
303.940430 83.142090 -22.331701 0.009502
317.423706 83.142090 -22.331701 0.009425
330.907043 83.142090 -22.331701 0.000000
344.390320 83.142090 -22.331701 0.000000
-343.257996 69.658783 -22.331701 0.000000
-329.774689 69.658783 -22.331701 0.000000
-316.291382 69.658783 -22.331701 0.051355
-302.808105 69.658783 -22.331701 0.057441
-289.324799 69.658783 -22.331701 0.070260
-275.841492 69.658783 -22.331701 0.089951
-262.358185 69.658783 -22.331701 0.119235
-248.874893 69.658783 -22.331701 0.166103
-235.391602 69.658783 -22.331701 0.245336
-221.908295 69.658783 -22.331701 0.388969
-208.424988 69.658783 -22.331701 0.645294
-194.941696 69.658783 -22.331701 0.919241
-181.458389 69.658783 -22.331701 1.230373
-167.975098 69.658783 -22.331701 1.357143
-154.491791 69.658783 -22.331701 1.309050
-141.008499 69.658783 -22.331701 1.126092
-127.525192 69.658783 -22.331701 0.875443
-114.041885 69.658783 -22.331701 0.627709
-100.558594 69.658783 -22.331701 0.430651
-87.075287 69.658783 -22.331701 0.366630
-73.591980 69.658783 -22.331701 0.299625
-60.108704 69.658783 -22.331701 0.261317
-46.625397 69.658783 -22.331701 0.236826
-33.142090 69.658783 -22.331701 0.228860
-19.658783 69.658783 -22.331701 0.232815
-6.175476 69.658783 -22.331701 0.251462
7.307800 69.658783 -22.331701 0.316287
20.791107 69.658783 -22.331701 0.362125
34.274414 69.658783 -22.331701 0.397250
47.757721 69.658783 -22.331701 0.394758
61.240997 69.658783 -22.331701 0.355540
74.724304 69.658783 -22.331701 0.288347
88.207611 69.658783 -22.331701 0.231626
101.690918 69.658783 -22.331701 0.192660
115.174225 69.658783 -22.331701 0.145784
128.657501 69.658783 -22.331701 0.115981
142.140808 69.658783 -22.331701 0.095123
155.624115 69.658783 -22.331701 0.078220
169.107422 69.658783 -22.331701 0.061392
182.590698 69.658783 -22.331701 0.049610
196.074036 69.658783 -22.331701 0.038606
209.557312 69.658783 -22.331701 0.033376
223.040588 69.658783 -22.331701 0.026751
236.523926 69.658783 -22.331701 0.021492
250.007202 69.658783 -22.331701 0.017971
263.490540 69.658783 -22.331701 0.014404
276.973816 69.658783 -22.331701 0.012332
290.457092 69.658783 -22.331701 0.010556
303.940430 69.658783 -22.331701 0.009451
317.423706 69.658783 -22.331701 0.009402
330.907043 69.658783 -22.331701 0.000000
344.390320 69.658783 -22.331701 0.000000
-343.257996 56.175476 -22.331701 0.000000
-329.774689 56.175476 -22.331701 0.000000
-316.291382 56.175476 -22.331701 0.055602
-302.808105 56.175476 -22.331701 0.059909
-289.324799 56.175476 -22.331701 0.074390
-275.841492 56.175476 -22.331701 0.096976
-262.358185 56.175476 -22.331701 0.135340
-248.874893 56.175476 -22.331701 0.184912
-235.391602 56.175476 -22.331701 0.293737
-221.908295 56.175476 -22.331701 0.474612
-208.424988 56.175476 -22.331701 0.767169
-194.941696 56.175476 -22.331701 1.053621
-181.458389 56.175476 -22.331701 1.285733
-167.975098 56.175476 -22.331701 1.378438
-154.491791 56.175476 -22.331701 1.272538
-141.008499 56.175476 -22.331701 1.088478
-127.525192 56.175476 -22.331701 0.804293
-114.041885 56.175476 -22.331701 0.519139
-100.558594 56.175476 -22.331701 0.396065
-87.075287 56.175476 -22.331701 0.328564
-73.591980 56.175476 -22.331701 0.277301
-60.108704 56.175476 -22.331701 0.244154
-46.625397 56.175476 -22.331701 0.248965
-33.142090 56.175476 -22.331701 0.238913
-19.658783 56.175476 -22.331701 0.247646
-6.175476 56.175476 -22.331701 0.277697
7.307800 56.175476 -22.331701 0.309675
20.791107 56.175476 -22.331701 0.391621
34.274414 56.175476 -22.331701 0.443146
47.757721 56.175476 -22.331701 0.453530
61.240997 56.175476 -22.331701 0.415622
74.724304 56.175476 -22.331701 0.328604
88.207611 56.175476 -22.331701 0.269549
101.690918 56.175476 -22.331701 0.203645
115.174225 56.175476 -22.331701 0.161554
128.657501 56.175476 -22.331701 0.126447
142.140808 56.175476 -22.331701 0.094446
155.624115 56.175476 -22.331701 0.073174
169.107422 56.175476 -22.331701 0.056787
182.590698 56.175476 -22.331701 0.046354
196.074036 56.175476 -22.331701 0.039287
209.557312 56.175476 -22.331701 0.034150
223.040588 56.175476 -22.331701 0.028037
236.523926 56.175476 -22.331701 0.022889
250.007202 56.175476 -22.331701 0.017803
263.490540 56.175476 -22.331701 0.014558
276.973816 56.175476 -22.331701 0.012334
290.457092 56.175476 -22.331701 0.010703
303.940430 56.175476 -22.331701 0.010338
317.423706 56.175476 -22.331701 0.010203
330.907043 56.175476 -22.331701 0.000000
344.390320 56.175476 -22.331701 0.000000
-343.257996 42.692200 -22.331701 0.000000
-329.774689 42.692200 -22.331701 0.000000
-316.291382 42.692200 -22.331701 0.058352
-302.808105 42.692200 -22.331701 0.065328
-289.324799 42.692200 -22.331701 0.078398
-275.841492 42.692200 -22.331701 0.108728
-262.358185 42.692200 -22.331701 0.150997
-248.874893 42.692200 -22.331701 0.209099
-235.391602 42.692200 -22.331701 0.365823
-221.908295 42.692200 -22.331701 0.599864
-208.424988 42.692200 -22.331701 0.907310
-194.941696 42.692200 -22.331701 1.160637
-181.458389 42.692200 -22.331701 1.355474
-167.975098 42.692200 -22.331701 1.343632
-154.491791 42.692200 -22.331701 1.202084
-141.008499 42.692200 -22.331701 0.985311
-127.525192 42.692200 -22.331701 0.711709
-114.041885 42.692200 -22.331701 0.521768
-100.558594 42.692200 -22.331701 0.403965
-87.075287 42.692200 -22.331701 0.302732
-73.591980 42.692200 -22.331701 0.255931
-60.108704 42.692200 -22.331701 0.224332
-46.625397 42.692200 -22.331701 0.226639
-33.142090 42.692200 -22.331701 0.235960
-19.658783 42.692200 -22.331701 0.237302
-6.175476 42.692200 -22.331701 0.254053
7.307800 42.692200 -22.331701 0.330079
20.791107 42.692200 -22.331701 0.411045
34.274414 42.692200 -22.331701 0.513718
47.757721 42.692200 -22.331701 0.512806
61.240997 42.692200 -22.331701 0.488101
74.724304 42.692200 -22.331701 0.402016
88.207611 42.692200 -22.331701 0.313009
101.690918 42.692200 -22.331701 0.243319
115.174225 42.692200 -22.331701 0.195813
128.657501 42.692200 -22.331701 0.154834
142.140808 42.692200 -22.331701 0.117768
155.624115 42.692200 -22.331701 0.086574
169.107422 42.692200 -22.331701 0.063151
182.590698 42.692200 -22.331701 0.050694
196.074036 42.692200 -22.331701 0.044026
209.557312 42.692200 -22.331701 0.037700
223.040588 42.692200 -22.331701 0.030699
236.523926 42.692200 -22.331701 0.024210
250.007202 42.692200 -22.331701 0.018962
263.490540 42.692200 -22.331701 0.014813
276.973816 42.692200 -22.331701 0.013161
290.457092 42.692200 -22.331701 0.011852
303.940430 42.692200 -22.331701 0.010959
317.423706 42.692200 -22.331701 0.011171
330.907043 42.692200 -22.331701 0.000000
344.390320 42.692200 -22.331701 0.000000
-343.257996 29.208893 -22.331701 0.000000
-329.774689 29.208893 -22.331701 0.000000
-316.291382 29.208893 -22.331701 0.065858
-302.808105 29.208893 -22.331701 0.077859
-289.324799 29.208893 -22.331701 0.089498
-275.841492 29.208893 -22.331701 0.122318
-262.358185 29.208893 -22.331701 0.168224
-248.874893 29.208893 -22.331701 0.249935
-235.391602 29.208893 -22.331701 0.441773
-221.908295 29.208893 -22.331701 0.670184
-208.424988 29.208893 -22.331701 0.941919
-194.941696 29.208893 -22.331701 1.200357
-181.458389 29.208893 -22.331701 1.308645
-167.975098 29.208893 -22.331701 1.225830
-154.491791 29.208893 -22.331701 1.024092
-141.008499 29.208893 -22.331701 0.794642
-127.525192 29.208893 -22.331701 0.604449
-114.041885 29.208893 -22.331701 0.489904
-100.558594 29.208893 -22.331701 0.377111
-87.075287 29.208893 -22.331701 0.290291
-73.591980 29.208893 -22.331701 0.234691
-60.108704 29.208893 -22.331701 0.230012
-46.625397 29.208893 -22.331701 0.226560
-33.142090 29.208893 -22.331701 0.227190
-19.658783 29.208893 -22.331701 0.261286
-6.175476 29.208893 -22.331701 0.278706
7.307800 29.208893 -22.331701 0.351035
20.791107 29.208893 -22.331701 0.461155
34.274414 29.208893 -22.331701 0.579733
47.757721 29.208893 -22.331701 0.592741
61.240997 29.208893 -22.331701 0.556872
74.724304 29.208893 -22.331701 0.449326
88.207611 29.208893 -22.331701 0.358406
101.690918 29.208893 -22.331701 0.276340
115.174225 29.208893 -22.331701 0.232790
128.657501 29.208893 -22.331701 0.185194
142.140808 29.208893 -22.331701 0.155531
155.624115 29.208893 -22.331701 0.107987
169.107422 29.208893 -22.331701 0.075266
182.590698 29.208893 -22.331701 0.059637
196.074036 29.208893 -22.331701 0.051199
209.557312 29.208893 -22.331701 0.043392
223.040588 29.208893 -22.331701 0.034116
236.523926 29.208893 -22.331701 0.026702
250.007202 29.208893 -22.331701 0.020279
263.490540 29.208893 -22.331701 0.015506
276.973816 29.208893 -22.331701 0.013552
290.457092 29.208893 -22.331701 0.012926
303.940430 29.208893 -22.331701 0.012283
317.423706 29.208893 -22.331701 0.012325
330.907043 29.208893 -22.331701 0.000000
344.390320 29.208893 -22.331701 0.000000
-343.257996 15.725586 -22.331701 0.000000
-329.774689 15.725586 -22.331701 0.000000
-316.291382 15.725586 -22.331701 0.074352
-302.808105 15.725586 -22.331701 0.082815
-289.324799 15.725586 -22.331701 0.097220
-275.841492 15.725586 -22.331701 0.136515
-262.358185 15.725586 -22.331701 0.193777
-248.874893 15.725586 -22.331701 0.287551
-235.391602 15.725586 -22.331701 0.464636
-221.908295 15.725586 -22.331701 0.745341
-208.424988 15.725586 -22.331701 0.979274
-194.941696 15.725586 -22.331701 1.142904
-181.458389 15.725586 -22.331701 1.274734
-167.975098 15.725586 -22.331701 1.111517
-154.491791 15.725586 -22.331701 0.916782
-141.008499 15.725586 -22.331701 0.720346
-127.525192 15.725586 -22.331701 0.545514
-114.041885 15.725586 -22.331701 0.441109
-100.558594 15.725586 -22.331701 0.390117
-87.075287 15.725586 -22.331701 0.289999
-73.591980 15.725586 -22.331701 0.240850
-60.108704 15.725586 -22.331701 0.216666
-46.625397 15.725586 -22.331701 0.224660
-33.142090 15.725586 -22.331701 0.238397
-19.658783 15.725586 -22.331701 0.264985
-6.175476 15.725586 -22.331701 0.308263
7.307800 15.725586 -22.331701 0.394407
20.791107 15.725586 -22.331701 0.500027
34.274414 15.725586 -22.331701 0.636069
47.757721 15.725586 -22.331701 0.671439
61.240997 15.725586 -22.331701 0.594045
74.724304 15.725586 -22.331701 0.474702
88.207611 15.725586 -22.331701 0.384963
101.690918 15.725586 -22.331701 0.305778
115.174225 15.725586 -22.331701 0.246188
128.657501 15.725586 -22.331701 0.216333
142.140808 15.725586 -22.331701 0.185468
155.624115 15.725586 -22.331701 0.128541
169.107422 15.725586 -22.331701 0.084084
182.590698 15.725586 -22.331701 0.067674
196.074036 15.725586 -22.331701 0.055662
209.557312 15.725586 -22.331701 0.047230
223.040588 15.725586 -22.331701 0.038146
236.523926 15.725586 -22.331701 0.030648
250.007202 15.725586 -22.331701 0.022621
263.490540 15.725586 -22.331701 0.017326
276.973816 15.725586 -22.331701 0.014237
290.457092 15.725586 -22.331701 0.013470
303.940430 15.725586 -22.331701 0.012896
317.423706 15.725586 -22.331701 0.013279
330.907043 15.725586 -22.331701 0.000000
344.390320 15.725586 -22.331701 0.000000
-343.257996 2.242279 -22.331701 0.000000
-329.774689 2.242279 -22.331701 0.000000
-316.291382 2.242279 -22.331701 0.081248
-302.808105 2.242279 -22.331701 0.092879
-289.324799 2.242279 -22.331701 0.109600
-275.841492 2.242279 -22.331701 0.147098
-262.358185 2.242279 -22.331701 0.218466
-248.874893 2.242279 -22.331701 0.354522
-235.391602 2.242279 -22.331701 0.540433
-221.908295 2.242279 -22.331701 0.767828
-208.424988 2.242279 -22.331701 0.940450
-194.941696 2.242279 -22.331701 1.124615
-181.458389 2.242279 -22.331701 1.199410
-167.975098 2.242279 -22.331701 1.083567
-154.491791 2.242279 -22.331701 0.897868
-141.008499 2.242279 -22.331701 0.681595
-127.525192 2.242279 -22.331701 0.504265
-114.041885 2.242279 -22.331701 0.428711
-100.558594 2.242279 -22.331701 0.375485
-87.075287 2.242279 -22.331701 0.283884
-73.591980 2.242279 -22.331701 0.240126
-60.108704 2.242279 -22.331701 0.234714
-46.625397 2.242279 -22.331701 0.232678
-33.142090 2.242279 -22.331701 0.236219
-19.658783 2.242279 -22.331701 0.268299
-6.175476 2.242279 -22.331701 0.331102
7.307800 2.242279 -22.331701 0.467731
20.791107 2.242279 -22.331701 0.578643
34.274414 2.242279 -22.331701 0.703418
47.757721 2.242279 -22.331701 0.731925
61.240997 2.242279 -22.331701 0.634550
74.724304 2.242279 -22.331701 0.532475
88.207611 2.242279 -22.331701 0.421732
101.690918 2.242279 -22.331701 0.308414
115.174225 2.242279 -22.331701 0.244068
128.657501 2.242279 -22.331701 0.216309
142.140808 2.242279 -22.331701 0.175537
155.624115 2.242279 -22.331701 0.147009
169.107422 2.242279 -22.331701 0.101258
182.590698 2.242279 -22.331701 0.075747
196.074036 2.242279 -22.331701 0.062300
209.557312 2.242279 -22.331701 0.051816
223.040588 2.242279 -22.331701 0.041774
236.523926 2.242279 -22.331701 0.033523
250.007202 2.242279 -22.331701 0.026108
263.490540 2.242279 -22.331701 0.019573
276.973816 2.242279 -22.331701 0.015529
290.457092 2.242279 -22.331701 0.014123
303.940430 2.242279 -22.331701 0.012947
317.423706 2.242279 -22.331701 0.013776
330.907043 2.242279 -22.331701 0.000000
344.390320 2.242279 -22.331701 0.000000
-343.257996 -11.240997 -22.331701 0.000000
-329.774689 -11.240997 -22.331701 0.000000
-316.291382 -11.240997 -22.331701 0.089508
-302.808105 -11.240997 -22.331701 0.099112
-289.324799 -11.240997 -22.331701 0.112560
-275.841492 -11.240997 -22.331701 0.153179
-262.358185 -11.240997 -22.331701 0.226840
-248.874893 -11.240997 -22.331701 0.380836
-235.391602 -11.240997 -22.331701 0.530469
-221.908295 -11.240997 -22.331701 0.750002
-208.424988 -11.240997 -22.331701 0.910537
-194.941696 -11.240997 -22.331701 1.056713
-181.458389 -11.240997 -22.331701 1.044709
-167.975098 -11.240997 -22.331701 0.990099
-154.491791 -11.240997 -22.331701 0.802345
-141.008499 -11.240997 -22.331701 0.650064
-127.525192 -11.240997 -22.331701 0.484140
-114.041885 -11.240997 -22.331701 0.418898
-100.558594 -11.240997 -22.331701 0.350701
-87.075287 -11.240997 -22.331701 0.292944
-73.591980 -11.240997 -22.331701 0.249407
-60.108704 -11.240997 -22.331701 0.242949
-46.625397 -11.240997 -22.331701 0.236001
-33.142090 -11.240997 -22.331701 0.254026
-19.658783 -11.240997 -22.331701 0.314790
-6.175476 -11.240997 -22.331701 0.400629
7.307800 -11.240997 -22.331701 0.529144
20.791107 -11.240997 -22.331701 0.676981
34.274414 -11.240997 -22.331701 0.810552
47.757721 -11.240997 -22.331701 0.783260
61.240997 -11.240997 -22.331701 0.698990
74.724304 -11.240997 -22.331701 0.556124
88.207611 -11.240997 -22.331701 0.390173
101.690918 -11.240997 -22.331701 0.298008
115.174225 -11.240997 -22.331701 0.241659
128.657501 -11.240997 -22.331701 0.220924
142.140808 -11.240997 -22.331701 0.185863
155.624115 -11.240997 -22.331701 0.151089
169.107422 -11.240997 -22.331701 0.110601
182.590698 -11.240997 -22.331701 0.077696
196.074036 -11.240997 -22.331701 0.064161
209.557312 -11.240997 -22.331701 0.052359
223.040588 -11.240997 -22.331701 0.045066
236.523926 -11.240997 -22.331701 0.036108
250.007202 -11.240997 -22.331701 0.028987
263.490540 -11.240997 -22.331701 0.021857
276.973816 -11.240997 -22.331701 0.016893
290.457092 -11.240997 -22.331701 0.014133
303.940430 -11.240997 -22.331701 0.013500
317.423706 -11.240997 -22.331701 0.013108
330.907043 -11.240997 -22.331701 0.000000
344.390320 -11.240997 -22.331701 0.000000
-343.257996 -24.724304 -22.331701 0.000000
-329.774689 -24.724304 -22.331701 0.000000
-316.291382 -24.724304 -22.331701 0.103319
-302.808105 -24.724304 -22.331701 0.099034
-289.324799 -24.724304 -22.331701 0.121079
-275.841492 -24.724304 -22.331701 0.167279
-262.358185 -24.724304 -22.331701 0.250600
-248.874893 -24.724304 -22.331701 0.374506
-235.391602 -24.724304 -22.331701 0.549873
-221.908295 -24.724304 -22.331701 0.758224
-208.424988 -24.724304 -22.331701 0.943292
-194.941696 -24.724304 -22.331701 1.046622
-181.458389 -24.724304 -22.331701 1.011685
-167.975098 -24.724304 -22.331701 0.930780
-154.491791 -24.724304 -22.331701 0.772486
-141.008499 -24.724304 -22.331701 0.623722
-127.525192 -24.724304 -22.331701 0.493511
-114.041885 -24.724304 -22.331701 0.388803
-100.558594 -24.724304 -22.331701 0.326344
-87.075287 -24.724304 -22.331701 0.309624
-73.591980 -24.724304 -22.331701 0.293432
-60.108704 -24.724304 -22.331701 0.269647
-46.625397 -24.724304 -22.331701 0.000000
-33.142090 -24.724304 -22.331701 0.325392
-19.658783 -24.724304 -22.331701 0.373321
-6.175476 -24.724304 -22.331701 0.461989
7.307800 -24.724304 -22.331701 0.642630
20.791107 -24.724304 -22.331701 0.793228
34.274414 -24.724304 -22.331701 0.884061
47.757721 -24.724304 -22.331701 0.805140
61.240997 -24.724304 -22.331701 0.695628
74.724304 -24.724304 -22.331701 0.524243
88.207611 -24.724304 -22.331701 0.395994
101.690918 -24.724304 -22.331701 0.286821
115.174225 -24.724304 -22.331701 0.232370
128.657501 -24.724304 -22.331701 0.211532
142.140808 -24.724304 -22.331701 0.188651
155.624115 -24.724304 -22.331701 0.161674
169.107422 -24.724304 -22.331701 0.120357
182.590698 -24.724304 -22.331701 0.083928
196.074036 -24.724304 -22.331701 0.064295
209.557312 -24.724304 -22.331701 0.050008
223.040588 -24.724304 -22.331701 0.045559
236.523926 -24.724304 -22.331701 0.039514
250.007202 -24.724304 -22.331701 0.030961
263.490540 -24.724304 -22.331701 0.024296
276.973816 -24.724304 -22.331701 0.018291
290.457092 -24.724304 -22.331701 0.014873
303.940430 -24.724304 -22.331701 0.013637
317.423706 -24.724304 -22.331701 0.013537
330.907043 -24.724304 -22.331701 0.000000
344.390320 -24.724304 -22.331701 0.000000
-343.257996 -38.207611 -22.331701 0.000000
-329.774689 -38.207611 -22.331701 0.000000
-316.291382 -38.207611 -22.331701 0.107024
-302.808105 -38.207611 -22.331701 0.122215
-289.324799 -38.207611 -22.331701 0.159102
-275.841492 -38.207611 -22.331701 0.210094
-262.358185 -38.207611 -22.331701 0.303180
-248.874893 -38.207611 -22.331701 0.461360
-235.391602 -38.207611 -22.331701 0.639939
-221.908295 -38.207611 -22.331701 0.810229
-208.424988 -38.207611 -22.331701 0.955329
-194.941696 -38.207611 -22.331701 1.006170
-181.458389 -38.207611 -22.331701 0.953128
-167.975098 -38.207611 -22.331701 0.925567
-154.491791 -38.207611 -22.331701 0.763460
-141.008499 -38.207611 -22.331701 0.623839
-127.525192 -38.207611 -22.331701 0.520474
-114.041885 -38.207611 -22.331701 0.434010
-100.558594 -38.207611 -22.331701 0.376509
-87.075287 -38.207611 -22.331701 0.353520
-73.591980 -38.207611 -22.331701 0.342691
-60.108704 -38.207611 -22.331701 0.358477
-46.625397 -38.207611 -22.331701 0.388535
-33.142090 -38.207611 -22.331701 0.430232
-19.658783 -38.207611 -22.331701 0.524413
-6.175476 -38.207611 -22.331701 0.620087
7.307800 -38.207611 -22.331701 0.789542
20.791107 -38.207611 -22.331701 0.902470
34.274414 -38.207611 -22.331701 0.930689
47.757721 -38.207611 -22.331701 0.785330
61.240997 -38.207611 -22.331701 0.617987
74.724304 -38.207611 -22.331701 0.479371
88.207611 -38.207611 -22.331701 0.352783
101.690918 -38.207611 -22.331701 0.258291
115.174225 -38.207611 -22.331701 0.230986
128.657501 -38.207611 -22.331701 0.215135
142.140808 -38.207611 -22.331701 0.189555
155.624115 -38.207611 -22.331701 0.171107
169.107422 -38.207611 -22.331701 0.131457
182.590698 -38.207611 -22.331701 0.092113
196.074036 -38.207611 -22.331701 0.066750
209.557312 -38.207611 -22.331701 0.050181
223.040588 -38.207611 -22.331701 0.044264
236.523926 -38.207611 -22.331701 0.040307
250.007202 -38.207611 -22.331701 0.033057
263.490540 -38.207611 -22.331701 0.026817
276.973816 -38.207611 -22.331701 0.020671
290.457092 -38.207611 -22.331701 0.016769
303.940430 -38.207611 -22.331701 0.015731
317.423706 -38.207611 -22.331701 0.014976
330.907043 -38.207611 -22.331701 0.000000
344.390320 -38.207611 -22.331701 0.000000
-343.257996 -51.690918 -22.331701 0.000000
-329.774689 -51.690918 -22.331701 0.000000
-316.291382 -51.690918 -22.331701 0.000000
-302.808105 -51.690918 -22.331701 0.159413
-289.324799 -51.690918 -22.331701 0.190798
-275.841492 -51.690918 -22.331701 0.260937
-262.358185 -51.690918 -22.331701 0.353964
-248.874893 -51.690918 -22.331701 0.500540
-235.391602 -51.690918 -22.331701 0.684076
-221.908295 -51.690918 -22.331701 0.827575
-208.424988 -51.690918 -22.331701 0.950988
-194.941696 -51.690918 -22.331701 0.940756
-181.458389 -51.690918 -22.331701 0.941532
-167.975098 -51.690918 -22.331701 0.833183
-154.491791 -51.690918 -22.331701 0.750762
-141.008499 -51.690918 -22.331701 0.599379
-127.525192 -51.690918 -22.331701 0.540875
-114.041885 -51.690918 -22.331701 0.473190
-100.558594 -51.690918 -22.331701 0.450064
-87.075287 -51.690918 -22.331701 0.442713
-73.591980 -51.690918 -22.331701 0.450247
-60.108704 -51.690918 -22.331701 0.485337
-46.625397 -51.690918 -22.331701 0.512719
-33.142090 -51.690918 -22.331701 0.535996
-19.658783 -51.690918 -22.331701 0.655408
-6.175476 -51.690918 -22.331701 0.755463
7.307800 -51.690918 -22.331701 0.837838
20.791107 -51.690918 -22.331701 0.891250
34.274414 -51.690918 -22.331701 0.846304
47.757721 -51.690918 -22.331701 0.657189
61.240997 -51.690918 -22.331701 0.530137
74.724304 -51.690918 -22.331701 0.422645
88.207611 -51.690918 -22.331701 0.299447
101.690918 -51.690918 -22.331701 0.234995
115.174225 -51.690918 -22.331701 0.213888
128.657501 -51.690918 -22.331701 0.198191
142.140808 -51.690918 -22.331701 0.181813
155.624115 -51.690918 -22.331701 0.162685
169.107422 -51.690918 -22.331701 0.134057
182.590698 -51.690918 -22.331701 0.099481
196.074036 -51.690918 -22.331701 0.072936
209.557312 -51.690918 -22.331701 0.054839
223.040588 -51.690918 -22.331701 0.044804
236.523926 -51.690918 -22.331701 0.041732
250.007202 -51.690918 -22.331701 0.034603
263.490540 -51.690918 -22.331701 0.029500
276.973816 -51.690918 -22.331701 0.023291
290.457092 -51.690918 -22.331701 0.019312
303.940430 -51.690918 -22.331701 0.018387
317.423706 -51.690918 -22.331701 0.020710
330.907043 -51.690918 -22.331701 0.000000
344.390320 -51.690918 -22.331701 0.000000
-343.257996 -65.174225 -22.331701 0.000000
-329.774689 -65.174225 -22.331701 0.000000
-316.291382 -65.174225 -22.331701 0.000000
-302.808105 -65.174225 -22.331701 0.000000
-289.324799 -65.174225 -22.331701 0.266274
-275.841492 -65.174225 -22.331701 0.000000
-262.358185 -65.174225 -22.331701 0.000000
-248.874893 -65.174225 -22.331701 0.000000
-235.391602 -65.174225 -22.331701 0.000000
-221.908295 -65.174225 -22.331701 0.804622
-208.424988 -65.174225 -22.331701 0.874941
-194.941696 -65.174225 -22.331701 0.876532
-181.458389 -65.174225 -22.331701 0.849997
-167.975098 -65.174225 -22.331701 0.773609
-154.491791 -65.174225 -22.331701 0.638139
-141.008499 -65.174225 -22.331701 0.635762
-127.525192 -65.174225 -22.331701 0.568595
-114.041885 -65.174225 -22.331701 0.530581
-100.558594 -65.174225 -22.331701 0.514853
-87.075287 -65.174225 -22.331701 0.545212
-73.591980 -65.174225 -22.331701 0.576945
-60.108704 -65.174225 -22.331701 0.577613
-46.625397 -65.174225 -22.331701 0.658980
-33.142090 -65.174225 -22.331701 0.698137
-19.658783 -65.174225 -22.331701 0.746393
-6.175476 -65.174225 -22.331701 0.821773
7.307800 -65.174225 -22.331701 0.842939
20.791107 -65.174225 -22.331701 0.790929
34.274414 -65.174225 -22.331701 0.661654
47.757721 -65.174225 -22.331701 0.537246
61.240997 -65.174225 -22.331701 0.434554
74.724304 -65.174225 -22.331701 0.354912
88.207611 -65.174225 -22.331701 0.239128
101.690918 -65.174225 -22.331701 0.198772
115.174225 -65.174225 -22.331701 0.184810
128.657501 -65.174225 -22.331701 0.176198
142.140808 -65.174225 -22.331701 0.166833
155.624115 -65.174225 -22.331701 0.149706
169.107422 -65.174225 -22.331701 0.122551
182.590698 -65.174225 -22.331701 0.104456
196.074036 -65.174225 -22.331701 0.079733
209.557312 -65.174225 -22.331701 0.062661
223.040588 -65.174225 -22.331701 0.049065
236.523926 -65.174225 -22.331701 0.042648
250.007202 -65.174225 -22.331701 0.035669
263.490540 -65.174225 -22.331701 0.030130
276.973816 -65.174225 -22.331701 0.025443
290.457092 -65.174225 -22.331701 0.022143
303.940430 -65.174225 -22.331701 0.020913
317.423706 -65.174225 -22.331701 0.023025
330.907043 -65.174225 -22.331701 0.000000
344.390320 -65.174225 -22.331701 0.000000
-343.257996 -78.657501 -22.331701 0.000000
-329.774689 -78.657501 -22.331701 0.000000
-316.291382 -78.657501 -22.331701 0.000000
-302.808105 -78.657501 -22.331701 0.000000
-289.324799 -78.657501 -22.331701 0.000000
-275.841492 -78.657501 -22.331701 0.000000
-262.358185 -78.657501 -22.331701 0.000000
-248.874893 -78.657501 -22.331701 0.000000
-235.391602 -78.657501 -22.331701 0.000000
-221.908295 -78.657501 -22.331701 0.000000
-208.424988 -78.657501 -22.331701 0.814441
-194.941696 -78.657501 -22.331701 0.825792
-181.458389 -78.657501 -22.331701 0.732319
-167.975098 -78.657501 -22.331701 0.682804
-154.491791 -78.657501 -22.331701 0.637056
-141.008499 -78.657501 -22.331701 0.640112
-127.525192 -78.657501 -22.331701 0.000000
-114.041885 -78.657501 -22.331701 0.584683
-100.558594 -78.657501 -22.331701 0.564288
-87.075287 -78.657501 -22.331701 0.582317
-73.591980 -78.657501 -22.331701 0.605791
-60.108704 -78.657501 -22.331701 0.660310
-46.625397 -78.657501 -22.331701 0.716312
-33.142090 -78.657501 -22.331701 0.744293
-19.658783 -78.657501 -22.331701 0.749695
-6.175476 -78.657501 -22.331701 0.782668
7.307800 -78.657501 -22.331701 0.771943
20.791107 -78.657501 -22.331701 0.691983
34.274414 -78.657501 -22.331701 0.538010
47.757721 -78.657501 -22.331701 0.429000
61.240997 -78.657501 -22.331701 0.346339
74.724304 -78.657501 -22.331701 0.272111
88.207611 -78.657501 -22.331701 0.205344
101.690918 -78.657501 -22.331701 0.176418
115.174225 -78.657501 -22.331701 0.158634
128.657501 -78.657501 -22.331701 0.154047
142.140808 -78.657501 -22.331701 0.148350
155.624115 -78.657501 -22.331701 0.140185
169.107422 -78.657501 -22.331701 0.121661
182.590698 -78.657501 -22.331701 0.107747
196.074036 -78.657501 -22.331701 0.093624
209.557312 -78.657501 -22.331701 0.070588
223.040588 -78.657501 -22.331701 0.055258
236.523926 -78.657501 -22.331701 0.044674
250.007202 -78.657501 -22.331701 0.036017
263.490540 -78.657501 -22.331701 0.036070
276.973816 -78.657501 -22.331701 0.027319
290.457092 -78.657501 -22.331701 0.024348
303.940430 -78.657501 -22.331701 0.023298
317.423706 -78.657501 -22.331701 0.023677
330.907043 -78.657501 -22.331701 0.000000
344.390320 -78.657501 -22.331701 0.000000
-343.257996 -92.140808 -22.331701 0.000000
-329.774689 -92.140808 -22.331701 0.000000
-316.291382 -92.140808 -22.331701 0.000000
-302.808105 -92.140808 -22.331701 0.000000
-289.324799 -92.140808 -22.331701 0.000000
-275.841492 -92.140808 -22.331701 0.000000
-262.358185 -92.140808 -22.331701 0.000000
-248.874893 -92.140808 -22.331701 0.000000
-235.391602 -92.140808 -22.331701 0.000000
-221.908295 -92.140808 -22.331701 0.000000
-208.424988 -92.140808 -22.331701 0.000000
-194.941696 -92.140808 -22.331701 0.802889
-181.458389 -92.140808 -22.331701 0.000000
-167.975098 -92.140808 -22.331701 0.000000
-154.491791 -92.140808 -22.331701 0.000000
-141.008499 -92.140808 -22.331701 0.668473
-127.525192 -92.140808 -22.331701 0.000000
-114.041885 -92.140808 -22.331701 0.603065
-100.558594 -92.140808 -22.331701 0.574920
-87.075287 -92.140808 -22.331701 0.617078
-73.591980 -92.140808 -22.331701 0.633173
-60.108704 -92.140808 -22.331701 0.688980
-46.625397 -92.140808 -22.331701 0.731233
-33.142090 -92.140808 -22.331701 0.729470
-19.658783 -92.140808 -22.331701 0.722077
-6.175476 -92.140808 -22.331701 0.696502
7.307800 -92.140808 -22.331701 0.671288
20.791107 -92.140808 -22.331701 0.569255
34.274414 -92.140808 -22.331701 0.453497
47.757721 -92.140808 -22.331701 0.364468
61.240997 -92.140808 -22.331701 0.291067
74.724304 -92.140808 -22.331701 0.245622
88.207611 -92.140808 -22.331701 0.181664
101.690918 -92.140808 -22.331701 0.161883
115.174225 -92.140808 -22.331701 0.151569
128.657501 -92.140808 -22.331701 0.149401
142.140808 -92.140808 -22.331701 0.137804
155.624115 -92.140808 -22.331701 0.131617
169.107422 -92.140808 -22.331701 0.125568
182.590698 -92.140808 -22.331701 0.119314
196.074036 -92.140808 -22.331701 0.100939
209.557312 -92.140808 -22.331701 0.081100
223.040588 -92.140808 -22.331701 0.062765
236.523926 -92.140808 -22.331701 0.051727
250.007202 -92.140808 -22.331701 0.040397
263.490540 -92.140808 -22.331701 0.040780
276.973816 -92.140808 -22.331701 0.034972
290.457092 -92.140808 -22.331701 0.031784
303.940430 -92.140808 -22.331701 0.029801
317.423706 -92.140808 -22.331701 0.028985
330.907043 -92.140808 -22.331701 0.000000
344.390320 -92.140808 -22.331701 0.000000
-343.257996 -105.624115 -22.331701 0.000000
-329.774689 -105.624115 -22.331701 0.000000
-316.291382 -105.624115 -22.331701 0.000000
-302.808105 -105.624115 -22.331701 0.000000
-289.324799 -105.624115 -22.331701 0.000000
-275.841492 -105.624115 -22.331701 0.000000
-262.358185 -105.624115 -22.331701 0.000000
-248.874893 -105.624115 -22.331701 0.000000
-235.391602 -105.624115 -22.331701 0.000000
-221.908295 -105.624115 -22.331701 0.000000
-208.424988 -105.624115 -22.331701 0.000000
-194.941696 -105.624115 -22.331701 0.814037
-181.458389 -105.624115 -22.331701 0.000000
-167.975098 -105.624115 -22.331701 0.000000
-154.491791 -105.624115 -22.331701 0.000000
-141.008499 -105.624115 -22.331701 0.658131
-127.525192 -105.624115 -22.331701 0.000000
-114.041885 -105.624115 -22.331701 0.000000
-100.558594 -105.624115 -22.331701 0.569309
-87.075287 -105.624115 -22.331701 0.000000
-73.591980 -105.624115 -22.331701 0.000000
-60.108704 -105.624115 -22.331701 0.000000
-46.625397 -105.624115 -22.331701 0.648944
-33.142090 -105.624115 -22.331701 0.702430
-19.658783 -105.624115 -22.331701 0.669965
-6.175476 -105.624115 -22.331701 0.617306
7.307800 -105.624115 -22.331701 0.556101
20.791107 -105.624115 -22.331701 0.472470
34.274414 -105.624115 -22.331701 0.400495
47.757721 -105.624115 -22.331701 0.309527
61.240997 -105.624115 -22.331701 0.263221
74.724304 -105.624115 -22.331701 0.227263
88.207611 -105.624115 -22.331701 0.186998
101.690918 -105.624115 -22.331701 0.159936
115.174225 -105.624115 -22.331701 0.148799
128.657501 -105.624115 -22.331701 0.140396
142.140808 -105.624115 -22.331701 0.131214
155.624115 -105.624115 -22.331701 0.133316
169.107422 -105.624115 -22.331701 0.134958
182.590698 -105.624115 -22.331701 0.123157
196.074036 -105.624115 -22.331701 0.113504
209.557312 -105.624115 -22.331701 0.093298
223.040588 -105.624115 -22.331701 0.070434
236.523926 -105.624115 -22.331701 0.062250
250.007202 -105.624115 -22.331701 0.051298
263.490540 -105.624115 -22.331701 0.042223
276.973816 -105.624115 -22.331701 0.041850
290.457092 -105.624115 -22.331701 0.037215
303.940430 -105.624115 -22.331701 0.035898
317.423706 -105.624115 -22.331701 0.040682
330.907043 -105.624115 -22.331701 0.000000
344.390320 -105.624115 -22.331701 0.000000
-343.257996 -119.107422 -22.331701 0.000000
-329.774689 -119.107422 -22.331701 0.000000
-316.291382 -119.107422 -22.331701 0.000000
-302.808105 -119.107422 -22.331701 0.000000
-289.324799 -119.107422 -22.331701 0.000000
-275.841492 -119.107422 -22.331701 0.000000
-262.358185 -119.107422 -22.331701 0.000000
-248.874893 -119.107422 -22.331701 0.000000
-235.391602 -119.107422 -22.331701 0.000000
-221.908295 -119.107422 -22.331701 0.000000
-208.424988 -119.107422 -22.331701 0.000000
-194.941696 -119.107422 -22.331701 0.000000
-181.458389 -119.107422 -22.331701 0.000000
-167.975098 -119.107422 -22.331701 0.000000
-154.491791 -119.107422 -22.331701 0.685454
-141.008499 -119.107422 -22.331701 0.637049
-127.525192 -119.107422 -22.331701 0.000000
-114.041885 -119.107422 -22.331701 0.000000
-100.558594 -119.107422 -22.331701 0.580180
-87.075287 -119.107422 -22.331701 0.000000
-73.591980 -119.107422 -22.331701 0.590853
-60.108704 -119.107422 -22.331701 0.000000
-46.625397 -119.107422 -22.331701 0.616431
-33.142090 -119.107422 -22.331701 0.632261
-19.658783 -119.107422 -22.331701 0.643357
-6.175476 -119.107422 -22.331701 0.563984
7.307800 -119.107422 -22.331701 0.503412
20.791107 -119.107422 -22.331701 0.385872
34.274414 -119.107422 -22.331701 0.346669
47.757721 -119.107422 -22.331701 0.308741
61.240997 -119.107422 -22.331701 0.242241
74.724304 -119.107422 -22.331701 0.213935
88.207611 -119.107422 -22.331701 0.184515
101.690918 -119.107422 -22.331701 0.172416
115.174225 -119.107422 -22.331701 0.158187
128.657501 -119.107422 -22.331701 0.153426
142.140808 -119.107422 -22.331701 0.142106
155.624115 -119.107422 -22.331701 0.137377
169.107422 -119.107422 -22.331701 0.134907
182.590698 -119.107422 -22.331701 0.127768
196.074036 -119.107422 -22.331701 0.122054
209.557312 -119.107422 -22.331701 0.108575
223.040588 -119.107422 -22.331701 0.093767
236.523926 -119.107422 -22.331701 0.079810
250.007202 -119.107422 -22.331701 0.066690
263.490540 -119.107422 -22.331701 0.060890
276.973816 -119.107422 -22.331701 0.056597
290.457092 -119.107422 -22.331701 0.049414
303.940430 -119.107422 -22.331701 0.051388
317.423706 -119.107422 -22.331701 0.049024
330.907043 -119.107422 -22.331701 0.000000
344.390320 -119.107422 -22.331701 0.000000
-343.257996 -132.590698 -22.331701 0.000000
-329.774689 -132.590698 -22.331701 0.000000
-316.291382 -132.590698 -22.331701 0.000000
-302.808105 -132.590698 -22.331701 0.000000
-289.324799 -132.590698 -22.331701 0.000000
-275.841492 -132.590698 -22.331701 0.000000
-262.358185 -132.590698 -22.331701 0.000000
-248.874893 -132.590698 -22.331701 0.000000
-235.391602 -132.590698 -22.331701 0.000000
-221.908295 -132.590698 -22.331701 0.000000
-208.424988 -132.590698 -22.331701 0.000000
-194.941696 -132.590698 -22.331701 0.000000
-181.458389 -132.590698 -22.331701 0.832776
-167.975098 -132.590698 -22.331701 0.776204
-154.491791 -132.590698 -22.331701 0.701365
-141.008499 -132.590698 -22.331701 0.669637
-127.525192 -132.590698 -22.331701 0.642138
-114.041885 -132.590698 -22.331701 0.606485
-100.558594 -132.590698 -22.331701 0.605156
-87.075287 -132.590698 -22.331701 0.607428
-73.591980 -132.590698 -22.331701 0.624877
-60.108704 -132.590698 -22.331701 0.000000
-46.625397 -132.590698 -22.331701 0.000000
-33.142090 -132.590698 -22.331701 0.000000
-19.658783 -132.590698 -22.331701 0.596306
-6.175476 -132.590698 -22.331701 0.000000
7.307800 -132.590698 -22.331701 0.000000
20.791107 -132.590698 -22.331701 0.373711
34.274414 -132.590698 -22.331701 0.000000
47.757721 -132.590698 -22.331701 0.278099
61.240997 -132.590698 -22.331701 0.241575
74.724304 -132.590698 -22.331701 0.218896
88.207611 -132.590698 -22.331701 0.201716
101.690918 -132.590698 -22.331701 0.186780
115.174225 -132.590698 -22.331701 0.183595
128.657501 -132.590698 -22.331701 0.177227
142.140808 -132.590698 -22.331701 0.154428
155.624115 -132.590698 -22.331701 0.140176
169.107422 -132.590698 -22.331701 0.139829
182.590698 -132.590698 -22.331701 0.136841
196.074036 -132.590698 -22.331701 0.132408
209.557312 -132.590698 -22.331701 0.124225
223.040588 -132.590698 -22.331701 0.119686
236.523926 -132.590698 -22.331701 0.107839
250.007202 -132.590698 -22.331701 0.086734
263.490540 -132.590698 -22.331701 0.077173
276.973816 -132.590698 -22.331701 0.074623
290.457092 -132.590698 -22.331701 0.075132
303.940430 -132.590698 -22.331701 0.000000
317.423706 -132.590698 -22.331701 0.000000
330.907043 -132.590698 -22.331701 0.000000
344.390320 -132.590698 -22.331701 0.000000
-343.257996 -146.074036 -22.331701 0.000000
-329.774689 -146.074036 -22.331701 0.000000
-316.291382 -146.074036 -22.331701 0.000000
-302.808105 -146.074036 -22.331701 0.000000
-289.324799 -146.074036 -22.331701 0.000000
-275.841492 -146.074036 -22.331701 0.000000
-262.358185 -146.074036 -22.331701 0.000000
-248.874893 -146.074036 -22.331701 0.000000
-235.391602 -146.074036 -22.331701 0.000000
-221.908295 -146.074036 -22.331701 0.000000
-208.424988 -146.074036 -22.331701 0.000000
-194.941696 -146.074036 -22.331701 0.000000
-181.458389 -146.074036 -22.331701 0.000000
-167.975098 -146.074036 -22.331701 0.000000
-154.491791 -146.074036 -22.331701 0.000000
-141.008499 -146.074036 -22.331701 0.000000
-127.525192 -146.074036 -22.331701 0.000000
-114.041885 -146.074036 -22.331701 0.000000
-100.558594 -146.074036 -22.331701 0.000000
-87.075287 -146.074036 -22.331701 0.000000
-73.591980 -146.074036 -22.331701 0.000000
-60.108704 -146.074036 -22.331701 0.000000
-46.625397 -146.074036 -22.331701 0.000000
-33.142090 -146.074036 -22.331701 0.000000
-19.658783 -146.074036 -22.331701 0.000000
-6.175476 -146.074036 -22.331701 0.000000
7.307800 -146.074036 -22.331701 0.000000
20.791107 -146.074036 -22.331701 0.000000
34.274414 -146.074036 -22.331701 0.000000
47.757721 -146.074036 -22.331701 0.000000
61.240997 -146.074036 -22.331701 0.000000
74.724304 -146.074036 -22.331701 0.000000
88.207611 -146.074036 -22.331701 0.000000
101.690918 -146.074036 -22.331701 0.000000
115.174225 -146.074036 -22.331701 0.000000
128.657501 -146.074036 -22.331701 0.183973
142.140808 -146.074036 -22.331701 0.166627
155.624115 -146.074036 -22.331701 0.154598
169.107422 -146.074036 -22.331701 0.146246
182.590698 -146.074036 -22.331701 0.153290
196.074036 -146.074036 -22.331701 0.145065
209.557312 -146.074036 -22.331701 0.143590
223.040588 -146.074036 -22.331701 0.139867
236.523926 -146.074036 -22.331701 0.000000
250.007202 -146.074036 -22.331701 0.130463
263.490540 -146.074036 -22.331701 0.118842
276.973816 -146.074036 -22.331701 0.000000
290.457092 -146.074036 -22.331701 0.000000
303.940430 -146.074036 -22.331701 0.000000
317.423706 -146.074036 -22.331701 0.000000
330.907043 -146.074036 -22.331701 0.000000
344.390320 -146.074036 -22.331701 0.000000
-343.257996 -159.557312 -22.331701 0.000000
-329.774689 -159.557312 -22.331701 0.000000
-316.291382 -159.557312 -22.331701 0.000000
-302.808105 -159.557312 -22.331701 0.000000
-289.324799 -159.557312 -22.331701 0.000000
-275.841492 -159.557312 -22.331701 0.000000
-262.358185 -159.557312 -22.331701 0.000000
-248.874893 -159.557312 -22.331701 0.000000
-235.391602 -159.557312 -22.331701 0.000000
-221.908295 -159.557312 -22.331701 0.000000
-208.424988 -159.557312 -22.331701 0.000000
-194.941696 -159.557312 -22.331701 0.000000
-181.458389 -159.557312 -22.331701 0.000000
-167.975098 -159.557312 -22.331701 0.000000
-154.491791 -159.557312 -22.331701 0.000000
-141.008499 -159.557312 -22.331701 0.000000
-127.525192 -159.557312 -22.331701 0.000000
-114.041885 -159.557312 -22.331701 0.000000
-100.558594 -159.557312 -22.331701 0.000000
-87.075287 -159.557312 -22.331701 0.000000
-73.591980 -159.557312 -22.331701 0.000000
-60.108704 -159.557312 -22.331701 0.000000
-46.625397 -159.557312 -22.331701 0.000000
-33.142090 -159.557312 -22.331701 0.000000
-19.658783 -159.557312 -22.331701 0.000000
-6.175476 -159.557312 -22.331701 0.000000
7.307800 -159.557312 -22.331701 0.000000
20.791107 -159.557312 -22.331701 0.000000
34.274414 -159.557312 -22.331701 0.000000
47.757721 -159.557312 -22.331701 0.000000
61.240997 -159.557312 -22.331701 0.000000
74.724304 -159.557312 -22.331701 0.000000
88.207611 -159.557312 -22.331701 0.000000
101.690918 -159.557312 -22.331701 0.000000
115.174225 -159.557312 -22.331701 0.000000
128.657501 -159.557312 -22.331701 0.000000
142.140808 -159.557312 -22.331701 0.000000
155.624115 -159.557312 -22.331701 0.000000
169.107422 -159.557312 -22.331701 0.000000
182.590698 -159.557312 -22.331701 0.000000
196.074036 -159.557312 -22.331701 0.000000
209.557312 -159.557312 -22.331701 0.000000
223.040588 -159.557312 -22.331701 0.000000
236.523926 -159.557312 -22.331701 0.000000
250.007202 -159.557312 -22.331701 0.000000
263.490540 -159.557312 -22.331701 0.000000
276.973816 -159.557312 -22.331701 0.000000
290.457092 -159.557312 -22.331701 0.000000
303.940430 -159.557312 -22.331701 0.000000
317.423706 -159.557312 -22.331701 0.000000
330.907043 -159.557312 -22.331701 0.000000
344.390320 -159.557312 -22.331701 0.000000
-343.257996 -173.040588 -22.331701 0.000000
-329.774689 -173.040588 -22.331701 0.000000
-316.291382 -173.040588 -22.331701 0.000000
-302.808105 -173.040588 -22.331701 0.000000
-289.324799 -173.040588 -22.331701 0.000000
-275.841492 -173.040588 -22.331701 0.000000
-262.358185 -173.040588 -22.331701 0.000000
-248.874893 -173.040588 -22.331701 0.000000
-235.391602 -173.040588 -22.331701 0.000000
-221.908295 -173.040588 -22.331701 0.000000
-208.424988 -173.040588 -22.331701 0.000000
-194.941696 -173.040588 -22.331701 0.000000
-181.458389 -173.040588 -22.331701 0.000000
-167.975098 -173.040588 -22.331701 0.000000
-154.491791 -173.040588 -22.331701 0.000000
-141.008499 -173.040588 -22.331701 0.000000
-127.525192 -173.040588 -22.331701 0.000000
-114.041885 -173.040588 -22.331701 0.000000
-100.558594 -173.040588 -22.331701 0.000000
-87.075287 -173.040588 -22.331701 0.000000
-73.591980 -173.040588 -22.331701 0.000000
-60.108704 -173.040588 -22.331701 0.000000
-46.625397 -173.040588 -22.331701 0.000000
-33.142090 -173.040588 -22.331701 0.000000
-19.658783 -173.040588 -22.331701 0.000000
-6.175476 -173.040588 -22.331701 0.000000
7.307800 -173.040588 -22.331701 0.000000
20.791107 -173.040588 -22.331701 0.000000
34.274414 -173.040588 -22.331701 0.000000
47.757721 -173.040588 -22.331701 0.000000
61.240997 -173.040588 -22.331701 0.000000
74.724304 -173.040588 -22.331701 0.000000
88.207611 -173.040588 -22.331701 0.000000
101.690918 -173.040588 -22.331701 0.000000
115.174225 -173.040588 -22.331701 0.000000
128.657501 -173.040588 -22.331701 0.000000
142.140808 -173.040588 -22.331701 0.000000
155.624115 -173.040588 -22.331701 0.000000
169.107422 -173.040588 -22.331701 0.000000
182.590698 -173.040588 -22.331701 0.000000
196.074036 -173.040588 -22.331701 0.000000
209.557312 -173.040588 -22.331701 0.000000
223.040588 -173.040588 -22.331701 0.000000
236.523926 -173.040588 -22.331701 0.000000
250.007202 -173.040588 -22.331701 0.000000
263.490540 -173.040588 -22.331701 0.000000
276.973816 -173.040588 -22.331701 0.000000
290.457092 -173.040588 -22.331701 0.000000
303.940430 -173.040588 -22.331701 0.000000
317.423706 -173.040588 -22.331701 0.000000
330.907043 -173.040588 -22.331701 0.000000
344.390320 -173.040588 -22.331701 0.000000
-343.257996 -186.523926 -22.331701 0.000000
-329.774689 -186.523926 -22.331701 0.000000
-316.291382 -186.523926 -22.331701 0.000000
-302.808105 -186.523926 -22.331701 0.000000
-289.324799 -186.523926 -22.331701 0.000000
-275.841492 -186.523926 -22.331701 0.000000
-262.358185 -186.523926 -22.331701 0.000000
-248.874893 -186.523926 -22.331701 0.000000
-235.391602 -186.523926 -22.331701 0.000000
-221.908295 -186.523926 -22.331701 0.000000
-208.424988 -186.523926 -22.331701 0.000000
-194.941696 -186.523926 -22.331701 0.000000
-181.458389 -186.523926 -22.331701 0.000000
-167.975098 -186.523926 -22.331701 0.000000
-154.491791 -186.523926 -22.331701 0.000000
-141.008499 -186.523926 -22.331701 0.000000
-127.525192 -186.523926 -22.331701 0.000000
-114.041885 -186.523926 -22.331701 0.000000
-100.558594 -186.523926 -22.331701 0.000000
-87.075287 -186.523926 -22.331701 0.000000
-73.591980 -186.523926 -22.331701 0.000000
-60.108704 -186.523926 -22.331701 0.000000
-46.625397 -186.523926 -22.331701 0.000000
-33.142090 -186.523926 -22.331701 0.000000
-19.658783 -186.523926 -22.331701 0.000000
-6.175476 -186.523926 -22.331701 0.000000
7.307800 -186.523926 -22.331701 0.000000
20.791107 -186.523926 -22.331701 0.000000
34.274414 -186.523926 -22.331701 0.000000
47.757721 -186.523926 -22.331701 0.000000
61.240997 -186.523926 -22.331701 0.000000
74.724304 -186.523926 -22.331701 0.000000
88.207611 -186.523926 -22.331701 0.000000
101.690918 -186.523926 -22.331701 0.000000
115.174225 -186.523926 -22.331701 0.000000
128.657501 -186.523926 -22.331701 0.000000
142.140808 -186.523926 -22.331701 0.000000
155.624115 -186.523926 -22.331701 0.000000
169.107422 -186.523926 -22.331701 0.000000
182.590698 -186.523926 -22.331701 0.000000
196.074036 -186.523926 -22.331701 0.000000
209.557312 -186.523926 -22.331701 0.000000
223.040588 -186.523926 -22.331701 0.000000
236.523926 -186.523926 -22.331701 0.000000
250.007202 -186.523926 -22.331701 0.000000
263.490540 -186.523926 -22.331701 0.000000
276.973816 -186.523926 -22.331701 0.000000
290.457092 -186.523926 -22.331701 0.000000
303.940430 -186.523926 -22.331701 0.000000
317.423706 -186.523926 -22.331701 0.000000
330.907043 -186.523926 -22.331701 0.000000
344.390320 -186.523926 -22.331701 0.000000
-343.257996 -200.007202 -22.331701 0.000000
-329.774689 -200.007202 -22.331701 0.000000
-316.291382 -200.007202 -22.331701 0.000000
-302.808105 -200.007202 -22.331701 0.000000
-289.324799 -200.007202 -22.331701 0.000000
-275.841492 -200.007202 -22.331701 0.000000
-262.358185 -200.007202 -22.331701 0.000000
-248.874893 -200.007202 -22.331701 0.000000
-235.391602 -200.007202 -22.331701 0.000000
-221.908295 -200.007202 -22.331701 0.000000
-208.424988 -200.007202 -22.331701 0.000000
-194.941696 -200.007202 -22.331701 0.000000
-181.458389 -200.007202 -22.331701 0.000000
-167.975098 -200.007202 -22.331701 0.000000
-154.491791 -200.007202 -22.331701 0.000000
-141.008499 -200.007202 -22.331701 0.000000
-127.525192 -200.007202 -22.331701 0.000000
-114.041885 -200.007202 -22.331701 0.000000
-100.558594 -200.007202 -22.331701 0.000000
-87.075287 -200.007202 -22.331701 0.000000
-73.591980 -200.007202 -22.331701 0.000000
-60.108704 -200.007202 -22.331701 0.000000
-46.625397 -200.007202 -22.331701 0.000000
-33.142090 -200.007202 -22.331701 0.000000
-19.658783 -200.007202 -22.331701 0.000000
-6.175476 -200.007202 -22.331701 0.000000
7.307800 -200.007202 -22.331701 0.000000
20.791107 -200.007202 -22.331701 0.000000
34.274414 -200.007202 -22.331701 0.000000
47.757721 -200.007202 -22.331701 0.000000
61.240997 -200.007202 -22.331701 0.000000
74.724304 -200.007202 -22.331701 0.000000
88.207611 -200.007202 -22.331701 0.000000
101.690918 -200.007202 -22.331701 0.000000
115.174225 -200.007202 -22.331701 0.000000
128.657501 -200.007202 -22.331701 0.000000
142.140808 -200.007202 -22.331701 0.000000
155.624115 -200.007202 -22.331701 0.000000
169.107422 -200.007202 -22.331701 0.000000
182.590698 -200.007202 -22.331701 0.000000
196.074036 -200.007202 -22.331701 0.000000
209.557312 -200.007202 -22.331701 0.000000
223.040588 -200.007202 -22.331701 0.000000
236.523926 -200.007202 -22.331701 0.000000
250.007202 -200.007202 -22.331701 0.000000
263.490540 -200.007202 -22.331701 0.000000
276.973816 -200.007202 -22.331701 0.000000
290.457092 -200.007202 -22.331701 0.000000
303.940430 -200.007202 -22.331701 0.000000
317.423706 -200.007202 -22.331701 0.000000
330.907043 -200.007202 -22.331701 0.000000
344.390320 -200.007202 -22.331701 0.000000
-343.257996 393.257996 -8.848400 0.000000
-329.774689 393.257996 -8.848400 0.000000
-316.291382 393.257996 -8.848400 0.000000
-302.808105 393.257996 -8.848400 0.000000
-289.324799 393.257996 -8.848400 0.000000
-275.841492 393.257996 -8.848400 0.000000
-262.358185 393.257996 -8.848400 0.000000
-248.874893 393.257996 -8.848400 0.000000
-235.391602 393.257996 -8.848400 0.000000
-221.908295 393.257996 -8.848400 0.000000
-208.424988 393.257996 -8.848400 0.000000
-194.941696 393.257996 -8.848400 0.000000
-181.458389 393.257996 -8.848400 0.000000
-167.975098 393.257996 -8.848400 0.000000
-154.491791 393.257996 -8.848400 0.000000
-141.008499 393.257996 -8.848400 0.000000
-127.525192 393.257996 -8.848400 0.000000
-114.041885 393.257996 -8.848400 0.000000
-100.558594 393.257996 -8.848400 0.000000
-87.075287 393.257996 -8.848400 0.000000
-73.591980 393.257996 -8.848400 0.000000
-60.108704 393.257996 -8.848400 0.000000
-46.625397 393.257996 -8.848400 0.000000
-33.142090 393.257996 -8.848400 0.000000
-19.658783 393.257996 -8.848400 0.000000
-6.175476 393.257996 -8.848400 0.000000
7.307800 393.257996 -8.848400 0.000000
20.791107 393.257996 -8.848400 0.000000
34.274414 393.257996 -8.848400 0.000000
47.757721 393.257996 -8.848400 0.000000
61.240997 393.257996 -8.848400 0.000000
74.724304 393.257996 -8.848400 0.000000
88.207611 393.257996 -8.848400 0.000000
101.690918 393.257996 -8.848400 0.000000
115.174225 393.257996 -8.848400 0.000000
128.657501 393.257996 -8.848400 0.000000
142.140808 393.257996 -8.848400 0.000000
155.624115 393.257996 -8.848400 0.000000
169.107422 393.257996 -8.848400 0.000000
182.590698 393.257996 -8.848400 0.000000
196.074036 393.257996 -8.848400 0.000000
209.557312 393.257996 -8.848400 0.000000
223.040588 393.257996 -8.848400 0.000000
236.523926 393.257996 -8.848400 0.000000
250.007202 393.257996 -8.848400 0.000000
263.490540 393.257996 -8.848400 0.000000
276.973816 393.257996 -8.848400 0.000000
290.457092 393.257996 -8.848400 0.000000
303.940430 393.257996 -8.848400 0.000000
317.423706 393.257996 -8.848400 0.000000
330.907043 393.257996 -8.848400 0.000000
344.390320 393.257996 -8.848400 0.000000
-343.257996 379.774689 -8.848400 0.000000
-329.774689 379.774689 -8.848400 0.000000
-316.291382 379.774689 -8.848400 0.000000
-302.808105 379.774689 -8.848400 0.000000
-289.324799 379.774689 -8.848400 0.000000
-275.841492 379.774689 -8.848400 0.000000
-262.358185 379.774689 -8.848400 0.000000
-248.874893 379.774689 -8.848400 0.000000
-235.391602 379.774689 -8.848400 0.000000
-221.908295 379.774689 -8.848400 0.000000
-208.424988 379.774689 -8.848400 0.000000
-194.941696 379.774689 -8.848400 0.000000
-181.458389 379.774689 -8.848400 0.000000
-167.975098 379.774689 -8.848400 0.000000
-154.491791 379.774689 -8.848400 0.000000
-141.008499 379.774689 -8.848400 0.000000
-127.525192 379.774689 -8.848400 0.000000
-114.041885 379.774689 -8.848400 0.000000
-100.558594 379.774689 -8.848400 0.000000
-87.075287 379.774689 -8.848400 0.000000
-73.591980 379.774689 -8.848400 0.000000
-60.108704 379.774689 -8.848400 0.000000
-46.625397 379.774689 -8.848400 0.000000
-33.142090 379.774689 -8.848400 0.000000
-19.658783 379.774689 -8.848400 0.000000
-6.175476 379.774689 -8.848400 0.000000
7.307800 379.774689 -8.848400 0.000000
20.791107 379.774689 -8.848400 0.000000
34.274414 379.774689 -8.848400 0.000000
47.757721 379.774689 -8.848400 0.000000
61.240997 379.774689 -8.848400 0.000000
74.724304 379.774689 -8.848400 0.000000
88.207611 379.774689 -8.848400 0.000000
101.690918 379.774689 -8.848400 0.000000
115.174225 379.774689 -8.848400 0.000000
128.657501 379.774689 -8.848400 0.000000
142.140808 379.774689 -8.848400 0.000000
155.624115 379.774689 -8.848400 0.000000
169.107422 379.774689 -8.848400 0.000000
182.590698 379.774689 -8.848400 0.000000
196.074036 379.774689 -8.848400 0.000000
209.557312 379.774689 -8.848400 0.000000
223.040588 379.774689 -8.848400 0.000000
236.523926 379.774689 -8.848400 0.000000
250.007202 379.774689 -8.848400 0.000000
263.490540 379.774689 -8.848400 0.000000
276.973816 379.774689 -8.848400 0.000000
290.457092 379.774689 -8.848400 0.000000
303.940430 379.774689 -8.848400 0.000000
317.423706 379.774689 -8.848400 0.000000
330.907043 379.774689 -8.848400 0.000000
344.390320 379.774689 -8.848400 0.000000
-343.257996 366.291382 -8.848400 0.000000
-329.774689 366.291382 -8.848400 0.000000
-316.291382 366.291382 -8.848400 0.000000
-302.808105 366.291382 -8.848400 0.000000
-289.324799 366.291382 -8.848400 0.000000
-275.841492 366.291382 -8.848400 0.000000
-262.358185 366.291382 -8.848400 0.000000
-248.874893 366.291382 -8.848400 0.000000
-235.391602 366.291382 -8.848400 0.000000
-221.908295 366.291382 -8.848400 0.000000
-208.424988 366.291382 -8.848400 0.000000
-194.941696 366.291382 -8.848400 0.000000
-181.458389 366.291382 -8.848400 0.000000
-167.975098 366.291382 -8.848400 0.000000
-154.491791 366.291382 -8.848400 0.000000
-141.008499 366.291382 -8.848400 0.000000
-127.525192 366.291382 -8.848400 0.000000
-114.041885 366.291382 -8.848400 0.000000
-100.558594 366.291382 -8.848400 0.000000
-87.075287 366.291382 -8.848400 0.000000
-73.591980 366.291382 -8.848400 0.000000
-60.108704 366.291382 -8.848400 0.000000
-46.625397 366.291382 -8.848400 0.000000
-33.142090 366.291382 -8.848400 0.000000
-19.658783 366.291382 -8.848400 0.000000
-6.175476 366.291382 -8.848400 0.000000
7.307800 366.291382 -8.848400 0.000000
20.791107 366.291382 -8.848400 0.000000
34.274414 366.291382 -8.848400 0.000000
47.757721 366.291382 -8.848400 0.000000
61.240997 366.291382 -8.848400 0.000000
74.724304 366.291382 -8.848400 0.000000
88.207611 366.291382 -8.848400 0.000000
101.690918 366.291382 -8.848400 0.000000
115.174225 366.291382 -8.848400 0.000000
128.657501 366.291382 -8.848400 0.000000
142.140808 366.291382 -8.848400 0.000000
155.624115 366.291382 -8.848400 0.000000
169.107422 366.291382 -8.848400 0.000000
182.590698 366.291382 -8.848400 0.000000
196.074036 366.291382 -8.848400 0.000000
209.557312 366.291382 -8.848400 0.000000
223.040588 366.291382 -8.848400 0.000000
236.523926 366.291382 -8.848400 0.000000
250.007202 366.291382 -8.848400 0.000000
263.490540 366.291382 -8.848400 0.000000
276.973816 366.291382 -8.848400 0.000000
290.457092 366.291382 -8.848400 0.000000
303.940430 366.291382 -8.848400 0.000000
317.423706 366.291382 -8.848400 0.000000
330.907043 366.291382 -8.848400 0.000000
344.390320 366.291382 -8.848400 0.000000
-343.257996 352.808105 -8.848400 0.000000
-329.774689 352.808105 -8.848400 0.000000
-316.291382 352.808105 -8.848400 0.000000
-302.808105 352.808105 -8.848400 0.000000
-289.324799 352.808105 -8.848400 0.000000
-275.841492 352.808105 -8.848400 0.000000
-262.358185 352.808105 -8.848400 0.000000
-248.874893 352.808105 -8.848400 0.000000
-235.391602 352.808105 -8.848400 0.000000
-221.908295 352.808105 -8.848400 0.000000
-208.424988 352.808105 -8.848400 0.000000
-194.941696 352.808105 -8.848400 0.000000
-181.458389 352.808105 -8.848400 0.000000
-167.975098 352.808105 -8.848400 0.000000
-154.491791 352.808105 -8.848400 0.000000
-141.008499 352.808105 -8.848400 0.000000
-127.525192 352.808105 -8.848400 0.000000
-114.041885 352.808105 -8.848400 0.000000
-100.558594 352.808105 -8.848400 0.000000
-87.075287 352.808105 -8.848400 0.000000
-73.591980 352.808105 -8.848400 0.000000
-60.108704 352.808105 -8.848400 0.000000
-46.625397 352.808105 -8.848400 0.000000
-33.142090 352.808105 -8.848400 0.000000
-19.658783 352.808105 -8.848400 0.000000
-6.175476 352.808105 -8.848400 0.000000
7.307800 352.808105 -8.848400 0.000000
20.791107 352.808105 -8.848400 0.000000
34.274414 352.808105 -8.848400 0.000000
47.757721 352.808105 -8.848400 0.000000
61.240997 352.808105 -8.848400 0.000000
74.724304 352.808105 -8.848400 0.000000
88.207611 352.808105 -8.848400 0.000000
101.690918 352.808105 -8.848400 0.000000
115.174225 352.808105 -8.848400 0.000000
128.657501 352.808105 -8.848400 0.000000
142.140808 352.808105 -8.848400 0.000000
155.624115 352.808105 -8.848400 0.000000
169.107422 352.808105 -8.848400 0.000000
182.590698 352.808105 -8.848400 0.000000
196.074036 352.808105 -8.848400 0.000000
209.557312 352.808105 -8.848400 0.000000
223.040588 352.808105 -8.848400 0.000000
236.523926 352.808105 -8.848400 0.000000
250.007202 352.808105 -8.848400 0.000000
263.490540 352.808105 -8.848400 0.000000
276.973816 352.808105 -8.848400 0.000000
290.457092 352.808105 -8.848400 0.000000
303.940430 352.808105 -8.848400 0.000000
317.423706 352.808105 -8.848400 0.000000
330.907043 352.808105 -8.848400 0.000000
344.390320 352.808105 -8.848400 0.000000
-343.257996 339.324799 -8.848400 0.000000
-329.774689 339.324799 -8.848400 0.000000
-316.291382 339.324799 -8.848400 0.000000
-302.808105 339.324799 -8.848400 0.000000
-289.324799 339.324799 -8.848400 0.000000
-275.841492 339.324799 -8.848400 0.000000
-262.358185 339.324799 -8.848400 0.000000
-248.874893 339.324799 -8.848400 0.000000
-235.391602 339.324799 -8.848400 0.000000
-221.908295 339.324799 -8.848400 0.000000
-208.424988 339.324799 -8.848400 0.000000
-194.941696 339.324799 -8.848400 0.000000
-181.458389 339.324799 -8.848400 0.000000
-167.975098 339.324799 -8.848400 0.000000
-154.491791 339.324799 -8.848400 0.000000
-141.008499 339.324799 -8.848400 0.000000
-127.525192 339.324799 -8.848400 0.000000
-114.041885 339.324799 -8.848400 0.000000
-100.558594 339.324799 -8.848400 0.000000
-87.075287 339.324799 -8.848400 0.000000
-73.591980 339.324799 -8.848400 0.000000
-60.108704 339.324799 -8.848400 0.000000
-46.625397 339.324799 -8.848400 0.338856
-33.142090 339.324799 -8.848400 0.336802
-19.658783 339.324799 -8.848400 0.294138
-6.175476 339.324799 -8.848400 0.240093
7.307800 339.324799 -8.848400 0.206640
20.791107 339.324799 -8.848400 0.000000
34.274414 339.324799 -8.848400 0.000000
47.757721 339.324799 -8.848400 0.000000
61.240997 339.324799 -8.848400 0.000000
74.724304 339.324799 -8.848400 0.000000
88.207611 339.324799 -8.848400 0.000000
101.690918 339.324799 -8.848400 0.000000
115.174225 339.324799 -8.848400 0.000000
128.657501 339.324799 -8.848400 0.000000
142.140808 339.324799 -8.848400 0.000000
155.624115 339.324799 -8.848400 0.000000
169.107422 339.324799 -8.848400 0.000000
182.590698 339.324799 -8.848400 0.000000
196.074036 339.324799 -8.848400 0.000000
209.557312 339.324799 -8.848400 0.000000
223.040588 339.324799 -8.848400 0.000000
236.523926 339.324799 -8.848400 0.000000
250.007202 339.324799 -8.848400 0.000000
263.490540 339.324799 -8.848400 0.000000
276.973816 339.324799 -8.848400 0.000000
290.457092 339.324799 -8.848400 0.000000
303.940430 339.324799 -8.848400 0.000000
317.423706 339.324799 -8.848400 0.000000
330.907043 339.324799 -8.848400 0.000000
344.390320 339.324799 -8.848400 0.000000
-343.257996 325.841492 -8.848400 0.000000
-329.774689 325.841492 -8.848400 0.000000
-316.291382 325.841492 -8.848400 0.000000
-302.808105 325.841492 -8.848400 0.000000
-289.324799 325.841492 -8.848400 0.000000
-275.841492 325.841492 -8.848400 0.000000
-262.358185 325.841492 -8.848400 0.000000
-248.874893 325.841492 -8.848400 0.000000
-235.391602 325.841492 -8.848400 0.000000
-221.908295 325.841492 -8.848400 0.000000
-208.424988 325.841492 -8.848400 0.000000
-194.941696 325.841492 -8.848400 0.000000
-181.458389 325.841492 -8.848400 0.000000
-167.975098 325.841492 -8.848400 0.000000
-154.491791 325.841492 -8.848400 0.000000
-141.008499 325.841492 -8.848400 0.000000
-127.525192 325.841492 -8.848400 0.000000
-114.041885 325.841492 -8.848400 0.000000
-100.558594 325.841492 -8.848400 0.303005
-87.075287 325.841492 -8.848400 0.314902
-73.591980 325.841492 -8.848400 0.322106
-60.108704 325.841492 -8.848400 0.311939
-46.625397 325.841492 -8.848400 0.317887
-33.142090 325.841492 -8.848400 0.334858
-19.658783 325.841492 -8.848400 0.320407
-6.175476 325.841492 -8.848400 0.267208
7.307800 325.841492 -8.848400 0.227616
20.791107 325.841492 -8.848400 0.179315
34.274414 325.841492 -8.848400 0.000000
47.757721 325.841492 -8.848400 0.000000
61.240997 325.841492 -8.848400 0.000000
74.724304 325.841492 -8.848400 0.000000
88.207611 325.841492 -8.848400 0.000000
101.690918 325.841492 -8.848400 0.000000
115.174225 325.841492 -8.848400 0.000000
128.657501 325.841492 -8.848400 0.000000
142.140808 325.841492 -8.848400 0.000000
155.624115 325.841492 -8.848400 0.000000
169.107422 325.841492 -8.848400 0.000000
182.590698 325.841492 -8.848400 0.000000
196.074036 325.841492 -8.848400 0.000000
209.557312 325.841492 -8.848400 0.000000
223.040588 325.841492 -8.848400 0.000000
236.523926 325.841492 -8.848400 0.000000
250.007202 325.841492 -8.848400 0.000000
263.490540 325.841492 -8.848400 0.000000
276.973816 325.841492 -8.848400 0.000000
290.457092 325.841492 -8.848400 0.000000
303.940430 325.841492 -8.848400 0.000000
317.423706 325.841492 -8.848400 0.000000
330.907043 325.841492 -8.848400 0.000000
344.390320 325.841492 -8.848400 0.000000
-343.257996 312.358185 -8.848400 0.000000
-329.774689 312.358185 -8.848400 0.000000
-316.291382 312.358185 -8.848400 0.000000
-302.808105 312.358185 -8.848400 0.000000
-289.324799 312.358185 -8.848400 0.000000
-275.841492 312.358185 -8.848400 0.000000
-262.358185 312.358185 -8.848400 0.000000
-248.874893 312.358185 -8.848400 0.000000
-235.391602 312.358185 -8.848400 0.000000
-221.908295 312.358185 -8.848400 0.000000
-208.424988 312.358185 -8.848400 0.000000
-194.941696 312.358185 -8.848400 0.000000
-181.458389 312.358185 -8.848400 0.000000
-167.975098 312.358185 -8.848400 0.000000
-154.491791 312.358185 -8.848400 0.000000
-141.008499 312.358185 -8.848400 0.000000
-127.525192 312.358185 -8.848400 0.000000
-114.041885 312.358185 -8.848400 0.290380
-100.558594 312.358185 -8.848400 0.314101
-87.075287 312.358185 -8.848400 0.318267
-73.591980 312.358185 -8.848400 0.324477
-60.108704 312.358185 -8.848400 0.291942
-46.625397 312.358185 -8.848400 0.289458
-33.142090 312.358185 -8.848400 0.303200
-19.658783 312.358185 -8.848400 0.314046
-6.175476 312.358185 -8.848400 0.279837
7.307800 312.358185 -8.848400 0.247277
20.791107 312.358185 -8.848400 0.204353
34.274414 312.358185 -8.848400 0.168282
47.757721 312.358185 -8.848400 0.000000
61.240997 312.358185 -8.848400 0.000000
74.724304 312.358185 -8.848400 0.000000
88.207611 312.358185 -8.848400 0.000000
101.690918 312.358185 -8.848400 0.000000
115.174225 312.358185 -8.848400 0.000000
128.657501 312.358185 -8.848400 0.000000
142.140808 312.358185 -8.848400 0.000000
155.624115 312.358185 -8.848400 0.000000
169.107422 312.358185 -8.848400 0.000000
182.590698 312.358185 -8.848400 0.000000
196.074036 312.358185 -8.848400 0.000000
209.557312 312.358185 -8.848400 0.000000
223.040588 312.358185 -8.848400 0.000000
236.523926 312.358185 -8.848400 0.000000
250.007202 312.358185 -8.848400 0.000000
263.490540 312.358185 -8.848400 0.000000
276.973816 312.358185 -8.848400 0.000000
290.457092 312.358185 -8.848400 0.000000
303.940430 312.358185 -8.848400 0.000000
317.423706 312.358185 -8.848400 0.000000
330.907043 312.358185 -8.848400 0.000000
344.390320 312.358185 -8.848400 0.000000
-343.257996 298.874878 -8.848400 0.000000
-329.774689 298.874878 -8.848400 0.000000
-316.291382 298.874878 -8.848400 0.000000
-302.808105 298.874878 -8.848400 0.000000
-289.324799 298.874878 -8.848400 0.000000
-275.841492 298.874878 -8.848400 0.000000
-262.358185 298.874878 -8.848400 0.000000
-248.874893 298.874878 -8.848400 0.000000
-235.391602 298.874878 -8.848400 0.000000
-221.908295 298.874878 -8.848400 0.000000
-208.424988 298.874878 -8.848400 0.000000
-194.941696 298.874878 -8.848400 0.000000
-181.458389 298.874878 -8.848400 0.000000
-167.975098 298.874878 -8.848400 0.000000
-154.491791 298.874878 -8.848400 0.000000
-141.008499 298.874878 -8.848400 0.000000
-127.525192 298.874878 -8.848400 0.000000
-114.041885 298.874878 -8.848400 0.310411
-100.558594 298.874878 -8.848400 0.317828
-87.075287 298.874878 -8.848400 0.324458
-73.591980 298.874878 -8.848400 0.336803
-60.108704 298.874878 -8.848400 0.297749
-46.625397 298.874878 -8.848400 0.288559
-33.142090 298.874878 -8.848400 0.280160
-19.658783 298.874878 -8.848400 0.288630
-6.175476 298.874878 -8.848400 0.279201
7.307800 298.874878 -8.848400 0.254909
20.791107 298.874878 -8.848400 0.223885
34.274414 298.874878 -8.848400 0.200436
47.757721 298.874878 -8.848400 0.179818
61.240997 298.874878 -8.848400 0.000000
74.724304 298.874878 -8.848400 0.000000
88.207611 298.874878 -8.848400 0.000000
101.690918 298.874878 -8.848400 0.000000
115.174225 298.874878 -8.848400 0.000000
128.657501 298.874878 -8.848400 0.000000
142.140808 298.874878 -8.848400 0.000000
155.624115 298.874878 -8.848400 0.000000
169.107422 298.874878 -8.848400 0.000000
182.590698 298.874878 -8.848400 0.000000
196.074036 298.874878 -8.848400 0.000000
209.557312 298.874878 -8.848400 0.000000
223.040588 298.874878 -8.848400 0.000000
236.523926 298.874878 -8.848400 0.000000
250.007202 298.874878 -8.848400 0.000000
263.490540 298.874878 -8.848400 0.000000
276.973816 298.874878 -8.848400 0.000000
290.457092 298.874878 -8.848400 0.000000
303.940430 298.874878 -8.848400 0.000000
317.423706 298.874878 -8.848400 0.000000
330.907043 298.874878 -8.848400 0.000000
344.390320 298.874878 -8.848400 0.000000
-343.257996 285.391602 -8.848400 0.000000
-329.774689 285.391602 -8.848400 0.000000
-316.291382 285.391602 -8.848400 0.000000
-302.808105 285.391602 -8.848400 0.000000
-289.324799 285.391602 -8.848400 0.000000
-275.841492 285.391602 -8.848400 0.000000
-262.358185 285.391602 -8.848400 0.000000
-248.874893 285.391602 -8.848400 0.000000
-235.391602 285.391602 -8.848400 0.000000
-221.908295 285.391602 -8.848400 0.000000
-208.424988 285.391602 -8.848400 0.000000
-194.941696 285.391602 -8.848400 0.000000
-181.458389 285.391602 -8.848400 0.000000
-167.975098 285.391602 -8.848400 0.000000
-154.491791 285.391602 -8.848400 0.000000
-141.008499 285.391602 -8.848400 0.000000
-127.525192 285.391602 -8.848400 0.000000
-114.041885 285.391602 -8.848400 0.321085
-100.558594 285.391602 -8.848400 0.329782
-87.075287 285.391602 -8.848400 0.359614
-73.591980 285.391602 -8.848400 0.349813
-60.108704 285.391602 -8.848400 0.304865
-46.625397 285.391602 -8.848400 0.272896
-33.142090 285.391602 -8.848400 0.253115
-19.658783 285.391602 -8.848400 0.265418
-6.175476 285.391602 -8.848400 0.271023
7.307800 285.391602 -8.848400 0.262871
20.791107 285.391602 -8.848400 0.237067
34.274414 285.391602 -8.848400 0.219428
47.757721 285.391602 -8.848400 0.206742
61.240997 285.391602 -8.848400 0.000000
74.724304 285.391602 -8.848400 0.000000
88.207611 285.391602 -8.848400 0.000000
101.690918 285.391602 -8.848400 0.331279
115.174225 285.391602 -8.848400 0.340053
128.657501 285.391602 -8.848400 0.327881
142.140808 285.391602 -8.848400 0.338932
155.624115 285.391602 -8.848400 0.340711
169.107422 285.391602 -8.848400 0.362311
182.590698 285.391602 -8.848400 0.000000
196.074036 285.391602 -8.848400 0.000000
209.557312 285.391602 -8.848400 0.000000
223.040588 285.391602 -8.848400 0.000000
236.523926 285.391602 -8.848400 0.000000
250.007202 285.391602 -8.848400 0.000000
263.490540 285.391602 -8.848400 0.000000
276.973816 285.391602 -8.848400 0.000000
290.457092 285.391602 -8.848400 0.000000
303.940430 285.391602 -8.848400 0.000000
317.423706 285.391602 -8.848400 0.000000
330.907043 285.391602 -8.848400 0.000000
344.390320 285.391602 -8.848400 0.000000
-343.257996 271.908295 -8.848400 0.000000
-329.774689 271.908295 -8.848400 0.000000
-316.291382 271.908295 -8.848400 0.000000
-302.808105 271.908295 -8.848400 0.000000
-289.324799 271.908295 -8.848400 0.000000
-275.841492 271.908295 -8.848400 0.000000
-262.358185 271.908295 -8.848400 0.000000
-248.874893 271.908295 -8.848400 0.000000
-235.391602 271.908295 -8.848400 0.000000
-221.908295 271.908295 -8.848400 0.000000
-208.424988 271.908295 -8.848400 0.000000
-194.941696 271.908295 -8.848400 0.000000
-181.458389 271.908295 -8.848400 0.000000
-167.975098 271.908295 -8.848400 0.000000
-154.491791 271.908295 -8.848400 0.000000
-141.008499 271.908295 -8.848400 0.000000
-127.525192 271.908295 -8.848400 0.000000
-114.041885 271.908295 -8.848400 0.334608
-100.558594 271.908295 -8.848400 0.355688
-87.075287 271.908295 -8.848400 0.387832
-73.591980 271.908295 -8.848400 0.375683
-60.108704 271.908295 -8.848400 0.322942
-46.625397 271.908295 -8.848400 0.275651
-33.142090 271.908295 -8.848400 0.238773
-19.658783 271.908295 -8.848400 0.244375
-6.175476 271.908295 -8.848400 0.261481
7.307800 271.908295 -8.848400 0.259445
20.791107 271.908295 -8.848400 0.248016
34.274414 271.908295 -8.848400 0.225053
47.757721 271.908295 -8.848400 0.231365
61.240997 271.908295 -8.848400 0.000000
74.724304 271.908295 -8.848400 0.000000
88.207611 271.908295 -8.848400 0.292533
101.690918 271.908295 -8.848400 0.318349
115.174225 271.908295 -8.848400 0.319265
128.657501 271.908295 -8.848400 0.303731
142.140808 271.908295 -8.848400 0.000000
155.624115 271.908295 -8.848400 0.331915
169.107422 271.908295 -8.848400 0.340491
182.590698 271.908295 -8.848400 0.000000
196.074036 271.908295 -8.848400 0.000000
209.557312 271.908295 -8.848400 0.000000
223.040588 271.908295 -8.848400 0.000000
236.523926 271.908295 -8.848400 0.000000
250.007202 271.908295 -8.848400 0.000000
263.490540 271.908295 -8.848400 0.000000
276.973816 271.908295 -8.848400 0.000000
290.457092 271.908295 -8.848400 0.000000
303.940430 271.908295 -8.848400 0.000000
317.423706 271.908295 -8.848400 0.000000
330.907043 271.908295 -8.848400 0.000000
344.390320 271.908295 -8.848400 0.000000
-343.257996 258.424988 -8.848400 0.000000
-329.774689 258.424988 -8.848400 0.000000
-316.291382 258.424988 -8.848400 0.000000
-302.808105 258.424988 -8.848400 0.000000
-289.324799 258.424988 -8.848400 0.000000
-275.841492 258.424988 -8.848400 0.000000
-262.358185 258.424988 -8.848400 0.000000
-248.874893 258.424988 -8.848400 0.000000
-235.391602 258.424988 -8.848400 0.000000
-221.908295 258.424988 -8.848400 0.000000
-208.424988 258.424988 -8.848400 0.000000
-194.941696 258.424988 -8.848400 0.000000
-181.458389 258.424988 -8.848400 0.000000
-167.975098 258.424988 -8.848400 0.000000
-154.491791 258.424988 -8.848400 0.000000
-141.008499 258.424988 -8.848400 0.000000
-127.525192 258.424988 -8.848400 0.322457
-114.041885 258.424988 -8.848400 0.338156
-100.558594 258.424988 -8.848400 0.388362
-87.075287 258.424988 -8.848400 0.436924
-73.591980 258.424988 -8.848400 0.379272
-60.108704 258.424988 -8.848400 0.308617
-46.625397 258.424988 -8.848400 0.268263
-33.142090 258.424988 -8.848400 0.229972
-19.658783 258.424988 -8.848400 0.234685
-6.175476 258.424988 -8.848400 0.249884
7.307800 258.424988 -8.848400 0.255212
20.791107 258.424988 -8.848400 0.236405
34.274414 258.424988 -8.848400 0.000000
47.757721 258.424988 -8.848400 0.000000
61.240997 258.424988 -8.848400 0.000000
74.724304 258.424988 -8.848400 0.000000
88.207611 258.424988 -8.848400 0.261622
101.690918 258.424988 -8.848400 0.271739
115.174225 258.424988 -8.848400 0.258722
128.657501 258.424988 -8.848400 0.251384
142.140808 258.424988 -8.848400 0.263903
155.624115 258.424988 -8.848400 0.302852
169.107422 258.424988 -8.848400 0.337609
182.590698 258.424988 -8.848400 0.368366
196.074036 258.424988 -8.848400 0.000000
209.557312 258.424988 -8.848400 0.000000
223.040588 258.424988 -8.848400 0.000000
236.523926 258.424988 -8.848400 0.000000
250.007202 258.424988 -8.848400 0.000000
263.490540 258.424988 -8.848400 0.000000
276.973816 258.424988 -8.848400 0.000000
290.457092 258.424988 -8.848400 0.000000
303.940430 258.424988 -8.848400 0.000000
317.423706 258.424988 -8.848400 0.000000
330.907043 258.424988 -8.848400 0.000000
344.390320 258.424988 -8.848400 0.000000
-343.257996 244.941696 -8.848400 0.000000
-329.774689 244.941696 -8.848400 0.000000
-316.291382 244.941696 -8.848400 0.000000
-302.808105 244.941696 -8.848400 0.000000
-289.324799 244.941696 -8.848400 0.000000
-275.841492 244.941696 -8.848400 0.000000
-262.358185 244.941696 -8.848400 0.000000
-248.874893 244.941696 -8.848400 0.000000
-235.391602 244.941696 -8.848400 0.000000
-221.908295 244.941696 -8.848400 0.000000
-208.424988 244.941696 -8.848400 0.000000
-194.941696 244.941696 -8.848400 0.000000
-181.458389 244.941696 -8.848400 0.000000
-167.975098 244.941696 -8.848400 0.000000
-154.491791 244.941696 -8.848400 0.000000
-141.008499 244.941696 -8.848400 0.000000
-127.525192 244.941696 -8.848400 0.346851
-114.041885 244.941696 -8.848400 0.389255
-100.558594 244.941696 -8.848400 0.447524
-87.075287 244.941696 -8.848400 0.459877
-73.591980 244.941696 -8.848400 0.386710
-60.108704 244.941696 -8.848400 0.305093
-46.625397 244.941696 -8.848400 0.253065
-33.142090 244.941696 -8.848400 0.227082
-19.658783 244.941696 -8.848400 0.214474
-6.175476 244.941696 -8.848400 0.225292
7.307800 244.941696 -8.848400 0.224483
20.791107 244.941696 -8.848400 0.211449
34.274414 244.941696 -8.848400 0.215324
47.757721 244.941696 -8.848400 0.000000
61.240997 244.941696 -8.848400 0.000000
74.724304 244.941696 -8.848400 0.000000
88.207611 244.941696 -8.848400 0.241491
101.690918 244.941696 -8.848400 0.246132
115.174225 244.941696 -8.848400 0.000000
128.657501 244.941696 -8.848400 0.000000
142.140808 244.941696 -8.848400 0.000000
155.624115 244.941696 -8.848400 0.000000
169.107422 244.941696 -8.848400 0.328592
182.590698 244.941696 -8.848400 0.348810
196.074036 244.941696 -8.848400 0.345582
209.557312 244.941696 -8.848400 0.000000
223.040588 244.941696 -8.848400 0.000000
236.523926 244.941696 -8.848400 0.000000
250.007202 244.941696 -8.848400 0.000000
263.490540 244.941696 -8.848400 0.000000
276.973816 244.941696 -8.848400 0.000000
290.457092 244.941696 -8.848400 0.000000
303.940430 244.941696 -8.848400 0.000000
317.423706 244.941696 -8.848400 0.000000
330.907043 244.941696 -8.848400 0.000000
344.390320 244.941696 -8.848400 0.000000
-343.257996 231.458389 -8.848400 0.000000
-329.774689 231.458389 -8.848400 0.000000
-316.291382 231.458389 -8.848400 0.000000
-302.808105 231.458389 -8.848400 0.000000
-289.324799 231.458389 -8.848400 0.000000
-275.841492 231.458389 -8.848400 0.000000
-262.358185 231.458389 -8.848400 0.000000
-248.874893 231.458389 -8.848400 0.000000
-235.391602 231.458389 -8.848400 0.000000
-221.908295 231.458389 -8.848400 0.000000
-208.424988 231.458389 -8.848400 0.000000
-194.941696 231.458389 -8.848400 0.000000
-181.458389 231.458389 -8.848400 0.000000
-167.975098 231.458389 -8.848400 0.000000
-154.491791 231.458389 -8.848400 0.000000
-141.008499 231.458389 -8.848400 0.000000
-127.525192 231.458389 -8.848400 0.369377
-114.041885 231.458389 -8.848400 0.443335
-100.558594 231.458389 -8.848400 0.462752
-87.075287 231.458389 -8.848400 0.450080
-73.591980 231.458389 -8.848400 0.367359
-60.108704 231.458389 -8.848400 0.308778
-46.625397 231.458389 -8.848400 0.256096
-33.142090 231.458389 -8.848400 0.219700
-19.658783 231.458389 -8.848400 0.216493
-6.175476 231.458389 -8.848400 0.205303
7.307800 231.458389 -8.848400 0.208868
20.791107 231.458389 -8.848400 0.199398
34.274414 231.458389 -8.848400 0.210225
47.757721 231.458389 -8.848400 0.000000
61.240997 231.458389 -8.848400 0.000000
74.724304 231.458389 -8.848400 0.214708
88.207611 231.458389 -8.848400 0.214376
101.690918 231.458389 -8.848400 0.219903
115.174225 231.458389 -8.848400 0.000000
128.657501 231.458389 -8.848400 0.000000
142.140808 231.458389 -8.848400 0.238916
155.624115 231.458389 -8.848400 0.267781
169.107422 231.458389 -8.848400 0.329967
182.590698 231.458389 -8.848400 0.370382
196.074036 231.458389 -8.848400 0.353489
209.557312 231.458389 -8.848400 0.000000
223.040588 231.458389 -8.848400 0.000000
236.523926 231.458389 -8.848400 0.000000
250.007202 231.458389 -8.848400 0.000000
263.490540 231.458389 -8.848400 0.000000
276.973816 231.458389 -8.848400 0.000000
290.457092 231.458389 -8.848400 0.000000
303.940430 231.458389 -8.848400 0.000000
317.423706 231.458389 -8.848400 0.000000
330.907043 231.458389 -8.848400 0.000000
344.390320 231.458389 -8.848400 0.000000
-343.257996 217.975098 -8.848400 0.000000
-329.774689 217.975098 -8.848400 0.000000
-316.291382 217.975098 -8.848400 0.000000
-302.808105 217.975098 -8.848400 0.000000
-289.324799 217.975098 -8.848400 0.000000
-275.841492 217.975098 -8.848400 0.000000
-262.358185 217.975098 -8.848400 0.000000
-248.874893 217.975098 -8.848400 0.000000
-235.391602 217.975098 -8.848400 0.000000
-221.908295 217.975098 -8.848400 0.000000
-208.424988 217.975098 -8.848400 0.000000
-194.941696 217.975098 -8.848400 0.000000
-181.458389 217.975098 -8.848400 0.000000
-167.975098 217.975098 -8.848400 0.000000
-154.491791 217.975098 -8.848400 0.000000
-141.008499 217.975098 -8.848400 0.349175
-127.525192 217.975098 -8.848400 0.422215
-114.041885 217.975098 -8.848400 0.482825
-100.558594 217.975098 -8.848400 0.487043
-87.075287 217.975098 -8.848400 0.443716
-73.591980 217.975098 -8.848400 0.366841
-60.108704 217.975098 -8.848400 0.310139
-46.625397 217.975098 -8.848400 0.244817
-33.142090 217.975098 -8.848400 0.210127
-19.658783 217.975098 -8.848400 0.206781
-6.175476 217.975098 -8.848400 0.200148
7.307800 217.975098 -8.848400 0.213770
20.791107 217.975098 -8.848400 0.202307
34.274414 217.975098 -8.848400 0.214082
47.757721 217.975098 -8.848400 0.000000
61.240997 217.975098 -8.848400 0.213833
74.724304 217.975098 -8.848400 0.198780
88.207611 217.975098 -8.848400 0.209936
101.690918 217.975098 -8.848400 0.217956
115.174225 217.975098 -8.848400 0.000000
128.657501 217.975098 -8.848400 0.240026
142.140808 217.975098 -8.848400 0.267711
155.624115 217.975098 -8.848400 0.325142
169.107422 217.975098 -8.848400 0.366168
182.590698 217.975098 -8.848400 0.351938
196.074036 217.975098 -8.848400 0.000000
209.557312 217.975098 -8.848400 0.000000
223.040588 217.975098 -8.848400 0.000000
236.523926 217.975098 -8.848400 0.000000
250.007202 217.975098 -8.848400 0.000000
263.490540 217.975098 -8.848400 0.000000
276.973816 217.975098 -8.848400 0.000000
290.457092 217.975098 -8.848400 0.000000
303.940430 217.975098 -8.848400 0.000000
317.423706 217.975098 -8.848400 0.000000
330.907043 217.975098 -8.848400 0.000000
344.390320 217.975098 -8.848400 0.000000
-343.257996 204.491791 -8.848400 0.000000
-329.774689 204.491791 -8.848400 0.000000
-316.291382 204.491791 -8.848400 0.000000
-302.808105 204.491791 -8.848400 0.000000
-289.324799 204.491791 -8.848400 0.000000
-275.841492 204.491791 -8.848400 0.000000
-262.358185 204.491791 -8.848400 0.000000
-248.874893 204.491791 -8.848400 0.000000
-235.391602 204.491791 -8.848400 0.000000
-221.908295 204.491791 -8.848400 0.000000
-208.424988 204.491791 -8.848400 0.000000
-194.941696 204.491791 -8.848400 0.000000
-181.458389 204.491791 -8.848400 0.000000
-167.975098 204.491791 -8.848400 0.000000
-154.491791 204.491791 -8.848400 0.000000
-141.008499 204.491791 -8.848400 0.382514
-127.525192 204.491791 -8.848400 0.437380
-114.041885 204.491791 -8.848400 0.493941
-100.558594 204.491791 -8.848400 0.481998
-87.075287 204.491791 -8.848400 0.444450
-73.591980 204.491791 -8.848400 0.360927
-60.108704 204.491791 -8.848400 0.270949
-46.625397 204.491791 -8.848400 0.210974
-33.142090 204.491791 -8.848400 0.198638
-19.658783 204.491791 -8.848400 0.199604
-6.175476 204.491791 -8.848400 0.200536
7.307800 204.491791 -8.848400 0.212390
20.791107 204.491791 -8.848400 0.207692
34.274414 204.491791 -8.848400 0.209265
47.757721 204.491791 -8.848400 0.203991
61.240997 204.491791 -8.848400 0.195253
74.724304 204.491791 -8.848400 0.199374
88.207611 204.491791 -8.848400 0.220615
101.690918 204.491791 -8.848400 0.241028
115.174225 204.491791 -8.848400 0.274141
128.657501 204.491791 -8.848400 0.299956
142.140808 204.491791 -8.848400 0.315067
155.624115 204.491791 -8.848400 0.335832
169.107422 204.491791 -8.848400 0.341153
182.590698 204.491791 -8.848400 0.000000
196.074036 204.491791 -8.848400 0.000000
209.557312 204.491791 -8.848400 0.000000
223.040588 204.491791 -8.848400 0.000000
236.523926 204.491791 -8.848400 0.000000
250.007202 204.491791 -8.848400 0.000000
263.490540 204.491791 -8.848400 0.000000
276.973816 204.491791 -8.848400 0.000000
290.457092 204.491791 -8.848400 0.000000
303.940430 204.491791 -8.848400 0.000000
317.423706 204.491791 -8.848400 0.000000
330.907043 204.491791 -8.848400 0.000000
344.390320 204.491791 -8.848400 0.000000
-343.257996 191.008499 -8.848400 0.000000
-329.774689 191.008499 -8.848400 0.000000
-316.291382 191.008499 -8.848400 0.000000
-302.808105 191.008499 -8.848400 0.000000
-289.324799 191.008499 -8.848400 0.000000
-275.841492 191.008499 -8.848400 0.000000
-262.358185 191.008499 -8.848400 0.000000
-248.874893 191.008499 -8.848400 0.000000
-235.391602 191.008499 -8.848400 0.000000
-221.908295 191.008499 -8.848400 0.000000
-208.424988 191.008499 -8.848400 0.000000
-194.941696 191.008499 -8.848400 0.000000
-181.458389 191.008499 -8.848400 0.000000
-167.975098 191.008499 -8.848400 0.000000
-154.491791 191.008499 -8.848400 0.000000
-141.008499 191.008499 -8.848400 0.432059
-127.525192 191.008499 -8.848400 0.503669
-114.041885 191.008499 -8.848400 0.519198
-100.558594 191.008499 -8.848400 0.496543
-87.075287 191.008499 -8.848400 0.430395
-73.591980 191.008499 -8.848400 0.353831
-60.108704 191.008499 -8.848400 0.266597
-46.625397 191.008499 -8.848400 0.224094
-33.142090 191.008499 -8.848400 0.201875
-19.658783 191.008499 -8.848400 0.199221
-6.175476 191.008499 -8.848400 0.205116
7.307800 191.008499 -8.848400 0.206388
20.791107 191.008499 -8.848400 0.206755
34.274414 191.008499 -8.848400 0.207209
47.757721 191.008499 -8.848400 0.209084
61.240997 191.008499 -8.848400 0.205044
74.724304 191.008499 -8.848400 0.223485
88.207611 191.008499 -8.848400 0.260152
101.690918 191.008499 -8.848400 0.296124
115.174225 191.008499 -8.848400 0.325822
128.657501 191.008499 -8.848400 0.350934
142.140808 191.008499 -8.848400 0.367344
155.624115 191.008499 -8.848400 0.342267
169.107422 191.008499 -8.848400 0.299206
182.590698 191.008499 -8.848400 0.000000
196.074036 191.008499 -8.848400 0.000000
209.557312 191.008499 -8.848400 0.000000
223.040588 191.008499 -8.848400 0.000000
236.523926 191.008499 -8.848400 0.000000
250.007202 191.008499 -8.848400 0.000000
263.490540 191.008499 -8.848400 0.000000
276.973816 191.008499 -8.848400 0.000000
290.457092 191.008499 -8.848400 0.000000
303.940430 191.008499 -8.848400 0.000000
317.423706 191.008499 -8.848400 0.000000
330.907043 191.008499 -8.848400 0.000000
344.390320 191.008499 -8.848400 0.000000
-343.257996 177.525192 -8.848400 0.000000
-329.774689 177.525192 -8.848400 0.000000
-316.291382 177.525192 -8.848400 0.000000
-302.808105 177.525192 -8.848400 0.000000
-289.324799 177.525192 -8.848400 0.000000
-275.841492 177.525192 -8.848400 0.000000
-262.358185 177.525192 -8.848400 0.000000
-248.874893 177.525192 -8.848400 0.000000
-235.391602 177.525192 -8.848400 0.000000
-221.908295 177.525192 -8.848400 0.000000
-208.424988 177.525192 -8.848400 0.000000
-194.941696 177.525192 -8.848400 0.000000
-181.458389 177.525192 -8.848400 0.000000
-167.975098 177.525192 -8.848400 0.000000
-154.491791 177.525192 -8.848400 0.000000
-141.008499 177.525192 -8.848400 0.488819
-127.525192 177.525192 -8.848400 0.568516
-114.041885 177.525192 -8.848400 0.564339
-100.558594 177.525192 -8.848400 0.527920
-87.075287 177.525192 -8.848400 0.451145
-73.591980 177.525192 -8.848400 0.363858
-60.108704 177.525192 -8.848400 0.291546
-46.625397 177.525192 -8.848400 0.244016
-33.142090 177.525192 -8.848400 0.212834
-19.658783 177.525192 -8.848400 0.197492
-6.175476 177.525192 -8.848400 0.197253
7.307800 177.525192 -8.848400 0.208872
20.791107 177.525192 -8.848400 0.207417
34.274414 177.525192 -8.848400 0.221974
47.757721 177.525192 -8.848400 0.240152
61.240997 177.525192 -8.848400 0.240945
74.724304 177.525192 -8.848400 0.257298
88.207611 177.525192 -8.848400 0.298506
101.690918 177.525192 -8.848400 0.326995
115.174225 177.525192 -8.848400 0.335220
128.657501 177.525192 -8.848400 0.336091
142.140808 177.525192 -8.848400 0.318477
155.624115 177.525192 -8.848400 0.290410
169.107422 177.525192 -8.848400 0.000000
182.590698 177.525192 -8.848400 0.000000
196.074036 177.525192 -8.848400 0.000000
209.557312 177.525192 -8.848400 0.000000
223.040588 177.525192 -8.848400 0.000000
236.523926 177.525192 -8.848400 0.000000
250.007202 177.525192 -8.848400 0.000000
263.490540 177.525192 -8.848400 0.000000
276.973816 177.525192 -8.848400 0.000000
290.457092 177.525192 -8.848400 0.000000
303.940430 177.525192 -8.848400 0.000000
317.423706 177.525192 -8.848400 0.000000
330.907043 177.525192 -8.848400 0.000000
344.390320 177.525192 -8.848400 0.000000
-343.257996 164.041885 -8.848400 0.000000
-329.774689 164.041885 -8.848400 0.000000
-316.291382 164.041885 -8.848400 0.000000
-302.808105 164.041885 -8.848400 0.000000
-289.324799 164.041885 -8.848400 0.000000
-275.841492 164.041885 -8.848400 0.000000
-262.358185 164.041885 -8.848400 0.000000
-248.874893 164.041885 -8.848400 0.000000
-235.391602 164.041885 -8.848400 0.000000
-221.908295 164.041885 -8.848400 0.000000
-208.424988 164.041885 -8.848400 0.000000
-194.941696 164.041885 -8.848400 0.000000
-181.458389 164.041885 -8.848400 0.000000
-167.975098 164.041885 -8.848400 0.000000
-154.491791 164.041885 -8.848400 0.000000
-141.008499 164.041885 -8.848400 0.564010
-127.525192 164.041885 -8.848400 0.630072
-114.041885 164.041885 -8.848400 0.584182
-100.558594 164.041885 -8.848400 0.537249
-87.075287 164.041885 -8.848400 0.455517
-73.591980 164.041885 -8.848400 0.361321
-60.108704 164.041885 -8.848400 0.294370
-46.625397 164.041885 -8.848400 0.241161
-33.142090 164.041885 -8.848400 0.202247
-19.658783 164.041885 -8.848400 0.186605
-6.175476 164.041885 -8.848400 0.187713
7.307800 164.041885 -8.848400 0.201267
20.791107 164.041885 -8.848400 0.233514
34.274414 164.041885 -8.848400 0.254615
47.757721 164.041885 -8.848400 0.282541
61.240997 164.041885 -8.848400 0.297167
74.724304 164.041885 -8.848400 0.295502
88.207611 164.041885 -8.848400 0.329172
101.690918 164.041885 -8.848400 0.318249
115.174225 164.041885 -8.848400 0.311659
128.657501 164.041885 -8.848400 0.283982
142.140808 164.041885 -8.848400 0.000000
155.624115 164.041885 -8.848400 0.000000
169.107422 164.041885 -8.848400 0.000000
182.590698 164.041885 -8.848400 0.000000
196.074036 164.041885 -8.848400 0.000000
209.557312 164.041885 -8.848400 0.000000
223.040588 164.041885 -8.848400 0.000000
236.523926 164.041885 -8.848400 0.000000
250.007202 164.041885 -8.848400 0.000000
263.490540 164.041885 -8.848400 0.000000
276.973816 164.041885 -8.848400 0.000000
290.457092 164.041885 -8.848400 0.000000
303.940430 164.041885 -8.848400 0.000000
317.423706 164.041885 -8.848400 0.000000
330.907043 164.041885 -8.848400 0.000000
344.390320 164.041885 -8.848400 0.000000
-343.257996 150.558594 -8.848400 0.000000
-329.774689 150.558594 -8.848400 0.000000
-316.291382 150.558594 -8.848400 0.000000
-302.808105 150.558594 -8.848400 0.000000
-289.324799 150.558594 -8.848400 0.000000
-275.841492 150.558594 -8.848400 0.000000
-262.358185 150.558594 -8.848400 0.000000
-248.874893 150.558594 -8.848400 0.000000
-235.391602 150.558594 -8.848400 0.000000
-221.908295 150.558594 -8.848400 0.000000
-208.424988 150.558594 -8.848400 0.000000
-194.941696 150.558594 -8.848400 0.000000
-181.458389 150.558594 -8.848400 0.000000
-167.975098 150.558594 -8.848400 0.000000
-154.491791 150.558594 -8.848400 0.000000
-141.008499 150.558594 -8.848400 0.645529
-127.525192 150.558594 -8.848400 0.687591
-114.041885 150.558594 -8.848400 0.657971
-100.558594 150.558594 -8.848400 0.542892
-87.075287 150.558594 -8.848400 0.446599
-73.591980 150.558594 -8.848400 0.347178
-60.108704 150.558594 -8.848400 0.279435
-46.625397 150.558594 -8.848400 0.228545
-33.142090 150.558594 -8.848400 0.194902
-19.658783 150.558594 -8.848400 0.190512
-6.175476 150.558594 -8.848400 0.204954
7.307800 150.558594 -8.848400 0.234307
20.791107 150.558594 -8.848400 0.283497
34.274414 150.558594 -8.848400 0.308909
47.757721 150.558594 -8.848400 0.328887
61.240997 150.558594 -8.848400 0.340398
74.724304 150.558594 -8.848400 0.343318
88.207611 150.558594 -8.848400 0.330432
101.690918 150.558594 -8.848400 0.280106
115.174225 150.558594 -8.848400 0.243834
128.657501 150.558594 -8.848400 0.000000
142.140808 150.558594 -8.848400 0.000000
155.624115 150.558594 -8.848400 0.000000
169.107422 150.558594 -8.848400 0.000000
182.590698 150.558594 -8.848400 0.000000
196.074036 150.558594 -8.848400 0.000000
209.557312 150.558594 -8.848400 0.000000
223.040588 150.558594 -8.848400 0.000000
236.523926 150.558594 -8.848400 0.000000
250.007202 150.558594 -8.848400 0.000000
263.490540 150.558594 -8.848400 0.000000
276.973816 150.558594 -8.848400 0.000000
290.457092 150.558594 -8.848400 0.000000
303.940430 150.558594 -8.848400 0.000000
317.423706 150.558594 -8.848400 0.000000
330.907043 150.558594 -8.848400 0.000000
344.390320 150.558594 -8.848400 0.000000
-343.257996 137.075287 -8.848400 0.000000
-329.774689 137.075287 -8.848400 0.000000
-316.291382 137.075287 -8.848400 0.000000
-302.808105 137.075287 -8.848400 0.000000
-289.324799 137.075287 -8.848400 0.000000
-275.841492 137.075287 -8.848400 0.000000
-262.358185 137.075287 -8.848400 0.000000
-248.874893 137.075287 -8.848400 0.000000
-235.391602 137.075287 -8.848400 0.000000
-221.908295 137.075287 -8.848400 0.000000
-208.424988 137.075287 -8.848400 0.000000
-194.941696 137.075287 -8.848400 0.000000
-181.458389 137.075287 -8.848400 0.000000
-167.975098 137.075287 -8.848400 0.000000
-154.491791 137.075287 -8.848400 0.000000
-141.008499 137.075287 -8.848400 0.731208
-127.525192 137.075287 -8.848400 0.738776
-114.041885 137.075287 -8.848400 0.686336
-100.558594 137.075287 -8.848400 0.595871
-87.075287 137.075287 -8.848400 0.457553
-73.591980 137.075287 -8.848400 0.346013
-60.108704 137.075287 -8.848400 0.265149
-46.625397 137.075287 -8.848400 0.227072
-33.142090 137.075287 -8.848400 0.205595
-19.658783 137.075287 -8.848400 0.206885
-6.175476 137.075287 -8.848400 0.234384
7.307800 137.075287 -8.848400 0.270034
20.791107 137.075287 -8.848400 0.313000
34.274414 137.075287 -8.848400 0.357408
47.757721 137.075287 -8.848400 0.349240
61.240997 137.075287 -8.848400 0.368201
74.724304 137.075287 -8.848400 0.360767
88.207611 137.075287 -8.848400 0.313076
101.690918 137.075287 -8.848400 0.000000
115.174225 137.075287 -8.848400 0.000000
128.657501 137.075287 -8.848400 0.000000
142.140808 137.075287 -8.848400 0.000000
155.624115 137.075287 -8.848400 0.000000
169.107422 137.075287 -8.848400 0.000000
182.590698 137.075287 -8.848400 0.000000
196.074036 137.075287 -8.848400 0.000000
209.557312 137.075287 -8.848400 0.000000
223.040588 137.075287 -8.848400 0.000000
236.523926 137.075287 -8.848400 0.000000
250.007202 137.075287 -8.848400 0.000000
263.490540 137.075287 -8.848400 0.000000
276.973816 137.075287 -8.848400 0.000000
290.457092 137.075287 -8.848400 0.000000
303.940430 137.075287 -8.848400 0.000000
317.423706 137.075287 -8.848400 0.000000
330.907043 137.075287 -8.848400 0.000000
344.390320 137.075287 -8.848400 0.000000
-343.257996 123.591980 -8.848400 0.000000
-329.774689 123.591980 -8.848400 0.000000
-316.291382 123.591980 -8.848400 0.000000
-302.808105 123.591980 -8.848400 0.000000
-289.324799 123.591980 -8.848400 0.000000
-275.841492 123.591980 -8.848400 0.000000
-262.358185 123.591980 -8.848400 0.000000
-248.874893 123.591980 -8.848400 0.000000
-235.391602 123.591980 -8.848400 0.000000
-221.908295 123.591980 -8.848400 0.000000
-208.424988 123.591980 -8.848400 0.000000
-194.941696 123.591980 -8.848400 0.000000
-181.458389 123.591980 -8.848400 0.000000
-167.975098 123.591980 -8.848400 0.000000
-154.491791 123.591980 -8.848400 0.000000
-141.008499 123.591980 -8.848400 0.774503
-127.525192 123.591980 -8.848400 0.809092
-114.041885 123.591980 -8.848400 0.744992
-100.558594 123.591980 -8.848400 0.610342
-87.075287 123.591980 -8.848400 0.480118
-73.591980 123.591980 -8.848400 0.347381
-60.108704 123.591980 -8.848400 0.263927
-46.625397 123.591980 -8.848400 0.227386
-33.142090 123.591980 -8.848400 0.219591
-19.658783 123.591980 -8.848400 0.232761
-6.175476 123.591980 -8.848400 0.260981
7.307800 123.591980 -8.848400 0.289708
20.791107 123.591980 -8.848400 0.298198
34.274414 123.591980 -8.848400 0.341837
47.757721 123.591980 -8.848400 0.374939
61.240997 123.591980 -8.848400 0.378204
74.724304 123.591980 -8.848400 0.334798
88.207611 123.591980 -8.848400 0.000000
101.690918 123.591980 -8.848400 0.000000
115.174225 123.591980 -8.848400 0.000000
128.657501 123.591980 -8.848400 0.000000
142.140808 123.591980 -8.848400 0.000000
155.624115 123.591980 -8.848400 0.000000
169.107422 123.591980 -8.848400 0.000000
182.590698 123.591980 -8.848400 0.000000
196.074036 123.591980 -8.848400 0.000000
209.557312 123.591980 -8.848400 0.000000
223.040588 123.591980 -8.848400 0.000000
236.523926 123.591980 -8.848400 0.000000
250.007202 123.591980 -8.848400 0.000000
263.490540 123.591980 -8.848400 0.000000
276.973816 123.591980 -8.848400 0.000000
290.457092 123.591980 -8.848400 0.000000
303.940430 123.591980 -8.848400 0.000000
317.423706 123.591980 -8.848400 0.000000
330.907043 123.591980 -8.848400 0.000000
344.390320 123.591980 -8.848400 0.000000
-343.257996 110.108704 -8.848400 0.000000
-329.774689 110.108704 -8.848400 0.000000
-316.291382 110.108704 -8.848400 0.000000
-302.808105 110.108704 -8.848400 0.000000
-289.324799 110.108704 -8.848400 0.000000
-275.841492 110.108704 -8.848400 0.000000
-262.358185 110.108704 -8.848400 0.000000
-248.874893 110.108704 -8.848400 0.000000
-235.391602 110.108704 -8.848400 0.000000
-221.908295 110.108704 -8.848400 0.000000
-208.424988 110.108704 -8.848400 0.000000
-194.941696 110.108704 -8.848400 0.000000
-181.458389 110.108704 -8.848400 0.000000
-167.975098 110.108704 -8.848400 0.000000
-154.491791 110.108704 -8.848400 0.000000
-141.008499 110.108704 -8.848400 0.879723
-127.525192 110.108704 -8.848400 0.805159
-114.041885 110.108704 -8.848400 0.721395
-100.558594 110.108704 -8.848400 0.545759
-87.075287 110.108704 -8.848400 0.442095
-73.591980 110.108704 -8.848400 0.355177
-60.108704 110.108704 -8.848400 0.264248
-46.625397 110.108704 -8.848400 0.231534
-33.142090 110.108704 -8.848400 0.224212
-19.658783 110.108704 -8.848400 0.254881
-6.175476 110.108704 -8.848400 0.275319
7.307800 110.108704 -8.848400 0.308137
20.791107 110.108704 -8.848400 0.312849
34.274414 110.108704 -8.848400 0.360588
47.757721 110.108704 -8.848400 0.363075
61.240997 110.108704 -8.848400 0.349450
74.724304 110.108704 -8.848400 0.000000
88.207611 110.108704 -8.848400 0.000000
101.690918 110.108704 -8.848400 0.000000
115.174225 110.108704 -8.848400 0.000000
128.657501 110.108704 -8.848400 0.000000
142.140808 110.108704 -8.848400 0.000000
155.624115 110.108704 -8.848400 0.000000
169.107422 110.108704 -8.848400 0.000000
182.590698 110.108704 -8.848400 0.000000
196.074036 110.108704 -8.848400 0.000000
209.557312 110.108704 -8.848400 0.000000
223.040588 110.108704 -8.848400 0.000000
236.523926 110.108704 -8.848400 0.000000
250.007202 110.108704 -8.848400 0.000000
263.490540 110.108704 -8.848400 0.000000
276.973816 110.108704 -8.848400 0.000000
290.457092 110.108704 -8.848400 0.000000
303.940430 110.108704 -8.848400 0.000000
317.423706 110.108704 -8.848400 0.000000
330.907043 110.108704 -8.848400 0.000000
344.390320 110.108704 -8.848400 0.000000
-343.257996 96.625397 -8.848400 0.000000
-329.774689 96.625397 -8.848400 0.000000
-316.291382 96.625397 -8.848400 0.000000
-302.808105 96.625397 -8.848400 0.000000
-289.324799 96.625397 -8.848400 0.000000
-275.841492 96.625397 -8.848400 0.000000
-262.358185 96.625397 -8.848400 0.000000
-248.874893 96.625397 -8.848400 0.000000
-235.391602 96.625397 -8.848400 0.000000
-221.908295 96.625397 -8.848400 0.000000
-208.424988 96.625397 -8.848400 0.000000
-194.941696 96.625397 -8.848400 0.000000
-181.458389 96.625397 -8.848400 0.000000
-167.975098 96.625397 -8.848400 0.000000
-154.491791 96.625397 -8.848400 0.000000
-141.008499 96.625397 -8.848400 0.940161
-127.525192 96.625397 -8.848400 0.858270
-114.041885 96.625397 -8.848400 0.684624
-100.558594 96.625397 -8.848400 0.519784
-87.075287 96.625397 -8.848400 0.405304
-73.591980 96.625397 -8.848400 0.323575
-60.108704 96.625397 -8.848400 0.262475
-46.625397 96.625397 -8.848400 0.231808
-33.142090 96.625397 -8.848400 0.215058
-19.658783 96.625397 -8.848400 0.237154
-6.175476 96.625397 -8.848400 0.268295
7.307800 96.625397 -8.848400 0.291090
20.791107 96.625397 -8.848400 0.340247
34.274414 96.625397 -8.848400 0.352301
47.757721 96.625397 -8.848400 0.368230
61.240997 96.625397 -8.848400 0.311465
74.724304 96.625397 -8.848400 0.000000
88.207611 96.625397 -8.848400 0.000000
101.690918 96.625397 -8.848400 0.000000
115.174225 96.625397 -8.848400 0.000000
128.657501 96.625397 -8.848400 0.000000
142.140808 96.625397 -8.848400 0.000000
155.624115 96.625397 -8.848400 0.000000
169.107422 96.625397 -8.848400 0.000000
182.590698 96.625397 -8.848400 0.000000
196.074036 96.625397 -8.848400 0.000000
209.557312 96.625397 -8.848400 0.000000
223.040588 96.625397 -8.848400 0.000000
236.523926 96.625397 -8.848400 0.000000
250.007202 96.625397 -8.848400 0.000000
263.490540 96.625397 -8.848400 0.000000
276.973816 96.625397 -8.848400 0.000000
290.457092 96.625397 -8.848400 0.000000
303.940430 96.625397 -8.848400 0.000000
317.423706 96.625397 -8.848400 0.000000
330.907043 96.625397 -8.848400 0.000000
344.390320 96.625397 -8.848400 0.000000
-343.257996 83.142090 -8.848400 0.000000
-329.774689 83.142090 -8.848400 0.000000
-316.291382 83.142090 -8.848400 0.000000
-302.808105 83.142090 -8.848400 0.000000
-289.324799 83.142090 -8.848400 0.000000
-275.841492 83.142090 -8.848400 0.000000
-262.358185 83.142090 -8.848400 0.000000
-248.874893 83.142090 -8.848400 0.000000
-235.391602 83.142090 -8.848400 0.000000
-221.908295 83.142090 -8.848400 0.000000
-208.424988 83.142090 -8.848400 0.000000
-194.941696 83.142090 -8.848400 0.000000
-181.458389 83.142090 -8.848400 0.000000
-167.975098 83.142090 -8.848400 0.000000
-154.491791 83.142090 -8.848400 0.000000
-141.008499 83.142090 -8.848400 0.958205
-127.525192 83.142090 -8.848400 0.812750
-114.041885 83.142090 -8.848400 0.599216
-100.558594 83.142090 -8.848400 0.453863
-87.075287 83.142090 -8.848400 0.370680
-73.591980 83.142090 -8.848400 0.302984
-60.108704 83.142090 -8.848400 0.258834
-46.625397 83.142090 -8.848400 0.229043
-33.142090 83.142090 -8.848400 0.231950
-19.658783 83.142090 -8.848400 0.235667
-6.175476 83.142090 -8.848400 0.250688
7.307800 83.142090 -8.848400 0.296182
20.791107 83.142090 -8.848400 0.347729
34.274414 83.142090 -8.848400 0.364949
47.757721 83.142090 -8.848400 0.341843
61.240997 83.142090 -8.848400 0.000000
74.724304 83.142090 -8.848400 0.000000
88.207611 83.142090 -8.848400 0.000000
101.690918 83.142090 -8.848400 0.000000
115.174225 83.142090 -8.848400 0.000000
128.657501 83.142090 -8.848400 0.000000
142.140808 83.142090 -8.848400 0.000000
155.624115 83.142090 -8.848400 0.000000
169.107422 83.142090 -8.848400 0.000000
182.590698 83.142090 -8.848400 0.000000
196.074036 83.142090 -8.848400 0.000000
209.557312 83.142090 -8.848400 0.000000
223.040588 83.142090 -8.848400 0.000000
236.523926 83.142090 -8.848400 0.000000
250.007202 83.142090 -8.848400 0.000000
263.490540 83.142090 -8.848400 0.000000
276.973816 83.142090 -8.848400 0.000000
290.457092 83.142090 -8.848400 0.000000
303.940430 83.142090 -8.848400 0.000000
317.423706 83.142090 -8.848400 0.000000
330.907043 83.142090 -8.848400 0.000000
344.390320 83.142090 -8.848400 0.000000
-343.257996 69.658783 -8.848400 0.000000
-329.774689 69.658783 -8.848400 0.000000
-316.291382 69.658783 -8.848400 0.000000
-302.808105 69.658783 -8.848400 0.000000
-289.324799 69.658783 -8.848400 0.000000
-275.841492 69.658783 -8.848400 0.000000
-262.358185 69.658783 -8.848400 0.000000
-248.874893 69.658783 -8.848400 0.000000
-235.391602 69.658783 -8.848400 0.000000
-221.908295 69.658783 -8.848400 0.000000
-208.424988 69.658783 -8.848400 0.000000
-194.941696 69.658783 -8.848400 0.000000
-181.458389 69.658783 -8.848400 0.000000
-167.975098 69.658783 -8.848400 0.000000
-154.491791 69.658783 -8.848400 0.000000
-141.008499 69.658783 -8.848400 0.967438
-127.525192 69.658783 -8.848400 0.776582
-114.041885 69.658783 -8.848400 0.557640
-100.558594 69.658783 -8.848400 0.403397
-87.075287 69.658783 -8.848400 0.351472
-73.591980 69.658783 -8.848400 0.292813
-60.108704 69.658783 -8.848400 0.261869
-46.625397 69.658783 -8.848400 0.239967
-33.142090 69.658783 -8.848400 0.231704
-19.658783 69.658783 -8.848400 0.232777
-6.175476 69.658783 -8.848400 0.256793
7.307800 69.658783 -8.848400 0.315863
20.791107 69.658783 -8.848400 0.369830
34.274414 69.658783 -8.848400 0.402129
47.757721 69.658783 -8.848400 0.354446
61.240997 69.658783 -8.848400 0.000000
74.724304 69.658783 -8.848400 0.000000
88.207611 69.658783 -8.848400 0.000000
101.690918 69.658783 -8.848400 0.000000
115.174225 69.658783 -8.848400 0.000000
128.657501 69.658783 -8.848400 0.000000
142.140808 69.658783 -8.848400 0.000000
155.624115 69.658783 -8.848400 0.000000
169.107422 69.658783 -8.848400 0.000000
182.590698 69.658783 -8.848400 0.000000
196.074036 69.658783 -8.848400 0.000000
209.557312 69.658783 -8.848400 0.000000
223.040588 69.658783 -8.848400 0.000000
236.523926 69.658783 -8.848400 0.000000
250.007202 69.658783 -8.848400 0.000000
263.490540 69.658783 -8.848400 0.000000
276.973816 69.658783 -8.848400 0.000000
290.457092 69.658783 -8.848400 0.000000
303.940430 69.658783 -8.848400 0.000000
317.423706 69.658783 -8.848400 0.000000
330.907043 69.658783 -8.848400 0.000000
344.390320 69.658783 -8.848400 0.000000
-343.257996 56.175476 -8.848400 0.000000
-329.774689 56.175476 -8.848400 0.000000
-316.291382 56.175476 -8.848400 0.000000
-302.808105 56.175476 -8.848400 0.000000
-289.324799 56.175476 -8.848400 0.000000
-275.841492 56.175476 -8.848400 0.000000
-262.358185 56.175476 -8.848400 0.000000
-248.874893 56.175476 -8.848400 0.000000
-235.391602 56.175476 -8.848400 0.000000
-221.908295 56.175476 -8.848400 0.000000
-208.424988 56.175476 -8.848400 0.000000
-194.941696 56.175476 -8.848400 0.000000
-181.458389 56.175476 -8.848400 0.000000
-167.975098 56.175476 -8.848400 0.000000
-154.491791 56.175476 -8.848400 0.000000
-141.008499 56.175476 -8.848400 0.903710
-127.525192 56.175476 -8.848400 0.693822
-114.041885 56.175476 -8.848400 0.495932
-100.558594 56.175476 -8.848400 0.373156
-87.075287 56.175476 -8.848400 0.323296
-73.591980 56.175476 -8.848400 0.284049
-60.108704 56.175476 -8.848400 0.250663
-46.625397 56.175476 -8.848400 0.257749
-33.142090 56.175476 -8.848400 0.247337
-19.658783 56.175476 -8.848400 0.252433
-6.175476 56.175476 -8.848400 0.286079
7.307800 56.175476 -8.848400 0.316478
20.791107 56.175476 -8.848400 0.396174
34.274414 56.175476 -8.848400 0.451233
47.757721 56.175476 -8.848400 0.430635
61.240997 56.175476 -8.848400 0.000000
74.724304 56.175476 -8.848400 0.000000
88.207611 56.175476 -8.848400 0.000000
101.690918 56.175476 -8.848400 0.000000
115.174225 56.175476 -8.848400 0.000000
128.657501 56.175476 -8.848400 0.000000
142.140808 56.175476 -8.848400 0.000000
155.624115 56.175476 -8.848400 0.000000
169.107422 56.175476 -8.848400 0.000000
182.590698 56.175476 -8.848400 0.000000
196.074036 56.175476 -8.848400 0.000000
209.557312 56.175476 -8.848400 0.000000
223.040588 56.175476 -8.848400 0.000000
236.523926 56.175476 -8.848400 0.000000
250.007202 56.175476 -8.848400 0.000000
263.490540 56.175476 -8.848400 0.000000
276.973816 56.175476 -8.848400 0.000000
290.457092 56.175476 -8.848400 0.000000
303.940430 56.175476 -8.848400 0.000000
317.423706 56.175476 -8.848400 0.000000
330.907043 56.175476 -8.848400 0.000000
344.390320 56.175476 -8.848400 0.000000
-343.257996 42.692200 -8.848400 0.000000
-329.774689 42.692200 -8.848400 0.000000
-316.291382 42.692200 -8.848400 0.000000
-302.808105 42.692200 -8.848400 0.000000
-289.324799 42.692200 -8.848400 0.000000
-275.841492 42.692200 -8.848400 0.000000
-262.358185 42.692200 -8.848400 0.000000
-248.874893 42.692200 -8.848400 0.000000
-235.391602 42.692200 -8.848400 0.000000
-221.908295 42.692200 -8.848400 0.000000
-208.424988 42.692200 -8.848400 0.000000
-194.941696 42.692200 -8.848400 0.000000
-181.458389 42.692200 -8.848400 0.000000
-167.975098 42.692200 -8.848400 0.000000
-154.491791 42.692200 -8.848400 0.000000
-141.008499 42.692200 -8.848400 0.804155
-127.525192 42.692200 -8.848400 0.660035
-114.041885 42.692200 -8.848400 0.503122
-100.558594 42.692200 -8.848400 0.391895
-87.075287 42.692200 -8.848400 0.299914
-73.591980 42.692200 -8.848400 0.255929
-60.108704 42.692200 -8.848400 0.228979
-46.625397 42.692200 -8.848400 0.227751
-33.142090 42.692200 -8.848400 0.241412
-19.658783 42.692200 -8.848400 0.246552
-6.175476 42.692200 -8.848400 0.253016
7.307800 42.692200 -8.848400 0.327591
20.791107 42.692200 -8.848400 0.427386
34.274414 42.692200 -8.848400 0.520926
47.757721 42.692200 -8.848400 0.495876
61.240997 42.692200 -8.848400 0.000000
74.724304 42.692200 -8.848400 0.000000
88.207611 42.692200 -8.848400 0.000000
101.690918 42.692200 -8.848400 0.000000
115.174225 42.692200 -8.848400 0.000000
128.657501 42.692200 -8.848400 0.000000
142.140808 42.692200 -8.848400 0.000000
155.624115 42.692200 -8.848400 0.000000
169.107422 42.692200 -8.848400 0.000000
182.590698 42.692200 -8.848400 0.000000
196.074036 42.692200 -8.848400 0.000000
209.557312 42.692200 -8.848400 0.000000
223.040588 42.692200 -8.848400 0.000000
236.523926 42.692200 -8.848400 0.000000
250.007202 42.692200 -8.848400 0.000000
263.490540 42.692200 -8.848400 0.000000
276.973816 42.692200 -8.848400 0.000000
290.457092 42.692200 -8.848400 0.000000
303.940430 42.692200 -8.848400 0.000000
317.423706 42.692200 -8.848400 0.000000
330.907043 42.692200 -8.848400 0.000000
344.390320 42.692200 -8.848400 0.000000
-343.257996 29.208893 -8.848400 0.000000
-329.774689 29.208893 -8.848400 0.000000
-316.291382 29.208893 -8.848400 0.000000
-302.808105 29.208893 -8.848400 0.000000
-289.324799 29.208893 -8.848400 0.000000
-275.841492 29.208893 -8.848400 0.000000
-262.358185 29.208893 -8.848400 0.000000
-248.874893 29.208893 -8.848400 0.000000
-235.391602 29.208893 -8.848400 0.000000
-221.908295 29.208893 -8.848400 0.000000
-208.424988 29.208893 -8.848400 0.000000
-194.941696 29.208893 -8.848400 0.000000
-181.458389 29.208893 -8.848400 0.000000
-167.975098 29.208893 -8.848400 0.000000
-154.491791 29.208893 -8.848400 0.813772
-141.008499 29.208893 -8.848400 0.695802
-127.525192 29.208893 -8.848400 0.562696
-114.041885 29.208893 -8.848400 0.461631
-100.558594 29.208893 -8.848400 0.364216
-87.075287 29.208893 -8.848400 0.286582
-73.591980 29.208893 -8.848400 0.237308
-60.108704 29.208893 -8.848400 0.232193
-46.625397 29.208893 -8.848400 0.231678
-33.142090 29.208893 -8.848400 0.237118
-19.658783 29.208893 -8.848400 0.269969
-6.175476 29.208893 -8.848400 0.281284
7.307800 29.208893 -8.848400 0.351187
20.791107 29.208893 -8.848400 0.461949
34.274414 29.208893 -8.848400 0.576267
47.757721 29.208893 -8.848400 0.544449
61.240997 29.208893 -8.848400 0.000000
74.724304 29.208893 -8.848400 0.000000
88.207611 29.208893 -8.848400 0.000000
101.690918 29.208893 -8.848400 0.000000
115.174225 29.208893 -8.848400 0.000000
128.657501 29.208893 -8.848400 0.000000
142.140808 29.208893 -8.848400 0.000000
155.624115 29.208893 -8.848400 0.000000
169.107422 29.208893 -8.848400 0.000000
182.590698 29.208893 -8.848400 0.000000
196.074036 29.208893 -8.848400 0.000000
209.557312 29.208893 -8.848400 0.000000
223.040588 29.208893 -8.848400 0.000000
236.523926 29.208893 -8.848400 0.000000
250.007202 29.208893 -8.848400 0.000000
263.490540 29.208893 -8.848400 0.000000
276.973816 29.208893 -8.848400 0.000000
290.457092 29.208893 -8.848400 0.000000
303.940430 29.208893 -8.848400 0.000000
317.423706 29.208893 -8.848400 0.000000
330.907043 29.208893 -8.848400 0.000000
344.390320 29.208893 -8.848400 0.000000
-343.257996 15.725586 -8.848400 0.000000
-329.774689 15.725586 -8.848400 0.000000
-316.291382 15.725586 -8.848400 0.000000
-302.808105 15.725586 -8.848400 0.000000
-289.324799 15.725586 -8.848400 0.000000
-275.841492 15.725586 -8.848400 0.000000
-262.358185 15.725586 -8.848400 0.000000
-248.874893 15.725586 -8.848400 0.000000
-235.391602 15.725586 -8.848400 0.000000
-221.908295 15.725586 -8.848400 0.000000
-208.424988 15.725586 -8.848400 0.000000
-194.941696 15.725586 -8.848400 0.000000
-181.458389 15.725586 -8.848400 0.000000
-167.975098 15.725586 -8.848400 0.000000
-154.491791 15.725586 -8.848400 0.774690
-141.008499 15.725586 -8.848400 0.632258
-127.525192 15.725586 -8.848400 0.506052
-114.041885 15.725586 -8.848400 0.413771
-100.558594 15.725586 -8.848400 0.366326
-87.075287 15.725586 -8.848400 0.288331
-73.591980 15.725586 -8.848400 0.242571
-60.108704 15.725586 -8.848400 0.225568
-46.625397 15.725586 -8.848400 0.218838
-33.142090 15.725586 -8.848400 0.235140
-19.658783 15.725586 -8.848400 0.275746
-6.175476 15.725586 -8.848400 0.310077
7.307800 15.725586 -8.848400 0.397909
20.791107 15.725586 -8.848400 0.507457
34.274414 15.725586 -8.848400 0.626115
47.757721 15.725586 -8.848400 0.620575
61.240997 15.725586 -8.848400 0.479139
74.724304 15.725586 -8.848400 0.000000
88.207611 15.725586 -8.848400 0.000000
101.690918 15.725586 -8.848400 0.000000
115.174225 15.725586 -8.848400 0.000000
128.657501 15.725586 -8.848400 0.000000
142.140808 15.725586 -8.848400 0.000000
155.624115 15.725586 -8.848400 0.000000
169.107422 15.725586 -8.848400 0.000000
182.590698 15.725586 -8.848400 0.000000
196.074036 15.725586 -8.848400 0.000000
209.557312 15.725586 -8.848400 0.000000
223.040588 15.725586 -8.848400 0.000000
236.523926 15.725586 -8.848400 0.000000
250.007202 15.725586 -8.848400 0.000000
263.490540 15.725586 -8.848400 0.000000
276.973816 15.725586 -8.848400 0.000000
290.457092 15.725586 -8.848400 0.000000
303.940430 15.725586 -8.848400 0.000000
317.423706 15.725586 -8.848400 0.000000
330.907043 15.725586 -8.848400 0.000000
344.390320 15.725586 -8.848400 0.000000
-343.257996 2.242279 -8.848400 0.000000
-329.774689 2.242279 -8.848400 0.000000
-316.291382 2.242279 -8.848400 0.000000
-302.808105 2.242279 -8.848400 0.000000
-289.324799 2.242279 -8.848400 0.000000
-275.841492 2.242279 -8.848400 0.000000
-262.358185 2.242279 -8.848400 0.000000
-248.874893 2.242279 -8.848400 0.000000
-235.391602 2.242279 -8.848400 0.000000
-221.908295 2.242279 -8.848400 0.000000
-208.424988 2.242279 -8.848400 0.000000
-194.941696 2.242279 -8.848400 0.000000
-181.458389 2.242279 -8.848400 0.000000
-167.975098 2.242279 -8.848400 0.000000
-154.491791 2.242279 -8.848400 0.798150
-141.008499 2.242279 -8.848400 0.617049
-127.525192 2.242279 -8.848400 0.481460
-114.041885 2.242279 -8.848400 0.398266
-100.558594 2.242279 -8.848400 0.369442
-87.075287 2.242279 -8.848400 0.285945
-73.591980 2.242279 -8.848400 0.247485
-60.108704 2.242279 -8.848400 0.243351
-46.625397 2.242279 -8.848400 0.233363
-33.142090 2.242279 -8.848400 0.246102
-19.658783 2.242279 -8.848400 0.272246
-6.175476 2.242279 -8.848400 0.330247
7.307800 2.242279 -8.848400 0.459458
20.791107 2.242279 -8.848400 0.564842
34.274414 2.242279 -8.848400 0.691818
47.757721 2.242279 -8.848400 0.638915
61.240997 2.242279 -8.848400 0.000000
74.724304 2.242279 -8.848400 0.000000
88.207611 2.242279 -8.848400 0.000000
101.690918 2.242279 -8.848400 0.000000
115.174225 2.242279 -8.848400 0.000000
128.657501 2.242279 -8.848400 0.000000
142.140808 2.242279 -8.848400 0.000000
155.624115 2.242279 -8.848400 0.000000
169.107422 2.242279 -8.848400 0.000000
182.590698 2.242279 -8.848400 0.000000
196.074036 2.242279 -8.848400 0.000000
209.557312 2.242279 -8.848400 0.000000
223.040588 2.242279 -8.848400 0.000000
236.523926 2.242279 -8.848400 0.000000
250.007202 2.242279 -8.848400 0.000000
263.490540 2.242279 -8.848400 0.000000
276.973816 2.242279 -8.848400 0.000000
290.457092 2.242279 -8.848400 0.000000
303.940430 2.242279 -8.848400 0.000000
317.423706 2.242279 -8.848400 0.000000
330.907043 2.242279 -8.848400 0.000000
344.390320 2.242279 -8.848400 0.000000
-343.257996 -11.240997 -8.848400 0.000000
-329.774689 -11.240997 -8.848400 0.000000
-316.291382 -11.240997 -8.848400 0.000000
-302.808105 -11.240997 -8.848400 0.000000
-289.324799 -11.240997 -8.848400 0.000000
-275.841492 -11.240997 -8.848400 0.000000
-262.358185 -11.240997 -8.848400 0.000000
-248.874893 -11.240997 -8.848400 0.000000
-235.391602 -11.240997 -8.848400 0.000000
-221.908295 -11.240997 -8.848400 0.000000
-208.424988 -11.240997 -8.848400 0.000000
-194.941696 -11.240997 -8.848400 0.000000
-181.458389 -11.240997 -8.848400 0.000000
-167.975098 -11.240997 -8.848400 0.837408
-154.491791 -11.240997 -8.848400 0.753596
-141.008499 -11.240997 -8.848400 0.614709
-127.525192 -11.240997 -8.848400 0.482551
-114.041885 -11.240997 -8.848400 0.415827
-100.558594 -11.240997 -8.848400 0.348158
-87.075287 -11.240997 -8.848400 0.291770
-73.591980 -11.240997 -8.848400 0.250545
-60.108704 -11.240997 -8.848400 0.241361
-46.625397 -11.240997 -8.848400 0.000000
-33.142090 -11.240997 -8.848400 0.000000
-19.658783 -11.240997 -8.848400 0.000000
-6.175476 -11.240997 -8.848400 0.000000
7.307800 -11.240997 -8.848400 0.523332
20.791107 -11.240997 -8.848400 0.642043
34.274414 -11.240997 -8.848400 0.738168
47.757721 -11.240997 -8.848400 0.000000
61.240997 -11.240997 -8.848400 0.000000
74.724304 -11.240997 -8.848400 0.000000
88.207611 -11.240997 -8.848400 0.000000
101.690918 -11.240997 -8.848400 0.000000
115.174225 -11.240997 -8.848400 0.000000
128.657501 -11.240997 -8.848400 0.000000
142.140808 -11.240997 -8.848400 0.000000
155.624115 -11.240997 -8.848400 0.000000
169.107422 -11.240997 -8.848400 0.000000
182.590698 -11.240997 -8.848400 0.000000
196.074036 -11.240997 -8.848400 0.000000
209.557312 -11.240997 -8.848400 0.000000
223.040588 -11.240997 -8.848400 0.000000
236.523926 -11.240997 -8.848400 0.000000
250.007202 -11.240997 -8.848400 0.000000
263.490540 -11.240997 -8.848400 0.000000
276.973816 -11.240997 -8.848400 0.000000
290.457092 -11.240997 -8.848400 0.000000
303.940430 -11.240997 -8.848400 0.000000
317.423706 -11.240997 -8.848400 0.000000
330.907043 -11.240997 -8.848400 0.000000
344.390320 -11.240997 -8.848400 0.000000
-343.257996 -24.724304 -8.848400 0.000000
-329.774689 -24.724304 -8.848400 0.000000
-316.291382 -24.724304 -8.848400 0.000000
-302.808105 -24.724304 -8.848400 0.000000
-289.324799 -24.724304 -8.848400 0.000000
-275.841492 -24.724304 -8.848400 0.000000
-262.358185 -24.724304 -8.848400 0.000000
-248.874893 -24.724304 -8.848400 0.000000
-235.391602 -24.724304 -8.848400 0.000000
-221.908295 -24.724304 -8.848400 0.000000
-208.424988 -24.724304 -8.848400 0.000000
-194.941696 -24.724304 -8.848400 0.000000
-181.458389 -24.724304 -8.848400 0.000000
-167.975098 -24.724304 -8.848400 0.000000
-154.491791 -24.724304 -8.848400 0.739116
-141.008499 -24.724304 -8.848400 0.618843
-127.525192 -24.724304 -8.848400 0.494170
-114.041885 -24.724304 -8.848400 0.400409
-100.558594 -24.724304 -8.848400 0.335995
-87.075287 -24.724304 -8.848400 0.308489
-73.591980 -24.724304 -8.848400 0.288464
-60.108704 -24.724304 -8.848400 0.000000
-46.625397 -24.724304 -8.848400 0.000000
-33.142090 -24.724304 -8.848400 0.000000
-19.658783 -24.724304 -8.848400 0.000000
-6.175476 -24.724304 -8.848400 0.000000
7.307800 -24.724304 -8.848400 0.000000
20.791107 -24.724304 -8.848400 0.774646
34.274414 -24.724304 -8.848400 0.755204
47.757721 -24.724304 -8.848400 0.000000
61.240997 -24.724304 -8.848400 0.000000
74.724304 -24.724304 -8.848400 0.000000
88.207611 -24.724304 -8.848400 0.000000
101.690918 -24.724304 -8.848400 0.000000
115.174225 -24.724304 -8.848400 0.000000
128.657501 -24.724304 -8.848400 0.000000
142.140808 -24.724304 -8.848400 0.000000
155.624115 -24.724304 -8.848400 0.000000
169.107422 -24.724304 -8.848400 0.000000
182.590698 -24.724304 -8.848400 0.000000
196.074036 -24.724304 -8.848400 0.000000
209.557312 -24.724304 -8.848400 0.000000
223.040588 -24.724304 -8.848400 0.000000
236.523926 -24.724304 -8.848400 0.000000
250.007202 -24.724304 -8.848400 0.000000
263.490540 -24.724304 -8.848400 0.000000
276.973816 -24.724304 -8.848400 0.000000
290.457092 -24.724304 -8.848400 0.000000
303.940430 -24.724304 -8.848400 0.000000
317.423706 -24.724304 -8.848400 0.000000
330.907043 -24.724304 -8.848400 0.000000
344.390320 -24.724304 -8.848400 0.000000
-343.257996 -38.207611 -8.848400 0.000000
-329.774689 -38.207611 -8.848400 0.000000
-316.291382 -38.207611 -8.848400 0.000000
-302.808105 -38.207611 -8.848400 0.000000
-289.324799 -38.207611 -8.848400 0.000000
-275.841492 -38.207611 -8.848400 0.000000
-262.358185 -38.207611 -8.848400 0.000000
-248.874893 -38.207611 -8.848400 0.000000
-235.391602 -38.207611 -8.848400 0.000000
-221.908295 -38.207611 -8.848400 0.000000
-208.424988 -38.207611 -8.848400 0.000000
-194.941696 -38.207611 -8.848400 0.000000
-181.458389 -38.207611 -8.848400 0.000000
-167.975098 -38.207611 -8.848400 0.809101
-154.491791 -38.207611 -8.848400 0.734279
-141.008499 -38.207611 -8.848400 0.602776
-127.525192 -38.207611 -8.848400 0.523282
-114.041885 -38.207611 -8.848400 0.438062
-100.558594 -38.207611 -8.848400 0.374238
-87.075287 -38.207611 -8.848400 0.360699
-73.591980 -38.207611 -8.848400 0.346656
-60.108704 -38.207611 -8.848400 0.361392
-46.625397 -38.207611 -8.848400 0.386352
-33.142090 -38.207611 -8.848400 0.000000
-19.658783 -38.207611 -8.848400 0.000000
-6.175476 -38.207611 -8.848400 0.625717
7.307800 -38.207611 -8.848400 0.769102
20.791107 -38.207611 -8.848400 0.830625
34.274414 -38.207611 -8.848400 0.000000
47.757721 -38.207611 -8.848400 0.000000
61.240997 -38.207611 -8.848400 0.000000
74.724304 -38.207611 -8.848400 0.000000
88.207611 -38.207611 -8.848400 0.000000
101.690918 -38.207611 -8.848400 0.000000
115.174225 -38.207611 -8.848400 0.000000
128.657501 -38.207611 -8.848400 0.000000
142.140808 -38.207611 -8.848400 0.000000
155.624115 -38.207611 -8.848400 0.000000
169.107422 -38.207611 -8.848400 0.000000
182.590698 -38.207611 -8.848400 0.000000
196.074036 -38.207611 -8.848400 0.000000
209.557312 -38.207611 -8.848400 0.000000
223.040588 -38.207611 -8.848400 0.000000
236.523926 -38.207611 -8.848400 0.000000
250.007202 -38.207611 -8.848400 0.000000
263.490540 -38.207611 -8.848400 0.000000
276.973816 -38.207611 -8.848400 0.000000
290.457092 -38.207611 -8.848400 0.000000
303.940430 -38.207611 -8.848400 0.000000
317.423706 -38.207611 -8.848400 0.000000
330.907043 -38.207611 -8.848400 0.000000
344.390320 -38.207611 -8.848400 0.000000
-343.257996 -51.690918 -8.848400 0.000000
-329.774689 -51.690918 -8.848400 0.000000
-316.291382 -51.690918 -8.848400 0.000000
-302.808105 -51.690918 -8.848400 0.000000
-289.324799 -51.690918 -8.848400 0.000000
-275.841492 -51.690918 -8.848400 0.000000
-262.358185 -51.690918 -8.848400 0.000000
-248.874893 -51.690918 -8.848400 0.000000
-235.391602 -51.690918 -8.848400 0.000000
-221.908295 -51.690918 -8.848400 0.000000
-208.424988 -51.690918 -8.848400 0.000000
-194.941696 -51.690918 -8.848400 0.000000
-181.458389 -51.690918 -8.848400 0.000000
-167.975098 -51.690918 -8.848400 0.000000
-154.491791 -51.690918 -8.848400 0.708615
-141.008499 -51.690918 -8.848400 0.585679
-127.525192 -51.690918 -8.848400 0.000000
-114.041885 -51.690918 -8.848400 0.486639
-100.558594 -51.690918 -8.848400 0.458726
-87.075287 -51.690918 -8.848400 0.000000
-73.591980 -51.690918 -8.848400 0.450480
-60.108704 -51.690918 -8.848400 0.478305
-46.625397 -51.690918 -8.848400 0.494094
-33.142090 -51.690918 -8.848400 0.543322
-19.658783 -51.690918 -8.848400 0.696679
-6.175476 -51.690918 -8.848400 0.744843
7.307800 -51.690918 -8.848400 0.811565
20.791107 -51.690918 -8.848400 0.783892
34.274414 -51.690918 -8.848400 0.000000
47.757721 -51.690918 -8.848400 0.000000
61.240997 -51.690918 -8.848400 0.000000
74.724304 -51.690918 -8.848400 0.000000
88.207611 -51.690918 -8.848400 0.000000
101.690918 -51.690918 -8.848400 0.000000
115.174225 -51.690918 -8.848400 0.000000
128.657501 -51.690918 -8.848400 0.000000
142.140808 -51.690918 -8.848400 0.000000
155.624115 -51.690918 -8.848400 0.000000
169.107422 -51.690918 -8.848400 0.000000
182.590698 -51.690918 -8.848400 0.000000
196.074036 -51.690918 -8.848400 0.000000
209.557312 -51.690918 -8.848400 0.000000
223.040588 -51.690918 -8.848400 0.000000
236.523926 -51.690918 -8.848400 0.000000
250.007202 -51.690918 -8.848400 0.000000
263.490540 -51.690918 -8.848400 0.000000
276.973816 -51.690918 -8.848400 0.000000
290.457092 -51.690918 -8.848400 0.000000
303.940430 -51.690918 -8.848400 0.000000
317.423706 -51.690918 -8.848400 0.000000
330.907043 -51.690918 -8.848400 0.000000
344.390320 -51.690918 -8.848400 0.000000
-343.257996 -65.174225 -8.848400 0.000000
-329.774689 -65.174225 -8.848400 0.000000
-316.291382 -65.174225 -8.848400 0.000000
-302.808105 -65.174225 -8.848400 0.000000
-289.324799 -65.174225 -8.848400 0.000000
-275.841492 -65.174225 -8.848400 0.000000
-262.358185 -65.174225 -8.848400 0.000000
-248.874893 -65.174225 -8.848400 0.000000
-235.391602 -65.174225 -8.848400 0.000000
-221.908295 -65.174225 -8.848400 0.000000
-208.424988 -65.174225 -8.848400 0.000000
-194.941696 -65.174225 -8.848400 0.000000
-181.458389 -65.174225 -8.848400 0.000000
-167.975098 -65.174225 -8.848400 0.000000
-154.491791 -65.174225 -8.848400 0.609619
-141.008499 -65.174225 -8.848400 0.617644
-127.525192 -65.174225 -8.848400 0.562915
-114.041885 -65.174225 -8.848400 0.523386
-100.558594 -65.174225 -8.848400 0.516913
-87.075287 -65.174225 -8.848400 0.560501
-73.591980 -65.174225 -8.848400 0.570505
-60.108704 -65.174225 -8.848400 0.586421
-46.625397 -65.174225 -8.848400 0.676416
-33.142090 -65.174225 -8.848400 0.693129
-19.658783 -65.174225 -8.848400 0.768604
-6.175476 -65.174225 -8.848400 0.802468
7.307800 -65.174225 -8.848400 0.790236
20.791107 -65.174225 -8.848400 0.674720
34.274414 -65.174225 -8.848400 0.000000
47.757721 -65.174225 -8.848400 0.000000
61.240997 -65.174225 -8.848400 0.000000
74.724304 -65.174225 -8.848400 0.000000
88.207611 -65.174225 -8.848400 0.000000
101.690918 -65.174225 -8.848400 0.000000
115.174225 -65.174225 -8.848400 0.000000
128.657501 -65.174225 -8.848400 0.000000
142.140808 -65.174225 -8.848400 0.000000
155.624115 -65.174225 -8.848400 0.000000
169.107422 -65.174225 -8.848400 0.000000
182.590698 -65.174225 -8.848400 0.000000
196.074036 -65.174225 -8.848400 0.000000
209.557312 -65.174225 -8.848400 0.000000
223.040588 -65.174225 -8.848400 0.000000
236.523926 -65.174225 -8.848400 0.000000
250.007202 -65.174225 -8.848400 0.000000
263.490540 -65.174225 -8.848400 0.000000
276.973816 -65.174225 -8.848400 0.000000
290.457092 -65.174225 -8.848400 0.000000
303.940430 -65.174225 -8.848400 0.000000
317.423706 -65.174225 -8.848400 0.000000
330.907043 -65.174225 -8.848400 0.000000
344.390320 -65.174225 -8.848400 0.000000
-343.257996 -78.657501 -8.848400 0.000000
-329.774689 -78.657501 -8.848400 0.000000
-316.291382 -78.657501 -8.848400 0.000000
-302.808105 -78.657501 -8.848400 0.000000
-289.324799 -78.657501 -8.848400 0.000000
-275.841492 -78.657501 -8.848400 0.000000
-262.358185 -78.657501 -8.848400 0.000000
-248.874893 -78.657501 -8.848400 0.000000
-235.391602 -78.657501 -8.848400 0.000000
-221.908295 -78.657501 -8.848400 0.000000
-208.424988 -78.657501 -8.848400 0.000000
-194.941696 -78.657501 -8.848400 0.000000
-181.458389 -78.657501 -8.848400 0.000000
-167.975098 -78.657501 -8.848400 0.000000
-154.491791 -78.657501 -8.848400 0.000000
-141.008499 -78.657501 -8.848400 0.629154
-127.525192 -78.657501 -8.848400 0.000000
-114.041885 -78.657501 -8.848400 0.000000
-100.558594 -78.657501 -8.848400 0.554604
-87.075287 -78.657501 -8.848400 0.588766
-73.591980 -78.657501 -8.848400 0.631713
-60.108704 -78.657501 -8.848400 0.677944
-46.625397 -78.657501 -8.848400 0.713186
-33.142090 -78.657501 -8.848400 0.740515
-19.658783 -78.657501 -8.848400 0.724874
-6.175476 -78.657501 -8.848400 0.724749
7.307800 -78.657501 -8.848400 0.700089
20.791107 -78.657501 -8.848400 0.000000
34.274414 -78.657501 -8.848400 0.000000
47.757721 -78.657501 -8.848400 0.000000
61.240997 -78.657501 -8.848400 0.000000
74.724304 -78.657501 -8.848400 0.000000
88.207611 -78.657501 -8.848400 0.000000
101.690918 -78.657501 -8.848400 0.000000
115.174225 -78.657501 -8.848400 0.000000
128.657501 -78.657501 -8.848400 0.000000
142.140808 -78.657501 -8.848400 0.000000
155.624115 -78.657501 -8.848400 0.000000
169.107422 -78.657501 -8.848400 0.000000
182.590698 -78.657501 -8.848400 0.000000
196.074036 -78.657501 -8.848400 0.000000
209.557312 -78.657501 -8.848400 0.000000
223.040588 -78.657501 -8.848400 0.000000
236.523926 -78.657501 -8.848400 0.000000
250.007202 -78.657501 -8.848400 0.000000
263.490540 -78.657501 -8.848400 0.000000
276.973816 -78.657501 -8.848400 0.000000
290.457092 -78.657501 -8.848400 0.000000
303.940430 -78.657501 -8.848400 0.000000
317.423706 -78.657501 -8.848400 0.000000
330.907043 -78.657501 -8.848400 0.000000
344.390320 -78.657501 -8.848400 0.000000
-343.257996 -92.140808 -8.848400 0.000000
-329.774689 -92.140808 -8.848400 0.000000
-316.291382 -92.140808 -8.848400 0.000000
-302.808105 -92.140808 -8.848400 0.000000
-289.324799 -92.140808 -8.848400 0.000000
-275.841492 -92.140808 -8.848400 0.000000
-262.358185 -92.140808 -8.848400 0.000000
-248.874893 -92.140808 -8.848400 0.000000
-235.391602 -92.140808 -8.848400 0.000000
-221.908295 -92.140808 -8.848400 0.000000
-208.424988 -92.140808 -8.848400 0.000000
-194.941696 -92.140808 -8.848400 0.000000
-181.458389 -92.140808 -8.848400 0.000000
-167.975098 -92.140808 -8.848400 0.000000
-154.491791 -92.140808 -8.848400 0.000000
-141.008499 -92.140808 -8.848400 0.000000
-127.525192 -92.140808 -8.848400 0.000000
-114.041885 -92.140808 -8.848400 0.000000
-100.558594 -92.140808 -8.848400 0.000000
-87.075287 -92.140808 -8.848400 0.606399
-73.591980 -92.140808 -8.848400 0.000000
-60.108704 -92.140808 -8.848400 0.000000
-46.625397 -92.140808 -8.848400 0.000000
-33.142090 -92.140808 -8.848400 0.684405
-19.658783 -92.140808 -8.848400 0.652926
-6.175476 -92.140808 -8.848400 0.000000
7.307800 -92.140808 -8.848400 0.000000
20.791107 -92.140808 -8.848400 0.000000
34.274414 -92.140808 -8.848400 0.000000
47.757721 -92.140808 -8.848400 0.000000
61.240997 -92.140808 -8.848400 0.000000
74.724304 -92.140808 -8.848400 0.000000
88.207611 -92.140808 -8.848400 0.000000
101.690918 -92.140808 -8.848400 0.000000
115.174225 -92.140808 -8.848400 0.000000
128.657501 -92.140808 -8.848400 0.000000
142.140808 -92.140808 -8.848400 0.000000
155.624115 -92.140808 -8.848400 0.000000
169.107422 -92.140808 -8.848400 0.000000
182.590698 -92.140808 -8.848400 0.000000
196.074036 -92.140808 -8.848400 0.000000
209.557312 -92.140808 -8.848400 0.000000
223.040588 -92.140808 -8.848400 0.000000
236.523926 -92.140808 -8.848400 0.000000
250.007202 -92.140808 -8.848400 0.000000
263.490540 -92.140808 -8.848400 0.000000
276.973816 -92.140808 -8.848400 0.000000
290.457092 -92.140808 -8.848400 0.000000
303.940430 -92.140808 -8.848400 0.000000
317.423706 -92.140808 -8.848400 0.000000
330.907043 -92.140808 -8.848400 0.000000
344.390320 -92.140808 -8.848400 0.000000
-343.257996 -105.624115 -8.848400 0.000000
-329.774689 -105.624115 -8.848400 0.000000
-316.291382 -105.624115 -8.848400 0.000000
-302.808105 -105.624115 -8.848400 0.000000
-289.324799 -105.624115 -8.848400 0.000000
-275.841492 -105.624115 -8.848400 0.000000
-262.358185 -105.624115 -8.848400 0.000000
-248.874893 -105.624115 -8.848400 0.000000
-235.391602 -105.624115 -8.848400 0.000000
-221.908295 -105.624115 -8.848400 0.000000
-208.424988 -105.624115 -8.848400 0.000000
-194.941696 -105.624115 -8.848400 0.000000
-181.458389 -105.624115 -8.848400 0.000000
-167.975098 -105.624115 -8.848400 0.000000
-154.491791 -105.624115 -8.848400 0.000000
-141.008499 -105.624115 -8.848400 0.000000
-127.525192 -105.624115 -8.848400 0.000000
-114.041885 -105.624115 -8.848400 0.000000
-100.558594 -105.624115 -8.848400 0.000000
-87.075287 -105.624115 -8.848400 0.000000
-73.591980 -105.624115 -8.848400 0.000000
-60.108704 -105.624115 -8.848400 0.000000
-46.625397 -105.624115 -8.848400 0.000000
-33.142090 -105.624115 -8.848400 0.000000
-19.658783 -105.624115 -8.848400 0.000000
-6.175476 -105.624115 -8.848400 0.000000
7.307800 -105.624115 -8.848400 0.000000
20.791107 -105.624115 -8.848400 0.000000
34.274414 -105.624115 -8.848400 0.000000
47.757721 -105.624115 -8.848400 0.000000
61.240997 -105.624115 -8.848400 0.000000
74.724304 -105.624115 -8.848400 0.000000
88.207611 -105.624115 -8.848400 0.000000
101.690918 -105.624115 -8.848400 0.000000
115.174225 -105.624115 -8.848400 0.000000
128.657501 -105.624115 -8.848400 0.000000
142.140808 -105.624115 -8.848400 0.000000
155.624115 -105.624115 -8.848400 0.000000
169.107422 -105.624115 -8.848400 0.000000
182.590698 -105.624115 -8.848400 0.000000
196.074036 -105.624115 -8.848400 0.000000
209.557312 -105.624115 -8.848400 0.000000
223.040588 -105.624115 -8.848400 0.000000
236.523926 -105.624115 -8.848400 0.000000
250.007202 -105.624115 -8.848400 0.000000
263.490540 -105.624115 -8.848400 0.000000
276.973816 -105.624115 -8.848400 0.000000
290.457092 -105.624115 -8.848400 0.000000
303.940430 -105.624115 -8.848400 0.000000
317.423706 -105.624115 -8.848400 0.000000
330.907043 -105.624115 -8.848400 0.000000
344.390320 -105.624115 -8.848400 0.000000
-343.257996 -119.107422 -8.848400 0.000000
-329.774689 -119.107422 -8.848400 0.000000
-316.291382 -119.107422 -8.848400 0.000000
-302.808105 -119.107422 -8.848400 0.000000
-289.324799 -119.107422 -8.848400 0.000000
-275.841492 -119.107422 -8.848400 0.000000
-262.358185 -119.107422 -8.848400 0.000000
-248.874893 -119.107422 -8.848400 0.000000
-235.391602 -119.107422 -8.848400 0.000000
-221.908295 -119.107422 -8.848400 0.000000
-208.424988 -119.107422 -8.848400 0.000000
-194.941696 -119.107422 -8.848400 0.000000
-181.458389 -119.107422 -8.848400 0.000000
-167.975098 -119.107422 -8.848400 0.000000
-154.491791 -119.107422 -8.848400 0.000000
-141.008499 -119.107422 -8.848400 0.000000
-127.525192 -119.107422 -8.848400 0.000000
-114.041885 -119.107422 -8.848400 0.000000
-100.558594 -119.107422 -8.848400 0.000000
-87.075287 -119.107422 -8.848400 0.000000
-73.591980 -119.107422 -8.848400 0.000000
-60.108704 -119.107422 -8.848400 0.000000
-46.625397 -119.107422 -8.848400 0.000000
-33.142090 -119.107422 -8.848400 0.000000
-19.658783 -119.107422 -8.848400 0.000000
-6.175476 -119.107422 -8.848400 0.000000
7.307800 -119.107422 -8.848400 0.000000
20.791107 -119.107422 -8.848400 0.000000
34.274414 -119.107422 -8.848400 0.000000
47.757721 -119.107422 -8.848400 0.000000
61.240997 -119.107422 -8.848400 0.000000
74.724304 -119.107422 -8.848400 0.000000
88.207611 -119.107422 -8.848400 0.000000
101.690918 -119.107422 -8.848400 0.000000
115.174225 -119.107422 -8.848400 0.000000
128.657501 -119.107422 -8.848400 0.000000
142.140808 -119.107422 -8.848400 0.000000
155.624115 -119.107422 -8.848400 0.000000
169.107422 -119.107422 -8.848400 0.000000
182.590698 -119.107422 -8.848400 0.000000
196.074036 -119.107422 -8.848400 0.000000
209.557312 -119.107422 -8.848400 0.000000
223.040588 -119.107422 -8.848400 0.000000
236.523926 -119.107422 -8.848400 0.000000
250.007202 -119.107422 -8.848400 0.000000
263.490540 -119.107422 -8.848400 0.000000
276.973816 -119.107422 -8.848400 0.000000
290.457092 -119.107422 -8.848400 0.000000
303.940430 -119.107422 -8.848400 0.000000
317.423706 -119.107422 -8.848400 0.000000
330.907043 -119.107422 -8.848400 0.000000
344.390320 -119.107422 -8.848400 0.000000
-343.257996 -132.590698 -8.848400 0.000000
-329.774689 -132.590698 -8.848400 0.000000
-316.291382 -132.590698 -8.848400 0.000000
-302.808105 -132.590698 -8.848400 0.000000
-289.324799 -132.590698 -8.848400 0.000000
-275.841492 -132.590698 -8.848400 0.000000
-262.358185 -132.590698 -8.848400 0.000000
-248.874893 -132.590698 -8.848400 0.000000
-235.391602 -132.590698 -8.848400 0.000000
-221.908295 -132.590698 -8.848400 0.000000
-208.424988 -132.590698 -8.848400 0.000000
-194.941696 -132.590698 -8.848400 0.000000
-181.458389 -132.590698 -8.848400 0.000000
-167.975098 -132.590698 -8.848400 0.000000
-154.491791 -132.590698 -8.848400 0.000000
-141.008499 -132.590698 -8.848400 0.000000
-127.525192 -132.590698 -8.848400 0.000000
-114.041885 -132.590698 -8.848400 0.000000
-100.558594 -132.590698 -8.848400 0.000000
-87.075287 -132.590698 -8.848400 0.000000
-73.591980 -132.590698 -8.848400 0.000000
-60.108704 -132.590698 -8.848400 0.000000
-46.625397 -132.590698 -8.848400 0.000000
-33.142090 -132.590698 -8.848400 0.000000
-19.658783 -132.590698 -8.848400 0.000000
-6.175476 -132.590698 -8.848400 0.000000
7.307800 -132.590698 -8.848400 0.000000
20.791107 -132.590698 -8.848400 0.000000
34.274414 -132.590698 -8.848400 0.000000
47.757721 -132.590698 -8.848400 0.000000
61.240997 -132.590698 -8.848400 0.000000
74.724304 -132.590698 -8.848400 0.000000
88.207611 -132.590698 -8.848400 0.000000
101.690918 -132.590698 -8.848400 0.000000
115.174225 -132.590698 -8.848400 0.000000
128.657501 -132.590698 -8.848400 0.000000
142.140808 -132.590698 -8.848400 0.000000
155.624115 -132.590698 -8.848400 0.000000
169.107422 -132.590698 -8.848400 0.000000
182.590698 -132.590698 -8.848400 0.000000
196.074036 -132.590698 -8.848400 0.000000
209.557312 -132.590698 -8.848400 0.000000
223.040588 -132.590698 -8.848400 0.000000
236.523926 -132.590698 -8.848400 0.000000
250.007202 -132.590698 -8.848400 0.000000
263.490540 -132.590698 -8.848400 0.000000
276.973816 -132.590698 -8.848400 0.000000
290.457092 -132.590698 -8.848400 0.000000
303.940430 -132.590698 -8.848400 0.000000
317.423706 -132.590698 -8.848400 0.000000
330.907043 -132.590698 -8.848400 0.000000
344.390320 -132.590698 -8.848400 0.000000
-343.257996 -146.074036 -8.848400 0.000000
-329.774689 -146.074036 -8.848400 0.000000
-316.291382 -146.074036 -8.848400 0.000000
-302.808105 -146.074036 -8.848400 0.000000
-289.324799 -146.074036 -8.848400 0.000000
-275.841492 -146.074036 -8.848400 0.000000
-262.358185 -146.074036 -8.848400 0.000000
-248.874893 -146.074036 -8.848400 0.000000
-235.391602 -146.074036 -8.848400 0.000000
-221.908295 -146.074036 -8.848400 0.000000
-208.424988 -146.074036 -8.848400 0.000000
-194.941696 -146.074036 -8.848400 0.000000
-181.458389 -146.074036 -8.848400 0.000000
-167.975098 -146.074036 -8.848400 0.000000
-154.491791 -146.074036 -8.848400 0.000000
-141.008499 -146.074036 -8.848400 0.000000
-127.525192 -146.074036 -8.848400 0.000000
-114.041885 -146.074036 -8.848400 0.000000
-100.558594 -146.074036 -8.848400 0.000000
-87.075287 -146.074036 -8.848400 0.000000
-73.591980 -146.074036 -8.848400 0.000000
-60.108704 -146.074036 -8.848400 0.000000
-46.625397 -146.074036 -8.848400 0.000000
-33.142090 -146.074036 -8.848400 0.000000
-19.658783 -146.074036 -8.848400 0.000000
-6.175476 -146.074036 -8.848400 0.000000
7.307800 -146.074036 -8.848400 0.000000
20.791107 -146.074036 -8.848400 0.000000
34.274414 -146.074036 -8.848400 0.000000
47.757721 -146.074036 -8.848400 0.000000
61.240997 -146.074036 -8.848400 0.000000
74.724304 -146.074036 -8.848400 0.000000
88.207611 -146.074036 -8.848400 0.000000
101.690918 -146.074036 -8.848400 0.000000
115.174225 -146.074036 -8.848400 0.000000
128.657501 -146.074036 -8.848400 0.000000
142.140808 -146.074036 -8.848400 0.000000
155.624115 -146.074036 -8.848400 0.000000
169.107422 -146.074036 -8.848400 0.000000
182.590698 -146.074036 -8.848400 0.000000
196.074036 -146.074036 -8.848400 0.000000
209.557312 -146.074036 -8.848400 0.000000
223.040588 -146.074036 -8.848400 0.000000
236.523926 -146.074036 -8.848400 0.000000
250.007202 -146.074036 -8.848400 0.000000
263.490540 -146.074036 -8.848400 0.000000
276.973816 -146.074036 -8.848400 0.000000
290.457092 -146.074036 -8.848400 0.000000
303.940430 -146.074036 -8.848400 0.000000
317.423706 -146.074036 -8.848400 0.000000
330.907043 -146.074036 -8.848400 0.000000
344.390320 -146.074036 -8.848400 0.000000
-343.257996 -159.557312 -8.848400 0.000000
-329.774689 -159.557312 -8.848400 0.000000
-316.291382 -159.557312 -8.848400 0.000000
-302.808105 -159.557312 -8.848400 0.000000
-289.324799 -159.557312 -8.848400 0.000000
-275.841492 -159.557312 -8.848400 0.000000
-262.358185 -159.557312 -8.848400 0.000000
-248.874893 -159.557312 -8.848400 0.000000
-235.391602 -159.557312 -8.848400 0.000000
-221.908295 -159.557312 -8.848400 0.000000
-208.424988 -159.557312 -8.848400 0.000000
-194.941696 -159.557312 -8.848400 0.000000
-181.458389 -159.557312 -8.848400 0.000000
-167.975098 -159.557312 -8.848400 0.000000
-154.491791 -159.557312 -8.848400 0.000000
-141.008499 -159.557312 -8.848400 0.000000
-127.525192 -159.557312 -8.848400 0.000000
-114.041885 -159.557312 -8.848400 0.000000
-100.558594 -159.557312 -8.848400 0.000000
-87.075287 -159.557312 -8.848400 0.000000
-73.591980 -159.557312 -8.848400 0.000000
-60.108704 -159.557312 -8.848400 0.000000
-46.625397 -159.557312 -8.848400 0.000000
-33.142090 -159.557312 -8.848400 0.000000
-19.658783 -159.557312 -8.848400 0.000000
-6.175476 -159.557312 -8.848400 0.000000
7.307800 -159.557312 -8.848400 0.000000
20.791107 -159.557312 -8.848400 0.000000
34.274414 -159.557312 -8.848400 0.000000
47.757721 -159.557312 -8.848400 0.000000
61.240997 -159.557312 -8.848400 0.000000
74.724304 -159.557312 -8.848400 0.000000
88.207611 -159.557312 -8.848400 0.000000
101.690918 -159.557312 -8.848400 0.000000
115.174225 -159.557312 -8.848400 0.000000
128.657501 -159.557312 -8.848400 0.000000
142.140808 -159.557312 -8.848400 0.000000
155.624115 -159.557312 -8.848400 0.000000
169.107422 -159.557312 -8.848400 0.000000
182.590698 -159.557312 -8.848400 0.000000
196.074036 -159.557312 -8.848400 0.000000
209.557312 -159.557312 -8.848400 0.000000
223.040588 -159.557312 -8.848400 0.000000
236.523926 -159.557312 -8.848400 0.000000
250.007202 -159.557312 -8.848400 0.000000
263.490540 -159.557312 -8.848400 0.000000
276.973816 -159.557312 -8.848400 0.000000
290.457092 -159.557312 -8.848400 0.000000
303.940430 -159.557312 -8.848400 0.000000
317.423706 -159.557312 -8.848400 0.000000
330.907043 -159.557312 -8.848400 0.000000
344.390320 -159.557312 -8.848400 0.000000
-343.257996 -173.040588 -8.848400 0.000000
-329.774689 -173.040588 -8.848400 0.000000
-316.291382 -173.040588 -8.848400 0.000000
-302.808105 -173.040588 -8.848400 0.000000
-289.324799 -173.040588 -8.848400 0.000000
-275.841492 -173.040588 -8.848400 0.000000
-262.358185 -173.040588 -8.848400 0.000000
-248.874893 -173.040588 -8.848400 0.000000
-235.391602 -173.040588 -8.848400 0.000000
-221.908295 -173.040588 -8.848400 0.000000
-208.424988 -173.040588 -8.848400 0.000000
-194.941696 -173.040588 -8.848400 0.000000
-181.458389 -173.040588 -8.848400 0.000000
-167.975098 -173.040588 -8.848400 0.000000
-154.491791 -173.040588 -8.848400 0.000000
-141.008499 -173.040588 -8.848400 0.000000
-127.525192 -173.040588 -8.848400 0.000000
-114.041885 -173.040588 -8.848400 0.000000
-100.558594 -173.040588 -8.848400 0.000000
-87.075287 -173.040588 -8.848400 0.000000
-73.591980 -173.040588 -8.848400 0.000000
-60.108704 -173.040588 -8.848400 0.000000
-46.625397 -173.040588 -8.848400 0.000000
-33.142090 -173.040588 -8.848400 0.000000
-19.658783 -173.040588 -8.848400 0.000000
-6.175476 -173.040588 -8.848400 0.000000
7.307800 -173.040588 -8.848400 0.000000
20.791107 -173.040588 -8.848400 0.000000
34.274414 -173.040588 -8.848400 0.000000
47.757721 -173.040588 -8.848400 0.000000
61.240997 -173.040588 -8.848400 0.000000
74.724304 -173.040588 -8.848400 0.000000
88.207611 -173.040588 -8.848400 0.000000
101.690918 -173.040588 -8.848400 0.000000
115.174225 -173.040588 -8.848400 0.000000
128.657501 -173.040588 -8.848400 0.000000
142.140808 -173.040588 -8.848400 0.000000
155.624115 -173.040588 -8.848400 0.000000
169.107422 -173.040588 -8.848400 0.000000
182.590698 -173.040588 -8.848400 0.000000
196.074036 -173.040588 -8.848400 0.000000
209.557312 -173.040588 -8.848400 0.000000
223.040588 -173.040588 -8.848400 0.000000
236.523926 -173.040588 -8.848400 0.000000
250.007202 -173.040588 -8.848400 0.000000
263.490540 -173.040588 -8.848400 0.000000
276.973816 -173.040588 -8.848400 0.000000
290.457092 -173.040588 -8.848400 0.000000
303.940430 -173.040588 -8.848400 0.000000
317.423706 -173.040588 -8.848400 0.000000
330.907043 -173.040588 -8.848400 0.000000
344.390320 -173.040588 -8.848400 0.000000
-343.257996 -186.523926 -8.848400 0.000000
-329.774689 -186.523926 -8.848400 0.000000
-316.291382 -186.523926 -8.848400 0.000000
-302.808105 -186.523926 -8.848400 0.000000
-289.324799 -186.523926 -8.848400 0.000000
-275.841492 -186.523926 -8.848400 0.000000
-262.358185 -186.523926 -8.848400 0.000000
-248.874893 -186.523926 -8.848400 0.000000
-235.391602 -186.523926 -8.848400 0.000000
-221.908295 -186.523926 -8.848400 0.000000
-208.424988 -186.523926 -8.848400 0.000000
-194.941696 -186.523926 -8.848400 0.000000
-181.458389 -186.523926 -8.848400 0.000000
-167.975098 -186.523926 -8.848400 0.000000
-154.491791 -186.523926 -8.848400 0.000000
-141.008499 -186.523926 -8.848400 0.000000
-127.525192 -186.523926 -8.848400 0.000000
-114.041885 -186.523926 -8.848400 0.000000
-100.558594 -186.523926 -8.848400 0.000000
-87.075287 -186.523926 -8.848400 0.000000
-73.591980 -186.523926 -8.848400 0.000000
-60.108704 -186.523926 -8.848400 0.000000
-46.625397 -186.523926 -8.848400 0.000000
-33.142090 -186.523926 -8.848400 0.000000
-19.658783 -186.523926 -8.848400 0.000000
-6.175476 -186.523926 -8.848400 0.000000
7.307800 -186.523926 -8.848400 0.000000
20.791107 -186.523926 -8.848400 0.000000
34.274414 -186.523926 -8.848400 0.000000
47.757721 -186.523926 -8.848400 0.000000
61.240997 -186.523926 -8.848400 0.000000
74.724304 -186.523926 -8.848400 0.000000
88.207611 -186.523926 -8.848400 0.000000
101.690918 -186.523926 -8.848400 0.000000
115.174225 -186.523926 -8.848400 0.000000
128.657501 -186.523926 -8.848400 0.000000
142.140808 -186.523926 -8.848400 0.000000
155.624115 -186.523926 -8.848400 0.000000
169.107422 -186.523926 -8.848400 0.000000
182.590698 -186.523926 -8.848400 0.000000
196.074036 -186.523926 -8.848400 0.000000
209.557312 -186.523926 -8.848400 0.000000
223.040588 -186.523926 -8.848400 0.000000
236.523926 -186.523926 -8.848400 0.000000
250.007202 -186.523926 -8.848400 0.000000
263.490540 -186.523926 -8.848400 0.000000
276.973816 -186.523926 -8.848400 0.000000
290.457092 -186.523926 -8.848400 0.000000
303.940430 -186.523926 -8.848400 0.000000
317.423706 -186.523926 -8.848400 0.000000
330.907043 -186.523926 -8.848400 0.000000
344.390320 -186.523926 -8.848400 0.000000
-343.257996 -200.007202 -8.848400 0.000000
-329.774689 -200.007202 -8.848400 0.000000
-316.291382 -200.007202 -8.848400 0.000000
-302.808105 -200.007202 -8.848400 0.000000
-289.324799 -200.007202 -8.848400 0.000000
-275.841492 -200.007202 -8.848400 0.000000
-262.358185 -200.007202 -8.848400 0.000000
-248.874893 -200.007202 -8.848400 0.000000
-235.391602 -200.007202 -8.848400 0.000000
-221.908295 -200.007202 -8.848400 0.000000
-208.424988 -200.007202 -8.848400 0.000000
-194.941696 -200.007202 -8.848400 0.000000
-181.458389 -200.007202 -8.848400 0.000000
-167.975098 -200.007202 -8.848400 0.000000
-154.491791 -200.007202 -8.848400 0.000000
-141.008499 -200.007202 -8.848400 0.000000
-127.525192 -200.007202 -8.848400 0.000000
-114.041885 -200.007202 -8.848400 0.000000
-100.558594 -200.007202 -8.848400 0.000000
-87.075287 -200.007202 -8.848400 0.000000
-73.591980 -200.007202 -8.848400 0.000000
-60.108704 -200.007202 -8.848400 0.000000
-46.625397 -200.007202 -8.848400 0.000000
-33.142090 -200.007202 -8.848400 0.000000
-19.658783 -200.007202 -8.848400 0.000000
-6.175476 -200.007202 -8.848400 0.000000
7.307800 -200.007202 -8.848400 0.000000
20.791107 -200.007202 -8.848400 0.000000
34.274414 -200.007202 -8.848400 0.000000
47.757721 -200.007202 -8.848400 0.000000
61.240997 -200.007202 -8.848400 0.000000
74.724304 -200.007202 -8.848400 0.000000
88.207611 -200.007202 -8.848400 0.000000
101.690918 -200.007202 -8.848400 0.000000
115.174225 -200.007202 -8.848400 0.000000
128.657501 -200.007202 -8.848400 0.000000
142.140808 -200.007202 -8.848400 0.000000
155.624115 -200.007202 -8.848400 0.000000
169.107422 -200.007202 -8.848400 0.000000
182.590698 -200.007202 -8.848400 0.000000
196.074036 -200.007202 -8.848400 0.000000
209.557312 -200.007202 -8.848400 0.000000
223.040588 -200.007202 -8.848400 0.000000
236.523926 -200.007202 -8.848400 0.000000
250.007202 -200.007202 -8.848400 0.000000
263.490540 -200.007202 -8.848400 0.000000
276.973816 -200.007202 -8.848400 0.000000
290.457092 -200.007202 -8.848400 0.000000
303.940430 -200.007202 -8.848400 0.000000
317.423706 -200.007202 -8.848400 0.000000
330.907043 -200.007202 -8.848400 0.000000
344.390320 -200.007202 -8.848400 0.000000
