TITLE = "B00003"
VARIABLES = "X", "Y", "Z", "Reynold stress YZ"
ZONE T="Frame 1" I=52, J=45, K=4, F=POINT
-343.257996 393.257996 -49.298302 0.000000
-329.774689 393.257996 -49.298302 0.000000
-316.291382 393.257996 -49.298302 0.000000
-302.808105 393.257996 -49.298302 0.000000
-289.324799 393.257996 -49.298302 0.000000
-275.841492 393.257996 -49.298302 0.000000
-262.358185 393.257996 -49.298302 0.000000
-248.874893 393.257996 -49.298302 0.000000
-235.391602 393.257996 -49.298302 0.000000
-221.908295 393.257996 -49.298302 0.000000
-208.424988 393.257996 -49.298302 0.000000
-194.941696 393.257996 -49.298302 0.000000
-181.458389 393.257996 -49.298302 0.000000
-167.975098 393.257996 -49.298302 0.000000
-154.491791 393.257996 -49.298302 0.000000
-141.008499 393.257996 -49.298302 0.000000
-127.525192 393.257996 -49.298302 0.000000
-114.041885 393.257996 -49.298302 0.000000
-100.558594 393.257996 -49.298302 0.000000
-87.075287 393.257996 -49.298302 0.000000
-73.591980 393.257996 -49.298302 0.000000
-60.108704 393.257996 -49.298302 0.000000
-46.625397 393.257996 -49.298302 0.000000
-33.142090 393.257996 -49.298302 0.000000
-19.658783 393.257996 -49.298302 0.000000
-6.175476 393.257996 -49.298302 0.000000
7.307800 393.257996 -49.298302 0.000000
20.791107 393.257996 -49.298302 0.000000
34.274414 393.257996 -49.298302 0.000000
47.757721 393.257996 -49.298302 0.000000
61.240997 393.257996 -49.298302 0.000000
74.724304 393.257996 -49.298302 0.000000
88.207611 393.257996 -49.298302 0.000000
101.690918 393.257996 -49.298302 0.000000
115.174225 393.257996 -49.298302 0.000000
128.657501 393.257996 -49.298302 0.000000
142.140808 393.257996 -49.298302 0.000000
155.624115 393.257996 -49.298302 0.000000
169.107422 393.257996 -49.298302 0.000000
182.590698 393.257996 -49.298302 0.000000
196.074036 393.257996 -49.298302 0.000000
209.557312 393.257996 -49.298302 0.000000
223.040588 393.257996 -49.298302 0.000000
236.523926 393.257996 -49.298302 0.000000
250.007202 393.257996 -49.298302 0.000000
263.490540 393.257996 -49.298302 0.000000
276.973816 393.257996 -49.298302 0.000000
290.457092 393.257996 -49.298302 0.000000
303.940430 393.257996 -49.298302 0.000000
317.423706 393.257996 -49.298302 0.000000
330.907043 393.257996 -49.298302 0.000000
344.390320 393.257996 -49.298302 0.000000
-343.257996 379.774689 -49.298302 0.000000
-329.774689 379.774689 -49.298302 0.000000
-316.291382 379.774689 -49.298302 0.000000
-302.808105 379.774689 -49.298302 0.000000
-289.324799 379.774689 -49.298302 0.000000
-275.841492 379.774689 -49.298302 0.000000
-262.358185 379.774689 -49.298302 0.000000
-248.874893 379.774689 -49.298302 0.000000
-235.391602 379.774689 -49.298302 0.000000
-221.908295 379.774689 -49.298302 0.000000
-208.424988 379.774689 -49.298302 0.000000
-194.941696 379.774689 -49.298302 0.000000
-181.458389 379.774689 -49.298302 0.000000
-167.975098 379.774689 -49.298302 0.000000
-154.491791 379.774689 -49.298302 0.000000
-141.008499 379.774689 -49.298302 0.000000
-127.525192 379.774689 -49.298302 0.000000
-114.041885 379.774689 -49.298302 0.000000
-100.558594 379.774689 -49.298302 0.000000
-87.075287 379.774689 -49.298302 0.000000
-73.591980 379.774689 -49.298302 0.000000
-60.108704 379.774689 -49.298302 0.000000
-46.625397 379.774689 -49.298302 0.000000
-33.142090 379.774689 -49.298302 0.000000
-19.658783 379.774689 -49.298302 0.000000
-6.175476 379.774689 -49.298302 0.000000
7.307800 379.774689 -49.298302 0.000000
20.791107 379.774689 -49.298302 0.000000
34.274414 379.774689 -49.298302 0.000000
47.757721 379.774689 -49.298302 0.000000
61.240997 379.774689 -49.298302 0.000000
74.724304 379.774689 -49.298302 0.000000
88.207611 379.774689 -49.298302 0.000000
101.690918 379.774689 -49.298302 0.000000
115.174225 379.774689 -49.298302 0.000000
128.657501 379.774689 -49.298302 0.000000
142.140808 379.774689 -49.298302 0.000000
155.624115 379.774689 -49.298302 0.000000
169.107422 379.774689 -49.298302 0.000000
182.590698 379.774689 -49.298302 0.000000
196.074036 379.774689 -49.298302 0.000000
209.557312 379.774689 -49.298302 0.000000
223.040588 379.774689 -49.298302 0.000000
236.523926 379.774689 -49.298302 0.000000
250.007202 379.774689 -49.298302 0.000000
263.490540 379.774689 -49.298302 0.000000
276.973816 379.774689 -49.298302 0.000000
290.457092 379.774689 -49.298302 0.000000
303.940430 379.774689 -49.298302 0.000000
317.423706 379.774689 -49.298302 0.000000
330.907043 379.774689 -49.298302 0.000000
344.390320 379.774689 -49.298302 0.000000
-343.257996 366.291382 -49.298302 0.000000
-329.774689 366.291382 -49.298302 0.000000
-316.291382 366.291382 -49.298302 0.000000
-302.808105 366.291382 -49.298302 0.000000
-289.324799 366.291382 -49.298302 0.000000
-275.841492 366.291382 -49.298302 0.000000
-262.358185 366.291382 -49.298302 0.000000
-248.874893 366.291382 -49.298302 0.000000
-235.391602 366.291382 -49.298302 0.000000
-221.908295 366.291382 -49.298302 0.000000
-208.424988 366.291382 -49.298302 0.000000
-194.941696 366.291382 -49.298302 0.000000
-181.458389 366.291382 -49.298302 0.000000
-167.975098 366.291382 -49.298302 0.000000
-154.491791 366.291382 -49.298302 0.000000
-141.008499 366.291382 -49.298302 0.000000
-127.525192 366.291382 -49.298302 0.000000
-114.041885 366.291382 -49.298302 0.000000
-100.558594 366.291382 -49.298302 0.000000
-87.075287 366.291382 -49.298302 0.000000
-73.591980 366.291382 -49.298302 0.000000
-60.108704 366.291382 -49.298302 0.000000
-46.625397 366.291382 -49.298302 0.000000
-33.142090 366.291382 -49.298302 0.000000
-19.658783 366.291382 -49.298302 0.000000
-6.175476 366.291382 -49.298302 0.000000
7.307800 366.291382 -49.298302 0.000000
20.791107 366.291382 -49.298302 0.000000
34.274414 366.291382 -49.298302 0.000000
47.757721 366.291382 -49.298302 0.000000
61.240997 366.291382 -49.298302 0.000000
74.724304 366.291382 -49.298302 0.000000
88.207611 366.291382 -49.298302 0.000000
101.690918 366.291382 -49.298302 0.000000
115.174225 366.291382 -49.298302 0.000000
128.657501 366.291382 -49.298302 0.000000
142.140808 366.291382 -49.298302 0.000000
155.624115 366.291382 -49.298302 0.000000
169.107422 366.291382 -49.298302 0.000000
182.590698 366.291382 -49.298302 0.000000
196.074036 366.291382 -49.298302 0.000000
209.557312 366.291382 -49.298302 0.000000
223.040588 366.291382 -49.298302 0.000000
236.523926 366.291382 -49.298302 0.000000
250.007202 366.291382 -49.298302 0.000000
263.490540 366.291382 -49.298302 0.000000
276.973816 366.291382 -49.298302 0.000000
290.457092 366.291382 -49.298302 0.000000
303.940430 366.291382 -49.298302 0.000000
317.423706 366.291382 -49.298302 0.000000
330.907043 366.291382 -49.298302 0.000000
344.390320 366.291382 -49.298302 0.000000
-343.257996 352.808105 -49.298302 0.000000
-329.774689 352.808105 -49.298302 0.000000
-316.291382 352.808105 -49.298302 0.000000
-302.808105 352.808105 -49.298302 0.000000
-289.324799 352.808105 -49.298302 -0.003427
-275.841492 352.808105 -49.298302 -0.003682
-262.358185 352.808105 -49.298302 -0.006066
-248.874893 352.808105 -49.298302 -0.004360
-235.391602 352.808105 -49.298302 -0.007618
-221.908295 352.808105 -49.298302 -0.011224
-208.424988 352.808105 -49.298302 -0.020586
-194.941696 352.808105 -49.298302 -0.030261
-181.458389 352.808105 -49.298302 -0.039873
-167.975098 352.808105 -49.298302 0.000000
-154.491791 352.808105 -49.298302 0.000000
-141.008499 352.808105 -49.298302 0.000000
-127.525192 352.808105 -49.298302 0.000000
-114.041885 352.808105 -49.298302 0.000000
-100.558594 352.808105 -49.298302 0.000000
-87.075287 352.808105 -49.298302 0.000000
-73.591980 352.808105 -49.298302 0.000000
-60.108704 352.808105 -49.298302 0.000000
-46.625397 352.808105 -49.298302 0.000000
-33.142090 352.808105 -49.298302 0.000000
-19.658783 352.808105 -49.298302 0.000000
-6.175476 352.808105 -49.298302 0.000000
7.307800 352.808105 -49.298302 0.000000
20.791107 352.808105 -49.298302 -0.063655
34.274414 352.808105 -49.298302 -0.044523
47.757721 352.808105 -49.298302 -0.039905
61.240997 352.808105 -49.298302 -0.033862
74.724304 352.808105 -49.298302 0.000000
88.207611 352.808105 -49.298302 0.000000
101.690918 352.808105 -49.298302 0.000000
115.174225 352.808105 -49.298302 0.000000
128.657501 352.808105 -49.298302 0.000000
142.140808 352.808105 -49.298302 0.000000
155.624115 352.808105 -49.298302 0.000000
169.107422 352.808105 -49.298302 0.000000
182.590698 352.808105 -49.298302 0.000000
196.074036 352.808105 -49.298302 0.000000
209.557312 352.808105 -49.298302 0.000000
223.040588 352.808105 -49.298302 0.000000
236.523926 352.808105 -49.298302 0.000000
250.007202 352.808105 -49.298302 0.000000
263.490540 352.808105 -49.298302 0.000000
276.973816 352.808105 -49.298302 0.000000
290.457092 352.808105 -49.298302 0.000000
303.940430 352.808105 -49.298302 0.000000
317.423706 352.808105 -49.298302 0.000000
330.907043 352.808105 -49.298302 0.000000
344.390320 352.808105 -49.298302 0.000000
-343.257996 339.324799 -49.298302 0.000000
-329.774689 339.324799 -49.298302 0.000000
-316.291382 339.324799 -49.298302 0.000000
-302.808105 339.324799 -49.298302 -0.003056
-289.324799 339.324799 -49.298302 -0.002249
-275.841492 339.324799 -49.298302 -0.002636
-262.358185 339.324799 -49.298302 -0.003716
-248.874893 339.324799 -49.298302 -0.004038
-235.391602 339.324799 -49.298302 -0.006366
-221.908295 339.324799 -49.298302 -0.011412
-208.424988 339.324799 -49.298302 -0.024828
-194.941696 339.324799 -49.298302 -0.026893
-181.458389 339.324799 -49.298302 -0.048624
-167.975098 339.324799 -49.298302 -0.061762
-154.491791 339.324799 -49.298302 -0.095530
-141.008499 339.324799 -49.298302 -0.120579
-127.525192 339.324799 -49.298302 -0.125543
-114.041885 339.324799 -49.298302 -0.153284
-100.558594 339.324799 -49.298302 -0.171724
-87.075287 339.324799 -49.298302 -0.166751
-73.591980 339.324799 -49.298302 -0.172321
-60.108704 339.324799 -49.298302 -0.183125
-46.625397 339.324799 -49.298302 -0.192588
-33.142090 339.324799 -49.298302 -0.169389
-19.658783 339.324799 -49.298302 -0.127514
-6.175476 339.324799 -49.298302 -0.107406
7.307800 339.324799 -49.298302 -0.085061
20.791107 339.324799 -49.298302 -0.066661
34.274414 339.324799 -49.298302 -0.053142
47.757721 339.324799 -49.298302 -0.042898
61.240997 339.324799 -49.298302 -0.044480
74.724304 339.324799 -49.298302 -0.040461
88.207611 339.324799 -49.298302 -0.046936
101.690918 339.324799 -49.298302 -0.059305
115.174225 339.324799 -49.298302 -0.085666
128.657501 339.324799 -49.298302 -0.119991
142.140808 339.324799 -49.298302 -0.146225
155.624115 339.324799 -49.298302 -0.163012
169.107422 339.324799 -49.298302 -0.167846
182.590698 339.324799 -49.298302 -0.157291
196.074036 339.324799 -49.298302 -0.127476
209.557312 339.324799 -49.298302 -0.102125
223.040588 339.324799 -49.298302 -0.083578
236.523926 339.324799 -49.298302 -0.048602
250.007202 339.324799 -49.298302 -0.028088
263.490540 339.324799 -49.298302 -0.034430
276.973816 339.324799 -49.298302 0.000000
290.457092 339.324799 -49.298302 0.000000
303.940430 339.324799 -49.298302 0.000000
317.423706 339.324799 -49.298302 0.000000
330.907043 339.324799 -49.298302 0.000000
344.390320 339.324799 -49.298302 0.000000
-343.257996 325.841492 -49.298302 0.000000
-329.774689 325.841492 -49.298302 0.000000
-316.291382 325.841492 -49.298302 0.000000
-302.808105 325.841492 -49.298302 -0.002107
-289.324799 325.841492 -49.298302 -0.001199
-275.841492 325.841492 -49.298302 -0.001364
-262.358185 325.841492 -49.298302 -0.003000
-248.874893 325.841492 -49.298302 -0.003201
-235.391602 325.841492 -49.298302 -0.006440
-221.908295 325.841492 -49.298302 -0.009520
-208.424988 325.841492 -49.298302 -0.024433
-194.941696 325.841492 -49.298302 -0.033233
-181.458389 325.841492 -49.298302 -0.055757
-167.975098 325.841492 -49.298302 -0.075542
-154.491791 325.841492 -49.298302 -0.100071
-141.008499 325.841492 -49.298302 -0.113968
-127.525192 325.841492 -49.298302 -0.108323
-114.041885 325.841492 -49.298302 -0.126751
-100.558594 325.841492 -49.298302 -0.138246
-87.075287 325.841492 -49.298302 -0.141003
-73.591980 325.841492 -49.298302 -0.143740
-60.108704 325.841492 -49.298302 -0.143807
-46.625397 325.841492 -49.298302 -0.149494
-33.142090 325.841492 -49.298302 -0.155615
-19.658783 325.841492 -49.298302 -0.127547
-6.175476 325.841492 -49.298302 -0.109600
7.307800 325.841492 -49.298302 -0.087386
20.791107 325.841492 -49.298302 -0.069469
34.274414 325.841492 -49.298302 -0.056790
47.757721 325.841492 -49.298302 -0.051863
61.240997 325.841492 -49.298302 -0.047940
74.724304 325.841492 -49.298302 -0.049933
88.207611 325.841492 -49.298302 -0.068164
101.690918 325.841492 -49.298302 -0.098940
115.174225 325.841492 -49.298302 -0.135692
128.657501 325.841492 -49.298302 -0.166855
142.140808 325.841492 -49.298302 -0.176575
155.624115 325.841492 -49.298302 -0.206440
169.107422 325.841492 -49.298302 -0.192386
182.590698 325.841492 -49.298302 -0.178904
196.074036 325.841492 -49.298302 -0.152895
209.557312 325.841492 -49.298302 -0.121326
223.040588 325.841492 -49.298302 -0.089718
236.523926 325.841492 -49.298302 -0.055157
250.007202 325.841492 -49.298302 -0.035902
263.490540 325.841492 -49.298302 -0.031756
276.973816 325.841492 -49.298302 -0.016639
290.457092 325.841492 -49.298302 0.000000
303.940430 325.841492 -49.298302 0.000000
317.423706 325.841492 -49.298302 0.000000
330.907043 325.841492 -49.298302 0.000000
344.390320 325.841492 -49.298302 0.000000
-343.257996 312.358185 -49.298302 0.000000
-329.774689 312.358185 -49.298302 0.000000
-316.291382 312.358185 -49.298302 0.000000
-302.808105 312.358185 -49.298302 -0.001589
-289.324799 312.358185 -49.298302 -0.000089
-275.841492 312.358185 -49.298302 -0.000531
-262.358185 312.358185 -49.298302 -0.001607
-248.874893 312.358185 -49.298302 -0.003712
-235.391602 312.358185 -49.298302 -0.007798
-221.908295 312.358185 -49.298302 -0.014691
-208.424988 312.358185 -49.298302 -0.023098
-194.941696 312.358185 -49.298302 -0.034311
-181.458389 312.358185 -49.298302 -0.051380
-167.975098 312.358185 -49.298302 -0.077059
-154.491791 312.358185 -49.298302 -0.096639
-141.008499 312.358185 -49.298302 -0.105244
-127.525192 312.358185 -49.298302 -0.102978
-114.041885 312.358185 -49.298302 -0.105635
-100.558594 312.358185 -49.298302 -0.119511
-87.075287 312.358185 -49.298302 -0.126125
-73.591980 312.358185 -49.298302 -0.135419
-60.108704 312.358185 -49.298302 -0.114746
-46.625397 312.358185 -49.298302 -0.124330
-33.142090 312.358185 -49.298302 -0.119425
-19.658783 312.358185 -49.298302 -0.117661
-6.175476 312.358185 -49.298302 -0.110055
7.307800 312.358185 -49.298302 -0.091039
20.791107 312.358185 -49.298302 -0.078694
34.274414 312.358185 -49.298302 -0.062976
47.757721 312.358185 -49.298302 -0.056853
61.240997 312.358185 -49.298302 -0.062314
74.724304 312.358185 -49.298302 -0.065841
88.207611 312.358185 -49.298302 -0.092526
101.690918 312.358185 -49.298302 -0.142514
115.174225 312.358185 -49.298302 -0.187999
128.657501 312.358185 -49.298302 -0.195848
142.140808 312.358185 -49.298302 -0.214949
155.624115 312.358185 -49.298302 -0.199571
169.107422 312.358185 -49.298302 -0.192518
182.590698 312.358185 -49.298302 -0.184329
196.074036 312.358185 -49.298302 -0.169621
209.557312 312.358185 -49.298302 -0.133255
223.040588 312.358185 -49.298302 -0.108137
236.523926 312.358185 -49.298302 -0.070263
250.007202 312.358185 -49.298302 -0.042076
263.490540 312.358185 -49.298302 -0.031410
276.973816 312.358185 -49.298302 -0.019705
290.457092 312.358185 -49.298302 -0.012573
303.940430 312.358185 -49.298302 0.000000
317.423706 312.358185 -49.298302 0.000000
330.907043 312.358185 -49.298302 0.000000
344.390320 312.358185 -49.298302 0.000000
-343.257996 298.874878 -49.298302 0.000000
-329.774689 298.874878 -49.298302 0.000000
-316.291382 298.874878 -49.298302 0.000000
-302.808105 298.874878 -49.298302 -0.000669
-289.324799 298.874878 -49.298302 0.000130
-275.841492 298.874878 -49.298302 -0.000928
-262.358185 298.874878 -49.298302 -0.000418
-248.874893 298.874878 -49.298302 -0.004502
-235.391602 298.874878 -49.298302 -0.008219
-221.908295 298.874878 -49.298302 -0.013079
-208.424988 298.874878 -49.298302 -0.022664
-194.941696 298.874878 -49.298302 -0.036551
-181.458389 298.874878 -49.298302 -0.049148
-167.975098 298.874878 -49.298302 -0.069796
-154.491791 298.874878 -49.298302 -0.083070
-141.008499 298.874878 -49.298302 -0.093387
-127.525192 298.874878 -49.298302 -0.102776
-114.041885 298.874878 -49.298302 -0.105430
-100.558594 298.874878 -49.298302 -0.101965
-87.075287 298.874878 -49.298302 -0.103859
-73.591980 298.874878 -49.298302 -0.112214
-60.108704 298.874878 -49.298302 -0.102470
-46.625397 298.874878 -49.298302 -0.094561
-33.142090 298.874878 -49.298302 -0.092537
-19.658783 298.874878 -49.298302 -0.096956
-6.175476 298.874878 -49.298302 -0.105282
7.307800 298.874878 -49.298302 -0.101626
20.791107 298.874878 -49.298302 -0.084684
34.274414 298.874878 -49.298302 -0.066001
47.757721 298.874878 -49.298302 -0.061078
61.240997 298.874878 -49.298302 -0.067908
74.724304 298.874878 -49.298302 -0.077542
88.207611 298.874878 -49.298302 -0.116063
101.690918 298.874878 -49.298302 -0.174047
115.174225 298.874878 -49.298302 -0.199006
128.657501 298.874878 -49.298302 -0.197475
142.140808 298.874878 -49.298302 -0.205176
155.624115 298.874878 -49.298302 -0.181968
169.107422 298.874878 -49.298302 -0.162130
182.590698 298.874878 -49.298302 -0.151040
196.074036 298.874878 -49.298302 -0.151132
209.557312 298.874878 -49.298302 -0.126036
223.040588 298.874878 -49.298302 -0.106308
236.523926 298.874878 -49.298302 -0.078680
250.007202 298.874878 -49.298302 -0.043016
263.490540 298.874878 -49.298302 -0.031779
276.973816 298.874878 -49.298302 -0.017857
290.457092 298.874878 -49.298302 -0.001386
303.940430 298.874878 -49.298302 0.000000
317.423706 298.874878 -49.298302 0.000000
330.907043 298.874878 -49.298302 0.000000
344.390320 298.874878 -49.298302 0.000000
-343.257996 285.391602 -49.298302 0.000000
-329.774689 285.391602 -49.298302 0.000000
-316.291382 285.391602 -49.298302 0.000000
-302.808105 285.391602 -49.298302 -0.000966
-289.324799 285.391602 -49.298302 -0.000318
-275.841492 285.391602 -49.298302 -0.000244
-262.358185 285.391602 -49.298302 -0.000106
-248.874893 285.391602 -49.298302 -0.000890
-235.391602 285.391602 -49.298302 -0.004327
-221.908295 285.391602 -49.298302 -0.012527
-208.424988 285.391602 -49.298302 -0.018973
-194.941696 285.391602 -49.298302 -0.041908
-181.458389 285.391602 -49.298302 -0.055027
-167.975098 285.391602 -49.298302 -0.066188
-154.491791 285.391602 -49.298302 -0.079933
-141.008499 285.391602 -49.298302 -0.080655
-127.525192 285.391602 -49.298302 -0.092805
-114.041885 285.391602 -49.298302 -0.094939
-100.558594 285.391602 -49.298302 -0.108673
-87.075287 285.391602 -49.298302 -0.097500
-73.591980 285.391602 -49.298302 -0.103105
-60.108704 285.391602 -49.298302 -0.087428
-46.625397 285.391602 -49.298302 -0.080062
-33.142090 285.391602 -49.298302 -0.074609
-19.658783 285.391602 -49.298302 -0.086474
-6.175476 285.391602 -49.298302 -0.087070
7.307800 285.391602 -49.298302 -0.095085
20.791107 285.391602 -49.298302 -0.094583
34.274414 285.391602 -49.298302 -0.085007
47.757721 285.391602 -49.298302 -0.073446
61.240997 285.391602 -49.298302 -0.085798
74.724304 285.391602 -49.298302 -0.112659
88.207611 285.391602 -49.298302 -0.157609
101.690918 285.391602 -49.298302 -0.194624
115.174225 285.391602 -49.298302 -0.192489
128.657501 285.391602 -49.298302 -0.173019
142.140808 285.391602 -49.298302 -0.169352
155.624115 285.391602 -49.298302 -0.149153
169.107422 285.391602 -49.298302 -0.133152
182.590698 285.391602 -49.298302 -0.122513
196.074036 285.391602 -49.298302 -0.121218
209.557312 285.391602 -49.298302 -0.107140
223.040588 285.391602 -49.298302 -0.095485
236.523926 285.391602 -49.298302 -0.078178
250.007202 285.391602 -49.298302 -0.050926
263.490540 285.391602 -49.298302 -0.032484
276.973816 285.391602 -49.298302 -0.012702
290.457092 285.391602 -49.298302 -0.003100
303.940430 285.391602 -49.298302 0.000000
317.423706 285.391602 -49.298302 0.000000
330.907043 285.391602 -49.298302 0.000000
344.390320 285.391602 -49.298302 0.000000
-343.257996 271.908295 -49.298302 0.000000
-329.774689 271.908295 -49.298302 0.000000
-316.291382 271.908295 -49.298302 0.000000
-302.808105 271.908295 -49.298302 -0.000812
-289.324799 271.908295 -49.298302 0.000342
-275.841492 271.908295 -49.298302 0.000354
-262.358185 271.908295 -49.298302 -0.000719
-248.874893 271.908295 -49.298302 0.000553
-235.391602 271.908295 -49.298302 -0.004984
-221.908295 271.908295 -49.298302 -0.011748
-208.424988 271.908295 -49.298302 -0.024882
-194.941696 271.908295 -49.298302 -0.037260
-181.458389 271.908295 -49.298302 -0.052797
-167.975098 271.908295 -49.298302 -0.061916
-154.491791 271.908295 -49.298302 -0.062889
-141.008499 271.908295 -49.298302 -0.081905
-127.525192 271.908295 -49.298302 -0.092602
-114.041885 271.908295 -49.298302 -0.089823
-100.558594 271.908295 -49.298302 -0.096566
-87.075287 271.908295 -49.298302 -0.098485
-73.591980 271.908295 -49.298302 -0.094182
-60.108704 271.908295 -49.298302 -0.078724
-46.625397 271.908295 -49.298302 -0.069063
-33.142090 271.908295 -49.298302 -0.063308
-19.658783 271.908295 -49.298302 -0.073110
-6.175476 271.908295 -49.298302 -0.068807
7.307800 271.908295 -49.298302 -0.082075
20.791107 271.908295 -49.298302 -0.098250
34.274414 271.908295 -49.298302 -0.087900
47.757721 271.908295 -49.298302 -0.093194
61.240997 271.908295 -49.298302 0.000000
74.724304 271.908295 -49.298302 -0.132491
88.207611 271.908295 -49.298302 -0.152997
101.690918 271.908295 -49.298302 -0.185587
115.174225 271.908295 -49.298302 -0.169770
128.657501 271.908295 -49.298302 -0.156663
142.140808 271.908295 -49.298302 -0.126124
155.624115 271.908295 -49.298302 -0.101785
169.107422 271.908295 -49.298302 -0.090438
182.590698 271.908295 -49.298302 -0.097031
196.074036 271.908295 -49.298302 -0.094935
209.557312 271.908295 -49.298302 -0.079649
223.040588 271.908295 -49.298302 -0.077560
236.523926 271.908295 -49.298302 -0.069252
250.007202 271.908295 -49.298302 -0.045799
263.490540 271.908295 -49.298302 -0.025444
276.973816 271.908295 -49.298302 -0.008986
290.457092 271.908295 -49.298302 -0.004457
303.940430 271.908295 -49.298302 0.000000
317.423706 271.908295 -49.298302 0.000000
330.907043 271.908295 -49.298302 0.000000
344.390320 271.908295 -49.298302 0.000000
-343.257996 258.424988 -49.298302 0.000000
-329.774689 258.424988 -49.298302 0.000000
-316.291382 258.424988 -49.298302 0.000000
-302.808105 258.424988 -49.298302 -0.000732
-289.324799 258.424988 -49.298302 -0.000602
-275.841492 258.424988 -49.298302 -0.000474
-262.358185 258.424988 -49.298302 -0.000028
-248.874893 258.424988 -49.298302 0.000012
-235.391602 258.424988 -49.298302 -0.008418
-221.908295 258.424988 -49.298302 -0.018365
-208.424988 258.424988 -49.298302 -0.031723
-194.941696 258.424988 -49.298302 -0.035242
-181.458389 258.424988 -49.298302 -0.053211
-167.975098 258.424988 -49.298302 -0.054442
-154.491791 258.424988 -49.298302 -0.069093
-141.008499 258.424988 -49.298302 -0.072426
-127.525192 258.424988 -49.298302 -0.092303
-114.041885 258.424988 -49.298302 -0.083803
-100.558594 258.424988 -49.298302 -0.092036
-87.075287 258.424988 -49.298302 -0.094762
-73.591980 258.424988 -49.298302 -0.078053
-60.108704 258.424988 -49.298302 -0.073803
-46.625397 258.424988 -49.298302 -0.067233
-33.142090 258.424988 -49.298302 -0.059368
-19.658783 258.424988 -49.298302 -0.060508
-6.175476 258.424988 -49.298302 -0.075382
7.307800 258.424988 -49.298302 -0.082642
20.791107 258.424988 -49.298302 -0.090100
34.274414 258.424988 -49.298302 -0.090693
47.757721 258.424988 -49.298302 -0.103412
61.240997 258.424988 -49.298302 0.000000
74.724304 258.424988 -49.298302 -0.142668
88.207611 258.424988 -49.298302 -0.156667
101.690918 258.424988 -49.298302 -0.158754
115.174225 258.424988 -49.298302 -0.125830
128.657501 258.424988 -49.298302 -0.092683
142.140808 258.424988 -49.298302 -0.065529
155.624115 258.424988 -49.298302 -0.056605
169.107422 258.424988 -49.298302 -0.070530
182.590698 258.424988 -49.298302 -0.071186
196.074036 258.424988 -49.298302 -0.064617
209.557312 258.424988 -49.298302 -0.060886
223.040588 258.424988 -49.298302 -0.053311
236.523926 258.424988 -49.298302 -0.051816
250.007202 258.424988 -49.298302 -0.033728
263.490540 258.424988 -49.298302 -0.017457
276.973816 258.424988 -49.298302 -0.006267
290.457092 258.424988 -49.298302 -0.002074
303.940430 258.424988 -49.298302 -0.000165
317.423706 258.424988 -49.298302 0.000000
330.907043 258.424988 -49.298302 0.000000
344.390320 258.424988 -49.298302 0.000000
-343.257996 244.941696 -49.298302 0.000000
-329.774689 244.941696 -49.298302 0.000000
-316.291382 244.941696 -49.298302 0.000000
-302.808105 244.941696 -49.298302 -0.001459
-289.324799 244.941696 -49.298302 -0.000715
-275.841492 244.941696 -49.298302 0.000451
-262.358185 244.941696 -49.298302 0.000143
-248.874893 244.941696 -49.298302 -0.001451
-235.391602 244.941696 -49.298302 -0.011423
-221.908295 244.941696 -49.298302 -0.020400
-208.424988 244.941696 -49.298302 -0.029930
-194.941696 244.941696 -49.298302 -0.044833
-181.458389 244.941696 -49.298302 -0.063075
-167.975098 244.941696 -49.298302 -0.061591
-154.491791 244.941696 -49.298302 -0.064773
-141.008499 244.941696 -49.298302 -0.067698
-127.525192 244.941696 -49.298302 -0.080451
-114.041885 244.941696 -49.298302 -0.091361
-100.558594 244.941696 -49.298302 -0.095293
-87.075287 244.941696 -49.298302 -0.092529
-73.591980 244.941696 -49.298302 -0.077305
-60.108704 244.941696 -49.298302 -0.066976
-46.625397 244.941696 -49.298302 -0.050555
-33.142090 244.941696 -49.298302 -0.047904
-19.658783 244.941696 -49.298302 -0.063119
-6.175476 244.941696 -49.298302 -0.069055
7.307800 244.941696 -49.298302 -0.084273
20.791107 244.941696 -49.298302 -0.089699
34.274414 244.941696 -49.298302 -0.093893
47.757721 244.941696 -49.298302 -0.116378
61.240997 244.941696 -49.298302 -0.117173
74.724304 244.941696 -49.298302 -0.123212
88.207611 244.941696 -49.298302 -0.144838
101.690918 244.941696 -49.298302 -0.114844
115.174225 244.941696 -49.298302 0.000000
128.657501 244.941696 -49.298302 0.000000
142.140808 244.941696 -49.298302 0.000000
155.624115 244.941696 -49.298302 -0.034172
169.107422 244.941696 -49.298302 -0.035351
182.590698 244.941696 -49.298302 -0.047800
196.074036 244.941696 -49.298302 -0.051322
209.557312 244.941696 -49.298302 -0.046563
223.040588 244.941696 -49.298302 -0.042591
236.523926 244.941696 -49.298302 -0.032039
250.007202 244.941696 -49.298302 -0.027990
263.490540 244.941696 -49.298302 -0.013530
276.973816 244.941696 -49.298302 -0.008677
290.457092 244.941696 -49.298302 0.000260
303.940430 244.941696 -49.298302 -0.000030
317.423706 244.941696 -49.298302 0.000000
330.907043 244.941696 -49.298302 0.000000
344.390320 244.941696 -49.298302 0.000000
-343.257996 231.458389 -49.298302 0.000000
-329.774689 231.458389 -49.298302 0.000000
-316.291382 231.458389 -49.298302 0.000000
-302.808105 231.458389 -49.298302 -0.001577
-289.324799 231.458389 -49.298302 -0.000747
-275.841492 231.458389 -49.298302 -0.000443
-262.358185 231.458389 -49.298302 -0.000143
-248.874893 231.458389 -49.298302 -0.006459
-235.391602 231.458389 -49.298302 -0.011377
-221.908295 231.458389 -49.298302 -0.028457
-208.424988 231.458389 -49.298302 -0.031039
-194.941696 231.458389 -49.298302 -0.043725
-181.458389 231.458389 -49.298302 -0.052647
-167.975098 231.458389 -49.298302 -0.053609
-154.491791 231.458389 -49.298302 -0.061863
-141.008499 231.458389 -49.298302 -0.068095
-127.525192 231.458389 -49.298302 -0.072964
-114.041885 231.458389 -49.298302 -0.088055
-100.558594 231.458389 -49.298302 -0.098630
-87.075287 231.458389 -49.298302 -0.080169
-73.591980 231.458389 -49.298302 -0.063430
-60.108704 231.458389 -49.298302 -0.050443
-46.625397 231.458389 -49.298302 -0.043380
-33.142090 231.458389 -49.298302 -0.040777
-19.658783 231.458389 -49.298302 -0.053647
-6.175476 231.458389 -49.298302 -0.059340
7.307800 231.458389 -49.298302 -0.080887
20.791107 231.458389 -49.298302 -0.087122
34.274414 231.458389 -49.298302 -0.091682
47.757721 231.458389 -49.298302 -0.112201
61.240997 231.458389 -49.298302 -0.107241
74.724304 231.458389 -49.298302 -0.091966
88.207611 231.458389 -49.298302 -0.094571
101.690918 231.458389 -49.298302 -0.066108
115.174225 231.458389 -49.298302 0.000000
128.657501 231.458389 -49.298302 -0.006686
142.140808 231.458389 -49.298302 -0.001290
155.624115 231.458389 -49.298302 -0.007240
169.107422 231.458389 -49.298302 -0.007948
182.590698 231.458389 -49.298302 -0.019855
196.074036 231.458389 -49.298302 -0.020407
209.557312 231.458389 -49.298302 -0.022251
223.040588 231.458389 -49.298302 -0.019593
236.523926 231.458389 -49.298302 -0.029000
250.007202 231.458389 -49.298302 -0.027963
263.490540 231.458389 -49.298302 -0.012114
276.973816 231.458389 -49.298302 -0.005662
290.457092 231.458389 -49.298302 -0.001664
303.940430 231.458389 -49.298302 -0.000270
317.423706 231.458389 -49.298302 0.000000
330.907043 231.458389 -49.298302 0.000000
344.390320 231.458389 -49.298302 0.000000
-343.257996 217.975098 -49.298302 0.000000
-329.774689 217.975098 -49.298302 0.000000
-316.291382 217.975098 -49.298302 0.000000
-302.808105 217.975098 -49.298302 -0.000520
-289.324799 217.975098 -49.298302 0.000721
-275.841492 217.975098 -49.298302 0.001306
-262.358185 217.975098 -49.298302 0.001384
-248.874893 217.975098 -49.298302 -0.005561
-235.391602 217.975098 -49.298302 -0.010341
-221.908295 217.975098 -49.298302 -0.017798
-208.424988 217.975098 -49.298302 -0.027512
-194.941696 217.975098 -49.298302 -0.037234
-181.458389 217.975098 -49.298302 -0.043591
-167.975098 217.975098 -49.298302 -0.045154
-154.491791 217.975098 -49.298302 -0.063097
-141.008499 217.975098 -49.298302 -0.073660
-127.525192 217.975098 -49.298302 -0.081915
-114.041885 217.975098 -49.298302 -0.087348
-100.558594 217.975098 -49.298302 -0.076108
-87.075287 217.975098 -49.298302 -0.073282
-73.591980 217.975098 -49.298302 -0.043839
-60.108704 217.975098 -49.298302 -0.037904
-46.625397 217.975098 -49.298302 -0.034093
-33.142090 217.975098 -49.298302 -0.033110
-19.658783 217.975098 -49.298302 -0.035145
-6.175476 217.975098 -49.298302 -0.043686
7.307800 217.975098 -49.298302 -0.064592
20.791107 217.975098 -49.298302 -0.063655
34.274414 217.975098 -49.298302 0.000000
47.757721 217.975098 -49.298302 -0.082904
61.240997 217.975098 -49.298302 -0.077558
74.724304 217.975098 -49.298302 -0.061936
88.207611 217.975098 -49.298302 -0.026855
101.690918 217.975098 -49.298302 -0.004601
115.174225 217.975098 -49.298302 0.025038
128.657501 217.975098 -49.298302 0.041112
142.140808 217.975098 -49.298302 0.027857
155.624115 217.975098 -49.298302 0.016292
169.107422 217.975098 -49.298302 0.011110
182.590698 217.975098 -49.298302 0.000589
196.074036 217.975098 -49.298302 -0.007384
209.557312 217.975098 -49.298302 -0.011688
223.040588 217.975098 -49.298302 -0.011116
236.523926 217.975098 -49.298302 -0.015361
250.007202 217.975098 -49.298302 -0.019195
263.490540 217.975098 -49.298302 -0.008906
276.973816 217.975098 -49.298302 -0.004268
290.457092 217.975098 -49.298302 -0.001844
303.940430 217.975098 -49.298302 -0.002694
317.423706 217.975098 -49.298302 0.000000
330.907043 217.975098 -49.298302 0.000000
344.390320 217.975098 -49.298302 0.000000
-343.257996 204.491791 -49.298302 0.000000
-329.774689 204.491791 -49.298302 0.000000
-316.291382 204.491791 -49.298302 0.000000
-302.808105 204.491791 -49.298302 0.000106
-289.324799 204.491791 -49.298302 0.001447
-275.841492 204.491791 -49.298302 0.001601
-262.358185 204.491791 -49.298302 0.001048
-248.874893 204.491791 -49.298302 -0.001062
-235.391602 204.491791 -49.298302 -0.007808
-221.908295 204.491791 -49.298302 -0.010105
-208.424988 204.491791 -49.298302 -0.016149
-194.941696 204.491791 -49.298302 -0.025672
-181.458389 204.491791 -49.298302 -0.026126
-167.975098 204.491791 -49.298302 -0.045315
-154.491791 204.491791 -49.298302 -0.063740
-141.008499 204.491791 -49.298302 -0.073010
-127.525192 204.491791 -49.298302 -0.083123
-114.041885 204.491791 -49.298302 -0.094168
-100.558594 204.491791 -49.298302 -0.077331
-87.075287 204.491791 -49.298302 -0.065961
-73.591980 204.491791 -49.298302 -0.043424
-60.108704 204.491791 -49.298302 -0.033725
-46.625397 204.491791 -49.298302 -0.016737
-33.142090 204.491791 -49.298302 -0.033917
-19.658783 204.491791 -49.298302 -0.035531
-6.175476 204.491791 -49.298302 -0.042350
7.307800 204.491791 -49.298302 -0.046610
20.791107 204.491791 -49.298302 -0.041495
34.274414 204.491791 -49.298302 -0.047947
47.757721 204.491791 -49.298302 -0.048157
61.240997 204.491791 -49.298302 -0.035820
74.724304 204.491791 -49.298302 -0.015726
88.207611 204.491791 -49.298302 0.013737
101.690918 204.491791 -49.298302 0.031463
115.174225 204.491791 -49.298302 0.059397
128.657501 204.491791 -49.298302 0.069263
142.140808 204.491791 -49.298302 0.044552
155.624115 204.491791 -49.298302 0.037635
169.107422 204.491791 -49.298302 0.034902
182.590698 204.491791 -49.298302 0.014467
196.074036 204.491791 -49.298302 0.005844
209.557312 204.491791 -49.298302 -0.002590
223.040588 204.491791 -49.298302 -0.003874
236.523926 204.491791 -49.298302 -0.018920
250.007202 204.491791 -49.298302 -0.011903
263.490540 204.491791 -49.298302 -0.008405
276.973816 204.491791 -49.298302 -0.002688
290.457092 204.491791 -49.298302 -0.001702
303.940430 204.491791 -49.298302 -0.002039
317.423706 204.491791 -49.298302 0.000000
330.907043 204.491791 -49.298302 0.000000
344.390320 204.491791 -49.298302 0.000000
-343.257996 191.008499 -49.298302 0.000000
-329.774689 191.008499 -49.298302 0.000000
-316.291382 191.008499 -49.298302 0.000000
-302.808105 191.008499 -49.298302 0.000135
-289.324799 191.008499 -49.298302 0.000632
-275.841492 191.008499 -49.298302 0.001465
-262.358185 191.008499 -49.298302 -0.000767
-248.874893 191.008499 -49.298302 -0.000769
-235.391602 191.008499 -49.298302 -0.007311
-221.908295 191.008499 -49.298302 -0.010103
-208.424988 191.008499 -49.298302 -0.009041
-194.941696 191.008499 -49.298302 -0.008964
-181.458389 191.008499 -49.298302 -0.021102
-167.975098 191.008499 -49.298302 -0.038058
-154.491791 191.008499 -49.298302 -0.073394
-141.008499 191.008499 -49.298302 -0.076184
-127.525192 191.008499 -49.298302 -0.090335
-114.041885 191.008499 -49.298302 -0.088118
-100.558594 191.008499 -49.298302 -0.077971
-87.075287 191.008499 -49.298302 -0.058151
-73.591980 191.008499 -49.298302 -0.041135
-60.108704 191.008499 -49.298302 -0.035059
-46.625397 191.008499 -49.298302 -0.020092
-33.142090 191.008499 -49.298302 -0.021606
-19.658783 191.008499 -49.298302 -0.025027
-6.175476 191.008499 -49.298302 -0.032892
7.307800 191.008499 -49.298302 -0.020920
20.791107 191.008499 -49.298302 -0.027878
34.274414 191.008499 -49.298302 -0.018257
47.757721 191.008499 -49.298302 -0.005795
61.240997 191.008499 -49.298302 0.000080
74.724304 191.008499 -49.298302 0.014262
88.207611 191.008499 -49.298302 0.043457
101.690918 191.008499 -49.298302 0.066556
115.174225 191.008499 -49.298302 0.083252
128.657501 191.008499 -49.298302 0.087211
142.140808 191.008499 -49.298302 0.077209
155.624115 191.008499 -49.298302 0.067396
169.107422 191.008499 -49.298302 0.047714
182.590698 191.008499 -49.298302 0.024173
196.074036 191.008499 -49.298302 0.006792
209.557312 191.008499 -49.298302 0.007375
223.040588 191.008499 -49.298302 -0.002304
236.523926 191.008499 -49.298302 -0.009298
250.007202 191.008499 -49.298302 -0.013024
263.490540 191.008499 -49.298302 -0.007786
276.973816 191.008499 -49.298302 -0.004509
290.457092 191.008499 -49.298302 -0.002425
303.940430 191.008499 -49.298302 -0.004128
317.423706 191.008499 -49.298302 0.000000
330.907043 191.008499 -49.298302 0.000000
344.390320 191.008499 -49.298302 0.000000
-343.257996 177.525192 -49.298302 0.000000
-329.774689 177.525192 -49.298302 0.000000
-316.291382 177.525192 -49.298302 0.000000
-302.808105 177.525192 -49.298302 0.000633
-289.324799 177.525192 -49.298302 0.001316
-275.841492 177.525192 -49.298302 0.001176
-262.358185 177.525192 -49.298302 -0.001154
-248.874893 177.525192 -49.298302 -0.003518
-235.391602 177.525192 -49.298302 -0.013936
-221.908295 177.525192 -49.298302 -0.007928
-208.424988 177.525192 -49.298302 -0.005348
-194.941696 177.525192 -49.298302 -0.004120
-181.458389 177.525192 -49.298302 -0.015543
-167.975098 177.525192 -49.298302 -0.043211
-154.491791 177.525192 -49.298302 -0.077345
-141.008499 177.525192 -49.298302 -0.079916
-127.525192 177.525192 -49.298302 -0.108367
-114.041885 177.525192 -49.298302 -0.093082
-100.558594 177.525192 -49.298302 -0.059590
-87.075287 177.525192 -49.298302 -0.052152
-73.591980 177.525192 -49.298302 -0.039307
-60.108704 177.525192 -49.298302 -0.027379
-46.625397 177.525192 -49.298302 -0.015826
-33.142090 177.525192 -49.298302 -0.016300
-19.658783 177.525192 -49.298302 -0.018747
-6.175476 177.525192 -49.298302 -0.019445
7.307800 177.525192 -49.298302 -0.015938
20.791107 177.525192 -49.298302 -0.002862
34.274414 177.525192 -49.298302 0.009208
47.757721 177.525192 -49.298302 0.028960
61.240997 177.525192 -49.298302 0.036782
74.724304 177.525192 -49.298302 0.042368
88.207611 177.525192 -49.298302 0.065074
101.690918 177.525192 -49.298302 0.075766
115.174225 177.525192 -49.298302 0.086316
128.657501 177.525192 -49.298302 0.091693
142.140808 177.525192 -49.298302 0.078759
155.624115 177.525192 -49.298302 0.071019
169.107422 177.525192 -49.298302 0.051167
182.590698 177.525192 -49.298302 0.031083
196.074036 177.525192 -49.298302 0.019033
209.557312 177.525192 -49.298302 0.016036
223.040588 177.525192 -49.298302 0.014600
236.523926 177.525192 -49.298302 -0.002491
250.007202 177.525192 -49.298302 -0.006118
263.490540 177.525192 -49.298302 -0.005124
276.973816 177.525192 -49.298302 -0.004300
290.457092 177.525192 -49.298302 -0.004140
303.940430 177.525192 -49.298302 -0.003409
317.423706 177.525192 -49.298302 0.000000
330.907043 177.525192 -49.298302 0.000000
344.390320 177.525192 -49.298302 0.000000
-343.257996 164.041885 -49.298302 0.000000
-329.774689 164.041885 -49.298302 0.000000
-316.291382 164.041885 -49.298302 0.000000
-302.808105 164.041885 -49.298302 0.001571
-289.324799 164.041885 -49.298302 0.001289
-275.841492 164.041885 -49.298302 0.000307
-262.358185 164.041885 -49.298302 -0.001961
-248.874893 164.041885 -49.298302 -0.008809
-235.391602 164.041885 -49.298302 -0.011382
-221.908295 164.041885 -49.298302 -0.016345
-208.424988 164.041885 -49.298302 -0.021975
-194.941696 164.041885 -49.298302 -0.024124
-181.458389 164.041885 -49.298302 -0.013861
-167.975098 164.041885 -49.298302 -0.038917
-154.491791 164.041885 -49.298302 -0.055497
-141.008499 164.041885 -49.298302 -0.079490
-127.525192 164.041885 -49.298302 -0.095793
-114.041885 164.041885 -49.298302 -0.071682
-100.558594 164.041885 -49.298302 -0.053204
-87.075287 164.041885 -49.298302 -0.049394
-73.591980 164.041885 -49.298302 -0.033451
-60.108704 164.041885 -49.298302 -0.014471
-46.625397 164.041885 -49.298302 -0.010090
-33.142090 164.041885 -49.298302 -0.010119
-19.658783 164.041885 -49.298302 -0.009482
-6.175476 164.041885 -49.298302 -0.012285
7.307800 164.041885 -49.298302 0.002393
20.791107 164.041885 -49.298302 0.024161
34.274414 164.041885 -49.298302 0.034737
47.757721 164.041885 -49.298302 0.051177
61.240997 164.041885 -49.298302 0.072884
74.724304 164.041885 -49.298302 0.075830
88.207611 164.041885 -49.298302 0.077609
101.690918 164.041885 -49.298302 0.081863
115.174225 164.041885 -49.298302 0.083387
128.657501 164.041885 -49.298302 0.082967
142.140808 164.041885 -49.298302 0.070457
155.624115 164.041885 -49.298302 0.064034
169.107422 164.041885 -49.298302 0.055389
182.590698 164.041885 -49.298302 0.033487
196.074036 164.041885 -49.298302 0.019220
209.557312 164.041885 -49.298302 0.009606
223.040588 164.041885 -49.298302 0.010234
236.523926 164.041885 -49.298302 0.003395
250.007202 164.041885 -49.298302 -0.001545
263.490540 164.041885 -49.298302 -0.002636
276.973816 164.041885 -49.298302 -0.003937
290.457092 164.041885 -49.298302 -0.004455
303.940430 164.041885 -49.298302 -0.003168
317.423706 164.041885 -49.298302 0.000000
330.907043 164.041885 -49.298302 0.000000
344.390320 164.041885 -49.298302 0.000000
-343.257996 150.558594 -49.298302 0.000000
-329.774689 150.558594 -49.298302 0.000000
-316.291382 150.558594 -49.298302 0.000000
-302.808105 150.558594 -49.298302 0.001569
-289.324799 150.558594 -49.298302 0.001341
-275.841492 150.558594 -49.298302 0.001018
-262.358185 150.558594 -49.298302 -0.002259
-248.874893 150.558594 -49.298302 -0.012660
-235.391602 150.558594 -49.298302 -0.015683
-221.908295 150.558594 -49.298302 -0.017163
-208.424988 150.558594 -49.298302 -0.026989
-194.941696 150.558594 -49.298302 -0.038727
-181.458389 150.558594 -49.298302 -0.046482
-167.975098 150.558594 -49.298302 -0.060292
-154.491791 150.558594 -49.298302 -0.069151
-141.008499 150.558594 -49.298302 -0.066214
-127.525192 150.558594 -49.298302 -0.070091
-114.041885 150.558594 -49.298302 -0.071541
-100.558594 150.558594 -49.298302 -0.037855
-87.075287 150.558594 -49.298302 -0.033998
-73.591980 150.558594 -49.298302 -0.036137
-60.108704 150.558594 -49.298302 -0.017825
-46.625397 150.558594 -49.298302 -0.011021
-33.142090 150.558594 -49.298302 -0.009427
-19.658783 150.558594 -49.298302 -0.005972
-6.175476 150.558594 -49.298302 0.001269
7.307800 150.558594 -49.298302 0.025724
20.791107 150.558594 -49.298302 0.056212
34.274414 150.558594 -49.298302 0.067999
47.757721 150.558594 -49.298302 0.083056
61.240997 150.558594 -49.298302 0.113107
74.724304 150.558594 -49.298302 0.126696
88.207611 150.558594 -49.298302 0.115713
101.690918 150.558594 -49.298302 0.102129
115.174225 150.558594 -49.298302 0.091878
128.657501 150.558594 -49.298302 0.082544
142.140808 150.558594 -49.298302 0.075439
155.624115 150.558594 -49.298302 0.060652
169.107422 150.558594 -49.298302 0.050713
182.590698 150.558594 -49.298302 0.034843
196.074036 150.558594 -49.298302 0.024719
209.557312 150.558594 -49.298302 0.019368
223.040588 150.558594 -49.298302 0.010464
236.523926 150.558594 -49.298302 0.001711
250.007202 150.558594 -49.298302 -0.001561
263.490540 150.558594 -49.298302 -0.002928
276.973816 150.558594 -49.298302 -0.003689
290.457092 150.558594 -49.298302 -0.004356
303.940430 150.558594 -49.298302 -0.002943
317.423706 150.558594 -49.298302 0.000000
330.907043 150.558594 -49.298302 0.000000
344.390320 150.558594 -49.298302 0.000000
-343.257996 137.075287 -49.298302 0.000000
-329.774689 137.075287 -49.298302 0.000000
-316.291382 137.075287 -49.298302 0.000000
-302.808105 137.075287 -49.298302 0.001938
-289.324799 137.075287 -49.298302 0.001062
-275.841492 137.075287 -49.298302 0.000376
-262.358185 137.075287 -49.298302 -0.003887
-248.874893 137.075287 -49.298302 -0.009213
-235.391602 137.075287 -49.298302 -0.023899
-221.908295 137.075287 -49.298302 -0.037191
-208.424988 137.075287 -49.298302 -0.049572
-194.941696 137.075287 -49.298302 -0.076078
-181.458389 137.075287 -49.298302 -0.095326
-167.975098 137.075287 -49.298302 -0.098023
-154.491791 137.075287 -49.298302 -0.078717
-141.008499 137.075287 -49.298302 -0.069025
-127.525192 137.075287 -49.298302 -0.034954
-114.041885 137.075287 -49.298302 -0.040023
-100.558594 137.075287 -49.298302 -0.028314
-87.075287 137.075287 -49.298302 -0.035543
-73.591980 137.075287 -49.298302 -0.021364
-60.108704 137.075287 -49.298302 -0.015888
-46.625397 137.075287 -49.298302 -0.019798
-33.142090 137.075287 -49.298302 -0.003993
-19.658783 137.075287 -49.298302 0.009264
-6.175476 137.075287 -49.298302 0.006247
7.307800 137.075287 -49.298302 0.051969
20.791107 137.075287 -49.298302 0.062710
34.274414 137.075287 -49.298302 0.097067
47.757721 137.075287 -49.298302 0.120334
61.240997 137.075287 -49.298302 0.141824
74.724304 137.075287 -49.298302 0.149082
88.207611 137.075287 -49.298302 0.141890
101.690918 137.075287 -49.298302 0.117949
115.174225 137.075287 -49.298302 0.097683
128.657501 137.075287 -49.298302 0.091313
142.140808 137.075287 -49.298302 0.084953
155.624115 137.075287 -49.298302 0.069902
169.107422 137.075287 -49.298302 0.044620
182.590698 137.075287 -49.298302 0.035745
196.074036 137.075287 -49.298302 0.026535
209.557312 137.075287 -49.298302 0.017211
223.040588 137.075287 -49.298302 0.008366
236.523926 137.075287 -49.298302 0.001489
250.007202 137.075287 -49.298302 -0.000808
263.490540 137.075287 -49.298302 -0.000958
276.973816 137.075287 -49.298302 -0.002646
290.457092 137.075287 -49.298302 -0.003212
303.940430 137.075287 -49.298302 -0.002412
317.423706 137.075287 -49.298302 0.000000
330.907043 137.075287 -49.298302 0.000000
344.390320 137.075287 -49.298302 0.000000
-343.257996 123.591980 -49.298302 0.000000
-329.774689 123.591980 -49.298302 0.000000
-316.291382 123.591980 -49.298302 0.000000
-302.808105 123.591980 -49.298302 0.001169
-289.324799 123.591980 -49.298302 0.000732
-275.841492 123.591980 -49.298302 -0.001513
-262.358185 123.591980 -49.298302 -0.005146
-248.874893 123.591980 -49.298302 -0.009579
-235.391602 123.591980 -49.298302 -0.032388
-221.908295 123.591980 -49.298302 -0.052425
-208.424988 123.591980 -49.298302 -0.063397
-194.941696 123.591980 -49.298302 -0.096207
-181.458389 123.591980 -49.298302 -0.114769
-167.975098 123.591980 -49.298302 -0.110118
-154.491791 123.591980 -49.298302 -0.087407
-141.008499 123.591980 -49.298302 -0.029695
-127.525192 123.591980 -49.298302 -0.020194
-114.041885 123.591980 -49.298302 -0.023666
-100.558594 123.591980 -49.298302 -0.007263
-87.075287 123.591980 -49.298302 -0.019564
-73.591980 123.591980 -49.298302 -0.011579
-60.108704 123.591980 -49.298302 -0.012502
-46.625397 123.591980 -49.298302 -0.012982
-33.142090 123.591980 -49.298302 -0.003306
-19.658783 123.591980 -49.298302 0.013976
-6.175476 123.591980 -49.298302 0.032892
7.307800 123.591980 -49.298302 0.063159
20.791107 123.591980 -49.298302 0.080637
34.274414 123.591980 -49.298302 0.120743
47.757721 123.591980 -49.298302 0.146860
61.240997 123.591980 -49.298302 0.153388
74.724304 123.591980 -49.298302 0.154003
88.207611 123.591980 -49.298302 0.142539
101.690918 123.591980 -49.298302 0.113198
115.174225 123.591980 -49.298302 0.104191
128.657501 123.591980 -49.298302 0.094145
142.140808 123.591980 -49.298302 0.084761
155.624115 123.591980 -49.298302 0.063713
169.107422 123.591980 -49.298302 0.045708
182.590698 123.591980 -49.298302 0.030609
196.074036 123.591980 -49.298302 0.020326
209.557312 123.591980 -49.298302 0.013587
223.040588 123.591980 -49.298302 0.004800
236.523926 123.591980 -49.298302 0.001486
250.007202 123.591980 -49.298302 0.000110
263.490540 123.591980 -49.298302 -0.000186
276.973816 123.591980 -49.298302 -0.001127
290.457092 123.591980 -49.298302 -0.002161
303.940430 123.591980 -49.298302 -0.001648
317.423706 123.591980 -49.298302 0.000000
330.907043 123.591980 -49.298302 0.000000
344.390320 123.591980 -49.298302 0.000000
-343.257996 110.108704 -49.298302 0.000000
-329.774689 110.108704 -49.298302 0.000000
-316.291382 110.108704 -49.298302 0.000000
-302.808105 110.108704 -49.298302 0.000630
-289.324799 110.108704 -49.298302 0.001038
-275.841492 110.108704 -49.298302 -0.000874
-262.358185 110.108704 -49.298302 -0.004591
-248.874893 110.108704 -49.298302 -0.013277
-235.391602 110.108704 -49.298302 -0.028822
-221.908295 110.108704 -49.298302 -0.055906
-208.424988 110.108704 -49.298302 -0.061671
-194.941696 110.108704 -49.298302 -0.111086
-181.458389 110.108704 -49.298302 -0.143737
-167.975098 110.108704 -49.298302 -0.140645
-154.491791 110.108704 -49.298302 -0.110322
-141.008499 110.108704 -49.298302 -0.062277
-127.525192 110.108704 -49.298302 -0.033440
-114.041885 110.108704 -49.298302 -0.025860
-100.558594 110.108704 -49.298302 -0.016032
-87.075287 110.108704 -49.298302 -0.018021
-73.591980 110.108704 -49.298302 -0.002724
-60.108704 110.108704 -49.298302 -0.004277
-46.625397 110.108704 -49.298302 -0.004360
-33.142090 110.108704 -49.298302 -0.002584
-19.658783 110.108704 -49.298302 0.012889
-6.175476 110.108704 -49.298302 0.038235
7.307800 110.108704 -49.298302 0.065754
20.791107 110.108704 -49.298302 0.098536
34.274414 110.108704 -49.298302 0.124881
47.757721 110.108704 -49.298302 0.135869
61.240997 110.108704 -49.298302 0.148427
74.724304 110.108704 -49.298302 0.136494
88.207611 110.108704 -49.298302 0.121602
101.690918 110.108704 -49.298302 0.116202
115.174225 110.108704 -49.298302 0.101208
128.657501 110.108704 -49.298302 0.084931
142.140808 110.108704 -49.298302 0.074644
155.624115 110.108704 -49.298302 0.058484
169.107422 110.108704 -49.298302 0.043232
182.590698 110.108704 -49.298302 0.026451
196.074036 110.108704 -49.298302 0.013911
209.557312 110.108704 -49.298302 0.006091
223.040588 110.108704 -49.298302 0.003865
236.523926 110.108704 -49.298302 0.001413
250.007202 110.108704 -49.298302 0.001579
263.490540 110.108704 -49.298302 0.000545
276.973816 110.108704 -49.298302 -0.000277
290.457092 110.108704 -49.298302 -0.001424
303.940430 110.108704 -49.298302 -0.000522
317.423706 110.108704 -49.298302 0.000000
330.907043 110.108704 -49.298302 0.000000
344.390320 110.108704 -49.298302 0.000000
-343.257996 96.625397 -49.298302 0.000000
-329.774689 96.625397 -49.298302 0.000000
-316.291382 96.625397 -49.298302 0.000000
-302.808105 96.625397 -49.298302 0.000277
-289.324799 96.625397 -49.298302 0.001159
-275.841492 96.625397 -49.298302 -0.000575
-262.358185 96.625397 -49.298302 -0.005484
-248.874893 96.625397 -49.298302 -0.017857
-235.391602 96.625397 -49.298302 -0.033111
-221.908295 96.625397 -49.298302 -0.054651
-208.424988 96.625397 -49.298302 -0.070473
-194.941696 96.625397 -49.298302 -0.109403
-181.458389 96.625397 -49.298302 -0.137868
-167.975098 96.625397 -49.298302 -0.122838
-154.491791 96.625397 -49.298302 -0.097707
-141.008499 96.625397 -49.298302 -0.081033
-127.525192 96.625397 -49.298302 -0.054203
-114.041885 96.625397 -49.298302 -0.019361
-100.558594 96.625397 -49.298302 -0.010886
-87.075287 96.625397 -49.298302 -0.014943
-73.591980 96.625397 -49.298302 -0.016392
-60.108704 96.625397 -49.298302 -0.008007
-46.625397 96.625397 -49.298302 -0.003888
-33.142090 96.625397 -49.298302 0.008123
-19.658783 96.625397 -49.298302 0.016178
-6.175476 96.625397 -49.298302 0.038765
7.307800 96.625397 -49.298302 0.071401
20.791107 96.625397 -49.298302 0.086404
34.274414 96.625397 -49.298302 0.095960
47.757721 96.625397 -49.298302 0.119459
61.240997 96.625397 -49.298302 0.119980
74.724304 96.625397 -49.298302 0.102849
88.207611 96.625397 -49.298302 0.085086
101.690918 96.625397 -49.298302 0.082016
115.174225 96.625397 -49.298302 0.073435
128.657501 96.625397 -49.298302 0.057893
142.140808 96.625397 -49.298302 0.053703
155.624115 96.625397 -49.298302 0.041188
169.107422 96.625397 -49.298302 0.028918
182.590698 96.625397 -49.298302 0.021448
196.074036 96.625397 -49.298302 0.011097
209.557312 96.625397 -49.298302 0.004674
223.040588 96.625397 -49.298302 0.003065
236.523926 96.625397 -49.298302 0.001530
250.007202 96.625397 -49.298302 0.001764
263.490540 96.625397 -49.298302 0.000743
276.973816 96.625397 -49.298302 0.000241
290.457092 96.625397 -49.298302 -0.000479
303.940430 96.625397 -49.298302 0.000017
317.423706 96.625397 -49.298302 0.000000
330.907043 96.625397 -49.298302 0.000000
344.390320 96.625397 -49.298302 0.000000
-343.257996 83.142090 -49.298302 0.000000
-329.774689 83.142090 -49.298302 0.000000
-316.291382 83.142090 -49.298302 0.000000
-302.808105 83.142090 -49.298302 -0.001156
-289.324799 83.142090 -49.298302 -0.000223
-275.841492 83.142090 -49.298302 -0.000796
-262.358185 83.142090 -49.298302 -0.007637
-248.874893 83.142090 -49.298302 -0.018998
-235.391602 83.142090 -49.298302 -0.039165
-221.908295 83.142090 -49.298302 -0.059511
-208.424988 83.142090 -49.298302 -0.070358
-194.941696 83.142090 -49.298302 -0.099855
-181.458389 83.142090 -49.298302 -0.112618
-167.975098 83.142090 -49.298302 -0.123513
-154.491791 83.142090 -49.298302 -0.083049
-141.008499 83.142090 -49.298302 -0.045943
-127.525192 83.142090 -49.298302 -0.033927
-114.041885 83.142090 -49.298302 -0.003748
-100.558594 83.142090 -49.298302 -0.013157
-87.075287 83.142090 -49.298302 -0.000633
-73.591980 83.142090 -49.298302 -0.009739
-60.108704 83.142090 -49.298302 -0.009168
-46.625397 83.142090 -49.298302 0.009667
-33.142090 83.142090 -49.298302 0.013289
-19.658783 83.142090 -49.298302 0.022430
-6.175476 83.142090 -49.298302 0.044147
7.307800 83.142090 -49.298302 0.073179
20.791107 83.142090 -49.298302 0.093878
34.274414 83.142090 -49.298302 0.092638
47.757721 83.142090 -49.298302 0.083837
61.240997 83.142090 -49.298302 0.072355
74.724304 83.142090 -49.298302 0.056353
88.207611 83.142090 -49.298302 0.043550
101.690918 83.142090 -49.298302 0.037980
115.174225 83.142090 -49.298302 0.038438
128.657501 83.142090 -49.298302 0.036275
142.140808 83.142090 -49.298302 0.030651
155.624115 83.142090 -49.298302 0.023037
169.107422 83.142090 -49.298302 0.016396
182.590698 83.142090 -49.298302 0.014933
196.074036 83.142090 -49.298302 0.010592
209.557312 83.142090 -49.298302 0.006587
223.040588 83.142090 -49.298302 0.003913
236.523926 83.142090 -49.298302 0.002381
250.007202 83.142090 -49.298302 0.002327
263.490540 83.142090 -49.298302 0.001408
276.973816 83.142090 -49.298302 0.000847
290.457092 83.142090 -49.298302 0.000161
303.940430 83.142090 -49.298302 0.000546
317.423706 83.142090 -49.298302 0.000000
330.907043 83.142090 -49.298302 0.000000
344.390320 83.142090 -49.298302 0.000000
-343.257996 69.658783 -49.298302 0.000000
-329.774689 69.658783 -49.298302 0.000000
-316.291382 69.658783 -49.298302 0.000000
-302.808105 69.658783 -49.298302 -0.000912
-289.324799 69.658783 -49.298302 -0.000990
-275.841492 69.658783 -49.298302 -0.002066
-262.358185 69.658783 -49.298302 -0.008190
-248.874893 69.658783 -49.298302 -0.021316
-235.391602 69.658783 -49.298302 -0.033579
-221.908295 69.658783 -49.298302 -0.058629
-208.424988 69.658783 -49.298302 -0.075499
-194.941696 69.658783 -49.298302 -0.075659
-181.458389 69.658783 -49.298302 -0.087125
-167.975098 69.658783 -49.298302 -0.109384
-154.491791 69.658783 -49.298302 -0.087795
-141.008499 69.658783 -49.298302 -0.040357
-127.525192 69.658783 -49.298302 -0.008435
-114.041885 69.658783 -49.298302 0.000037
-100.558594 69.658783 -49.298302 -0.000290
-87.075287 69.658783 -49.298302 -0.003291
-73.591980 69.658783 -49.298302 -0.004174
-60.108704 69.658783 -49.298302 0.012057
-46.625397 69.658783 -49.298302 0.015245
-33.142090 69.658783 -49.298302 0.017128
-19.658783 69.658783 -49.298302 0.031831
-6.175476 69.658783 -49.298302 0.042121
7.307800 69.658783 -49.298302 0.077960
20.791107 69.658783 -49.298302 0.094277
34.274414 69.658783 -49.298302 0.069356
47.757721 69.658783 -49.298302 0.050704
61.240997 69.658783 -49.298302 0.025243
74.724304 69.658783 -49.298302 0.016738
88.207611 69.658783 -49.298302 0.014733
101.690918 69.658783 -49.298302 0.014506
115.174225 69.658783 -49.298302 0.013682
128.657501 69.658783 -49.298302 0.016179
142.140808 69.658783 -49.298302 0.013161
155.624115 69.658783 -49.298302 0.007913
169.107422 69.658783 -49.298302 0.009576
182.590698 69.658783 -49.298302 0.008656
196.074036 69.658783 -49.298302 0.009021
209.557312 69.658783 -49.298302 0.007295
223.040588 69.658783 -49.298302 0.004611
236.523926 69.658783 -49.298302 0.003121
250.007202 69.658783 -49.298302 0.002565
263.490540 69.658783 -49.298302 0.001673
276.973816 69.658783 -49.298302 0.000837
290.457092 69.658783 -49.298302 0.000638
303.940430 69.658783 -49.298302 0.000686
317.423706 69.658783 -49.298302 0.000000
330.907043 69.658783 -49.298302 0.000000
344.390320 69.658783 -49.298302 0.000000
-343.257996 56.175476 -49.298302 0.000000
-329.774689 56.175476 -49.298302 0.000000
-316.291382 56.175476 -49.298302 0.000000
-302.808105 56.175476 -49.298302 -0.000770
-289.324799 56.175476 -49.298302 -0.000366
-275.841492 56.175476 -49.298302 -0.002469
-262.358185 56.175476 -49.298302 -0.005684
-248.874893 56.175476 -49.298302 -0.015287
-235.391602 56.175476 -49.298302 -0.028391
-221.908295 56.175476 -49.298302 -0.045111
-208.424988 56.175476 -49.298302 -0.073391
-194.941696 56.175476 -49.298302 -0.082568
-181.458389 56.175476 -49.298302 -0.089883
-167.975098 56.175476 -49.298302 -0.065706
-154.491791 56.175476 -49.298302 -0.063580
-141.008499 56.175476 -49.298302 -0.036489
-127.525192 56.175476 -49.298302 -0.009333
-114.041885 56.175476 -49.298302 0.003512
-100.558594 56.175476 -49.298302 0.012306
-87.075287 56.175476 -49.298302 0.018641
-73.591980 56.175476 -49.298302 0.008035
-60.108704 56.175476 -49.298302 0.012924
-46.625397 56.175476 -49.298302 0.022345
-33.142090 56.175476 -49.298302 0.030180
-19.658783 56.175476 -49.298302 0.033726
-6.175476 56.175476 -49.298302 0.048651
7.307800 56.175476 -49.298302 0.069458
20.791107 56.175476 -49.298302 0.076015
34.274414 56.175476 -49.298302 0.042045
47.757721 56.175476 -49.298302 0.025382
61.240997 56.175476 -49.298302 -0.002429
74.724304 56.175476 -49.298302 -0.007877
88.207611 56.175476 -49.298302 -0.005425
101.690918 56.175476 -49.298302 0.001623
115.174225 56.175476 -49.298302 -0.003418
128.657501 56.175476 -49.298302 0.000756
142.140808 56.175476 -49.298302 0.000798
155.624115 56.175476 -49.298302 0.001188
169.107422 56.175476 -49.298302 0.003573
182.590698 56.175476 -49.298302 0.005950
196.074036 56.175476 -49.298302 0.006603
209.557312 56.175476 -49.298302 0.006495
223.040588 56.175476 -49.298302 0.005265
236.523926 56.175476 -49.298302 0.003216
250.007202 56.175476 -49.298302 0.002381
263.490540 56.175476 -49.298302 0.000975
276.973816 56.175476 -49.298302 0.000298
290.457092 56.175476 -49.298302 0.000303
303.940430 56.175476 -49.298302 0.000376
317.423706 56.175476 -49.298302 0.000000
330.907043 56.175476 -49.298302 0.000000
344.390320 56.175476 -49.298302 0.000000
-343.257996 42.692200 -49.298302 0.000000
-329.774689 42.692200 -49.298302 0.000000
-316.291382 42.692200 -49.298302 0.000000
-302.808105 42.692200 -49.298302 0.000133
-289.324799 42.692200 -49.298302 -0.001099
-275.841492 42.692200 -49.298302 -0.000969
-262.358185 42.692200 -49.298302 -0.003184
-248.874893 42.692200 -49.298302 -0.012651
-235.391602 42.692200 -49.298302 -0.022897
-221.908295 42.692200 -49.298302 -0.038197
-208.424988 42.692200 -49.298302 -0.070948
-194.941696 42.692200 -49.298302 -0.095119
-181.458389 42.692200 -49.298302 -0.086071
-167.975098 42.692200 -49.298302 -0.041265
-154.491791 42.692200 -49.298302 -0.030325
-141.008499 42.692200 -49.298302 -0.039789
-127.525192 42.692200 -49.298302 -0.016188
-114.041885 42.692200 -49.298302 -0.007885
-100.558594 42.692200 -49.298302 0.011546
-87.075287 42.692200 -49.298302 0.017799
-73.591980 42.692200 -49.298302 0.006855
-60.108704 42.692200 -49.298302 0.008851
-46.625397 42.692200 -49.298302 0.010511
-33.142090 42.692200 -49.298302 0.022792
-19.658783 42.692200 -49.298302 0.020344
-6.175476 42.692200 -49.298302 0.046320
7.307800 42.692200 -49.298302 0.059286
20.791107 42.692200 -49.298302 0.062030
34.274414 42.692200 -49.298302 0.033957
47.757721 42.692200 -49.298302 0.008643
61.240997 42.692200 -49.298302 -0.005767
74.724304 42.692200 -49.298302 -0.005078
88.207611 42.692200 -49.298302 -0.014519
101.690918 42.692200 -49.298302 -0.012689
115.174225 42.692200 -49.298302 -0.016458
128.657501 42.692200 -49.298302 -0.013614
142.140808 42.692200 -49.298302 -0.009697
155.624115 42.692200 -49.298302 -0.004972
169.107422 42.692200 -49.298302 -0.000438
182.590698 42.692200 -49.298302 0.004230
196.074036 42.692200 -49.298302 0.006499
209.557312 42.692200 -49.298302 0.006846
223.040588 42.692200 -49.298302 0.005235
236.523926 42.692200 -49.298302 0.003805
250.007202 42.692200 -49.298302 0.001852
263.490540 42.692200 -49.298302 0.000830
276.973816 42.692200 -49.298302 0.000366
290.457092 42.692200 -49.298302 0.000155
303.940430 42.692200 -49.298302 0.000000
317.423706 42.692200 -49.298302 0.000000
330.907043 42.692200 -49.298302 0.000000
344.390320 42.692200 -49.298302 0.000000
-343.257996 29.208893 -49.298302 0.000000
-329.774689 29.208893 -49.298302 0.000000
-316.291382 29.208893 -49.298302 0.000000
-302.808105 29.208893 -49.298302 0.002165
-289.324799 29.208893 -49.298302 -0.000103
-275.841492 29.208893 -49.298302 -0.000017
-262.358185 29.208893 -49.298302 0.000159
-248.874893 29.208893 -49.298302 -0.003020
-235.391602 29.208893 -49.298302 -0.024191
-221.908295 29.208893 -49.298302 -0.016775
-208.424988 29.208893 -49.298302 -0.057073
-194.941696 29.208893 -49.298302 -0.063958
-181.458389 29.208893 -49.298302 -0.063569
-167.975098 29.208893 -49.298302 -0.029946
-154.491791 29.208893 -49.298302 -0.022415
-141.008499 29.208893 -49.298302 -0.019237
-127.525192 29.208893 -49.298302 -0.000516
-114.041885 29.208893 -49.298302 0.004977
-100.558594 29.208893 -49.298302 0.029778
-87.075287 29.208893 -49.298302 0.018183
-73.591980 29.208893 -49.298302 0.011699
-60.108704 29.208893 -49.298302 0.010722
-46.625397 29.208893 -49.298302 0.008576
-33.142090 29.208893 -49.298302 0.023587
-19.658783 29.208893 -49.298302 0.019390
-6.175476 29.208893 -49.298302 0.042989
7.307800 29.208893 -49.298302 0.053316
20.791107 29.208893 -49.298302 0.055226
34.274414 29.208893 -49.298302 0.039772
47.757721 29.208893 -49.298302 0.020651
61.240997 29.208893 -49.298302 0.003527
74.724304 29.208893 -49.298302 0.005806
88.207611 29.208893 -49.298302 -0.015553
101.690918 29.208893 -49.298302 -0.020240
115.174225 29.208893 -49.298302 -0.026129
128.657501 29.208893 -49.298302 -0.018115
142.140808 29.208893 -49.298302 -0.014004
155.624115 29.208893 -49.298302 -0.013565
169.107422 29.208893 -49.298302 -0.007517
182.590698 29.208893 -49.298302 0.000388
196.074036 29.208893 -49.298302 0.004993
209.557312 29.208893 -49.298302 0.005922
223.040588 29.208893 -49.298302 0.006549
236.523926 29.208893 -49.298302 0.003586
250.007202 29.208893 -49.298302 0.001589
263.490540 29.208893 -49.298302 0.000449
276.973816 29.208893 -49.298302 -0.000124
290.457092 29.208893 -49.298302 -0.000258
303.940430 29.208893 -49.298302 0.000000
317.423706 29.208893 -49.298302 0.000000
330.907043 29.208893 -49.298302 0.000000
344.390320 29.208893 -49.298302 0.000000
-343.257996 15.725586 -49.298302 0.000000
-329.774689 15.725586 -49.298302 0.000000
-316.291382 15.725586 -49.298302 0.000000
-302.808105 15.725586 -49.298302 0.002965
-289.324799 15.725586 -49.298302 0.002130
-275.841492 15.725586 -49.298302 0.001997
-262.358185 15.725586 -49.298302 0.002347
-248.874893 15.725586 -49.298302 0.003848
-235.391602 15.725586 -49.298302 -0.009228
-221.908295 15.725586 -49.298302 -0.021983
-208.424988 15.725586 -49.298302 -0.052352
-194.941696 15.725586 -49.298302 -0.043631
-181.458389 15.725586 -49.298302 -0.053877
-167.975098 15.725586 -49.298302 -0.000421
-154.491791 15.725586 -49.298302 0.009823
-141.008499 15.725586 -49.298302 0.016250
-127.525192 15.725586 -49.298302 0.023225
-114.041885 15.725586 -49.298302 0.014211
-100.558594 15.725586 -49.298302 0.032237
-87.075287 15.725586 -49.298302 0.029128
-73.591980 15.725586 -49.298302 0.019872
-60.108704 15.725586 -49.298302 0.017605
-46.625397 15.725586 -49.298302 0.021934
-33.142090 15.725586 -49.298302 0.023473
-19.658783 15.725586 -49.298302 0.036096
-6.175476 15.725586 -49.298302 0.044386
7.307800 15.725586 -49.298302 0.073954
20.791107 15.725586 -49.298302 0.080287
34.274414 15.725586 -49.298302 0.064578
47.757721 15.725586 -49.298302 0.053910
61.240997 15.725586 -49.298302 0.030395
74.724304 15.725586 -49.298302 0.014260
88.207611 15.725586 -49.298302 -0.002489
101.690918 15.725586 -49.298302 -0.013511
115.174225 15.725586 -49.298302 -0.014458
128.657501 15.725586 -49.298302 -0.017983
142.140808 15.725586 -49.298302 -0.012426
155.624115 15.725586 -49.298302 -0.011006
169.107422 15.725586 -49.298302 -0.009766
182.590698 15.725586 -49.298302 -0.000683
196.074036 15.725586 -49.298302 0.004516
209.557312 15.725586 -49.298302 0.006045
223.040588 15.725586 -49.298302 0.005729
236.523926 15.725586 -49.298302 0.003752
250.007202 15.725586 -49.298302 0.001891
263.490540 15.725586 -49.298302 0.000692
276.973816 15.725586 -49.298302 0.000158
290.457092 15.725586 -49.298302 -0.000103
303.940430 15.725586 -49.298302 0.000000
317.423706 15.725586 -49.298302 0.000000
330.907043 15.725586 -49.298302 0.000000
344.390320 15.725586 -49.298302 0.000000
-343.257996 2.242279 -49.298302 0.000000
-329.774689 2.242279 -49.298302 0.000000
-316.291382 2.242279 -49.298302 0.000000
-302.808105 2.242279 -49.298302 0.002208
-289.324799 2.242279 -49.298302 0.004404
-275.841492 2.242279 -49.298302 0.006711
-262.358185 2.242279 -49.298302 0.008031
-248.874893 2.242279 -49.298302 0.004168
-235.391602 2.242279 -49.298302 0.004902
-221.908295 2.242279 -49.298302 -0.020136
-208.424988 2.242279 -49.298302 -0.025181
-194.941696 2.242279 -49.298302 -0.015114
-181.458389 2.242279 -49.298302 0.014185
-167.975098 2.242279 -49.298302 0.012084
-154.491791 2.242279 -49.298302 0.048059
-141.008499 2.242279 -49.298302 0.030621
-127.525192 2.242279 -49.298302 0.041872
-114.041885 2.242279 -49.298302 0.035679
-100.558594 2.242279 -49.298302 0.042717
-87.075287 2.242279 -49.298302 0.042645
-73.591980 2.242279 -49.298302 0.039309
-60.108704 2.242279 -49.298302 0.043877
-46.625397 2.242279 -49.298302 0.043697
-33.142090 2.242279 -49.298302 0.050038
-19.658783 2.242279 -49.298302 0.064933
-6.175476 2.242279 -49.298302 0.088526
7.307800 2.242279 -49.298302 0.127024
20.791107 2.242279 -49.298302 0.127543
34.274414 2.242279 -49.298302 0.122760
47.757721 2.242279 -49.298302 0.093968
61.240997 2.242279 -49.298302 0.054953
74.724304 2.242279 -49.298302 0.033931
88.207611 2.242279 -49.298302 0.015039
101.690918 2.242279 -49.298302 0.008166
115.174225 2.242279 -49.298302 -0.001549
128.657501 2.242279 -49.298302 -0.005236
142.140808 2.242279 -49.298302 -0.007340
155.624115 2.242279 -49.298302 -0.009632
169.107422 2.242279 -49.298302 -0.005236
182.590698 2.242279 -49.298302 -0.001226
196.074036 2.242279 -49.298302 0.004540
209.557312 2.242279 -49.298302 0.006228
223.040588 2.242279 -49.298302 0.005634
236.523926 2.242279 -49.298302 0.005046
250.007202 2.242279 -49.298302 0.002948
263.490540 2.242279 -49.298302 0.001438
276.973816 2.242279 -49.298302 0.000698
290.457092 2.242279 -49.298302 0.000682
303.940430 2.242279 -49.298302 0.000000
317.423706 2.242279 -49.298302 0.000000
330.907043 2.242279 -49.298302 0.000000
344.390320 2.242279 -49.298302 0.000000
-343.257996 -11.240997 -49.298302 0.000000
-329.774689 -11.240997 -49.298302 0.000000
-316.291382 -11.240997 -49.298302 0.000000
-302.808105 -11.240997 -49.298302 0.004131
-289.324799 -11.240997 -49.298302 0.005070
-275.841492 -11.240997 -49.298302 0.011132
-262.358185 -11.240997 -49.298302 0.013727
-248.874893 -11.240997 -49.298302 0.006600
-235.391602 -11.240997 -49.298302 0.000688
-221.908295 -11.240997 -49.298302 -0.016799
-208.424988 -11.240997 -49.298302 -0.007716
-194.941696 -11.240997 -49.298302 -0.020637
-181.458389 -11.240997 -49.298302 0.020113
-167.975098 -11.240997 -49.298302 0.053557
-154.491791 -11.240997 -49.298302 0.055323
-141.008499 -11.240997 -49.298302 0.069758
-127.525192 -11.240997 -49.298302 0.069261
-114.041885 -11.240997 -49.298302 0.075163
-100.558594 -11.240997 -49.298302 0.054280
-87.075287 -11.240997 -49.298302 0.049805
-73.591980 -11.240997 -49.298302 0.063385
-60.108704 -11.240997 -49.298302 0.080424
-46.625397 -11.240997 -49.298302 0.061321
-33.142090 -11.240997 -49.298302 0.081594
-19.658783 -11.240997 -49.298302 0.109208
-6.175476 -11.240997 -49.298302 0.141428
7.307800 -11.240997 -49.298302 0.182407
20.791107 -11.240997 -49.298302 0.182627
34.274414 -11.240997 -49.298302 0.173269
47.757721 -11.240997 -49.298302 0.125682
61.240997 -11.240997 -49.298302 0.096892
74.724304 -11.240997 -49.298302 0.055961
88.207611 -11.240997 -49.298302 0.035943
101.690918 -11.240997 -49.298302 0.024444
115.174225 -11.240997 -49.298302 0.016164
128.657501 -11.240997 -49.298302 0.006812
142.140808 -11.240997 -49.298302 0.004925
155.624115 -11.240997 -49.298302 -0.001524
169.107422 -11.240997 -49.298302 -0.006273
182.590698 -11.240997 -49.298302 -0.000592
196.074036 -11.240997 -49.298302 0.002467
209.557312 -11.240997 -49.298302 0.005914
223.040588 -11.240997 -49.298302 0.006407
236.523926 -11.240997 -49.298302 0.005259
250.007202 -11.240997 -49.298302 0.003606
263.490540 -11.240997 -49.298302 0.002168
276.973816 -11.240997 -49.298302 0.001542
290.457092 -11.240997 -49.298302 0.001101
303.940430 -11.240997 -49.298302 0.000000
317.423706 -11.240997 -49.298302 0.000000
330.907043 -11.240997 -49.298302 0.000000
344.390320 -11.240997 -49.298302 0.000000
-343.257996 -24.724304 -49.298302 0.000000
-329.774689 -24.724304 -49.298302 0.000000
-316.291382 -24.724304 -49.298302 0.000000
-302.808105 -24.724304 -49.298302 0.005103
-289.324799 -24.724304 -49.298302 0.009884
-275.841492 -24.724304 -49.298302 0.012928
-262.358185 -24.724304 -49.298302 0.019055
-248.874893 -24.724304 -49.298302 0.019764
-235.391602 -24.724304 -49.298302 0.018827
-221.908295 -24.724304 -49.298302 0.021680
-208.424988 -24.724304 -49.298302 0.008905
-194.941696 -24.724304 -49.298302 -0.005750
-181.458389 -24.724304 -49.298302 0.035887
-167.975098 -24.724304 -49.298302 0.085686
-154.491791 -24.724304 -49.298302 0.108718
-141.008499 -24.724304 -49.298302 0.105739
-127.525192 -24.724304 -49.298302 0.087129
-114.041885 -24.724304 -49.298302 0.075607
-100.558594 -24.724304 -49.298302 0.076616
-87.075287 -24.724304 -49.298302 0.075766
-73.591980 -24.724304 -49.298302 0.104703
-60.108704 -24.724304 -49.298302 0.122159
-46.625397 -24.724304 -49.298302 0.118429
-33.142090 -24.724304 -49.298302 0.146121
-19.658783 -24.724304 -49.298302 0.184297
-6.175476 -24.724304 -49.298302 0.219731
7.307800 -24.724304 -49.298302 0.258239
20.791107 -24.724304 -49.298302 0.224148
34.274414 -24.724304 -49.298302 0.213882
47.757721 -24.724304 -49.298302 0.174146
61.240997 -24.724304 -49.298302 0.116003
74.724304 -24.724304 -49.298302 0.090409
88.207611 -24.724304 -49.298302 0.053717
101.690918 -24.724304 -49.298302 0.033103
115.174225 -24.724304 -49.298302 0.021156
128.657501 -24.724304 -49.298302 0.023231
142.140808 -24.724304 -49.298302 0.009140
155.624115 -24.724304 -49.298302 0.001738
169.107422 -24.724304 -49.298302 -0.002603
182.590698 -24.724304 -49.298302 -0.001977
196.074036 -24.724304 -49.298302 0.000124
209.557312 -24.724304 -49.298302 0.003831
223.040588 -24.724304 -49.298302 0.006169
236.523926 -24.724304 -49.298302 0.004665
250.007202 -24.724304 -49.298302 0.003600
263.490540 -24.724304 -49.298302 0.002959
276.973816 -24.724304 -49.298302 0.002106
290.457092 -24.724304 -49.298302 0.001625
303.940430 -24.724304 -49.298302 0.000000
317.423706 -24.724304 -49.298302 0.000000
330.907043 -24.724304 -49.298302 0.000000
344.390320 -24.724304 -49.298302 0.000000
-343.257996 -38.207611 -49.298302 0.000000
-329.774689 -38.207611 -49.298302 0.000000
-316.291382 -38.207611 -49.298302 0.000000
-302.808105 -38.207611 -49.298302 0.004204
-289.324799 -38.207611 -49.298302 0.012364
-275.841492 -38.207611 -49.298302 0.011069
-262.358185 -38.207611 -49.298302 0.016489
-248.874893 -38.207611 -49.298302 0.021473
-235.391602 -38.207611 -49.298302 0.024296
-221.908295 -38.207611 -49.298302 0.014754
-208.424988 -38.207611 -49.298302 0.016515
-194.941696 -38.207611 -49.298302 0.038260
-181.458389 -38.207611 -49.298302 0.084748
-167.975098 -38.207611 -49.298302 0.105670
-154.491791 -38.207611 -49.298302 0.118117
-141.008499 -38.207611 -49.298302 0.114181
-127.525192 -38.207611 -49.298302 0.077797
-114.041885 -38.207611 -49.298302 0.085622
-100.558594 -38.207611 -49.298302 0.086909
-87.075287 -38.207611 -49.298302 0.124348
-73.591980 -38.207611 -49.298302 0.146064
-60.108704 -38.207611 -49.298302 0.174931
-46.625397 -38.207611 -49.298302 0.199446
-33.142090 -38.207611 -49.298302 0.219464
-19.658783 -38.207611 -49.298302 0.257399
-6.175476 -38.207611 -49.298302 0.291336
7.307800 -38.207611 -49.298302 0.302698
20.791107 -38.207611 -49.298302 0.313125
34.274414 -38.207611 -49.298302 0.258273
47.757721 -38.207611 -49.298302 0.176231
61.240997 -38.207611 -49.298302 0.105845
74.724304 -38.207611 -49.298302 0.083877
88.207611 -38.207611 -49.298302 0.059733
101.690918 -38.207611 -49.298302 0.034321
115.174225 -38.207611 -49.298302 0.026648
128.657501 -38.207611 -49.298302 0.021997
142.140808 -38.207611 -49.298302 0.010110
155.624115 -38.207611 -49.298302 0.000305
169.107422 -38.207611 -49.298302 -0.001221
182.590698 -38.207611 -49.298302 -0.002276
196.074036 -38.207611 -49.298302 -0.000637
209.557312 -38.207611 -49.298302 0.002530
223.040588 -38.207611 -49.298302 0.004632
236.523926 -38.207611 -49.298302 0.003711
250.007202 -38.207611 -49.298302 0.003205
263.490540 -38.207611 -49.298302 0.002330
276.973816 -38.207611 -49.298302 0.002121
290.457092 -38.207611 -49.298302 0.001829
303.940430 -38.207611 -49.298302 0.000000
317.423706 -38.207611 -49.298302 0.000000
330.907043 -38.207611 -49.298302 0.000000
344.390320 -38.207611 -49.298302 0.000000
-343.257996 -51.690918 -49.298302 0.000000
-329.774689 -51.690918 -49.298302 0.000000
-316.291382 -51.690918 -49.298302 0.000000
-302.808105 -51.690918 -49.298302 0.000000
-289.324799 -51.690918 -49.298302 0.006178
-275.841492 -51.690918 -49.298302 0.000000
-262.358185 -51.690918 -49.298302 0.000000
-248.874893 -51.690918 -49.298302 0.000000
-235.391602 -51.690918 -49.298302 0.000000
-221.908295 -51.690918 -49.298302 0.000000
-208.424988 -51.690918 -49.298302 0.089928
-194.941696 -51.690918 -49.298302 0.000000
-181.458389 -51.690918 -49.298302 0.084255
-167.975098 -51.690918 -49.298302 0.103794
-154.491791 -51.690918 -49.298302 0.125908
-141.008499 -51.690918 -49.298302 0.115947
-127.525192 -51.690918 -49.298302 0.101375
-114.041885 -51.690918 -49.298302 0.103219
-100.558594 -51.690918 -49.298302 0.132769
-87.075287 -51.690918 -49.298302 0.163180
-73.591980 -51.690918 -49.298302 0.000000
-60.108704 -51.690918 -49.298302 0.230818
-46.625397 -51.690918 -49.298302 0.252405
-33.142090 -51.690918 -49.298302 0.262920
-19.658783 -51.690918 -49.298302 0.297592
-6.175476 -51.690918 -49.298302 0.317616
7.307800 -51.690918 -49.298302 0.307522
20.791107 -51.690918 -49.298302 0.296114
34.274414 -51.690918 -49.298302 0.226520
47.757721 -51.690918 -49.298302 0.166547
61.240997 -51.690918 -49.298302 0.105719
74.724304 -51.690918 -49.298302 0.076606
88.207611 -51.690918 -49.298302 0.040874
101.690918 -51.690918 -49.298302 0.027818
115.174225 -51.690918 -49.298302 0.023138
128.657501 -51.690918 -49.298302 0.018383
142.140808 -51.690918 -49.298302 0.011411
155.624115 -51.690918 -49.298302 0.001374
169.107422 -51.690918 -49.298302 -0.001482
182.590698 -51.690918 -49.298302 -0.001639
196.074036 -51.690918 -49.298302 -0.001432
209.557312 -51.690918 -49.298302 0.001288
223.040588 -51.690918 -49.298302 0.002774
236.523926 -51.690918 -49.298302 0.001367
250.007202 -51.690918 -49.298302 0.002507
263.490540 -51.690918 -49.298302 0.002067
276.973816 -51.690918 -49.298302 0.002101
290.457092 -51.690918 -49.298302 0.001858
303.940430 -51.690918 -49.298302 0.000000
317.423706 -51.690918 -49.298302 0.000000
330.907043 -51.690918 -49.298302 0.000000
344.390320 -51.690918 -49.298302 0.000000
-343.257996 -65.174225 -49.298302 0.000000
-329.774689 -65.174225 -49.298302 0.000000
-316.291382 -65.174225 -49.298302 0.000000
-302.808105 -65.174225 -49.298302 0.000000
-289.324799 -65.174225 -49.298302 0.000000
-275.841492 -65.174225 -49.298302 0.000000
-262.358185 -65.174225 -49.298302 0.000000
-248.874893 -65.174225 -49.298302 0.000000
-235.391602 -65.174225 -49.298302 0.000000
-221.908295 -65.174225 -49.298302 0.040382
-208.424988 -65.174225 -49.298302 0.000000
-194.941696 -65.174225 -49.298302 0.000000
-181.458389 -65.174225 -49.298302 0.075497
-167.975098 -65.174225 -49.298302 0.084166
-154.491791 -65.174225 -49.298302 0.098711
-141.008499 -65.174225 -49.298302 0.128108
-127.525192 -65.174225 -49.298302 0.136964
-114.041885 -65.174225 -49.298302 0.147638
-100.558594 -65.174225 -49.298302 0.166177
-87.075287 -65.174225 -49.298302 0.205684
-73.591980 -65.174225 -49.298302 0.241356
-60.108704 -65.174225 -49.298302 0.270036
-46.625397 -65.174225 -49.298302 0.279083
-33.142090 -65.174225 -49.298302 0.275576
-19.658783 -65.174225 -49.298302 0.299405
-6.175476 -65.174225 -49.298302 0.328639
7.307800 -65.174225 -49.298302 0.307643
20.791107 -65.174225 -49.298302 0.266514
34.274414 -65.174225 -49.298302 0.192060
47.757721 -65.174225 -49.298302 0.138161
61.240997 -65.174225 -49.298302 0.092252
74.724304 -65.174225 -49.298302 0.063270
88.207611 -65.174225 -49.298302 0.026931
101.690918 -65.174225 -49.298302 0.018248
115.174225 -65.174225 -49.298302 0.016486
128.657501 -65.174225 -49.298302 0.009517
142.140808 -65.174225 -49.298302 0.004994
155.624115 -65.174225 -49.298302 0.000975
169.107422 -65.174225 -49.298302 -0.001983
182.590698 -65.174225 -49.298302 -0.000556
196.074036 -65.174225 -49.298302 -0.000091
209.557312 -65.174225 -49.298302 0.000799
223.040588 -65.174225 -49.298302 -0.000818
236.523926 -65.174225 -49.298302 0.001279
250.007202 -65.174225 -49.298302 0.001399
263.490540 -65.174225 -49.298302 0.001908
276.973816 -65.174225 -49.298302 0.002212
290.457092 -65.174225 -49.298302 0.001967
303.940430 -65.174225 -49.298302 0.000000
317.423706 -65.174225 -49.298302 0.000000
330.907043 -65.174225 -49.298302 0.000000
344.390320 -65.174225 -49.298302 0.000000
-343.257996 -78.657501 -49.298302 0.000000
-329.774689 -78.657501 -49.298302 0.000000
-316.291382 -78.657501 -49.298302 0.000000
-302.808105 -78.657501 -49.298302 0.000000
-289.324799 -78.657501 -49.298302 0.000000
-275.841492 -78.657501 -49.298302 0.000000
-262.358185 -78.657501 -49.298302 0.000000
-248.874893 -78.657501 -49.298302 0.000000
-235.391602 -78.657501 -49.298302 0.000000
-221.908295 -78.657501 -49.298302 0.000000
-208.424988 -78.657501 -49.298302 0.000000
-194.941696 -78.657501 -49.298302 0.000000
-181.458389 -78.657501 -49.298302 0.000000
-167.975098 -78.657501 -49.298302 0.053239
-154.491791 -78.657501 -49.298302 0.083725
-141.008499 -78.657501 -49.298302 0.111004
-127.525192 -78.657501 -49.298302 0.142722
-114.041885 -78.657501 -49.298302 0.000000
-100.558594 -78.657501 -49.298302 0.000000
-87.075287 -78.657501 -49.298302 0.211815
-73.591980 -78.657501 -49.298302 0.257031
-60.108704 -78.657501 -49.298302 0.271599
-46.625397 -78.657501 -49.298302 0.315137
-33.142090 -78.657501 -49.298302 0.296737
-19.658783 -78.657501 -49.298302 0.300250
-6.175476 -78.657501 -49.298302 0.291579
7.307800 -78.657501 -49.298302 0.259666
20.791107 -78.657501 -49.298302 0.211748
34.274414 -78.657501 -49.298302 0.159768
47.757721 -78.657501 -49.298302 0.112083
61.240997 -78.657501 -49.298302 0.076691
74.724304 -78.657501 -49.298302 0.045952
88.207611 -78.657501 -49.298302 0.021216
101.690918 -78.657501 -49.298302 0.013724
115.174225 -78.657501 -49.298302 0.007474
128.657501 -78.657501 -49.298302 0.001167
142.140808 -78.657501 -49.298302 0.000340
155.624115 -78.657501 -49.298302 0.000491
169.107422 -78.657501 -49.298302 0.002874
182.590698 -78.657501 -49.298302 0.004217
196.074036 -78.657501 -49.298302 0.003016
209.557312 -78.657501 -49.298302 0.001287
223.040588 -78.657501 -49.298302 -0.002666
236.523926 -78.657501 -49.298302 -0.000685
250.007202 -78.657501 -49.298302 0.000535
263.490540 -78.657501 -49.298302 0.001006
276.973816 -78.657501 -49.298302 0.001000
290.457092 -78.657501 -49.298302 0.002312
303.940430 -78.657501 -49.298302 0.000000
317.423706 -78.657501 -49.298302 0.000000
330.907043 -78.657501 -49.298302 0.000000
344.390320 -78.657501 -49.298302 0.000000
-343.257996 -92.140808 -49.298302 0.000000
-329.774689 -92.140808 -49.298302 0.000000
-316.291382 -92.140808 -49.298302 0.000000
-302.808105 -92.140808 -49.298302 0.000000
-289.324799 -92.140808 -49.298302 0.000000
-275.841492 -92.140808 -49.298302 0.000000
-262.358185 -92.140808 -49.298302 0.000000
-248.874893 -92.140808 -49.298302 0.000000
-235.391602 -92.140808 -49.298302 0.000000
-221.908295 -92.140808 -49.298302 0.000000
-208.424988 -92.140808 -49.298302 0.000000
-194.941696 -92.140808 -49.298302 0.000000
-181.458389 -92.140808 -49.298302 0.000000
-167.975098 -92.140808 -49.298302 0.000000
-154.491791 -92.140808 -49.298302 0.000000
-141.008499 -92.140808 -49.298302 0.000000
-127.525192 -92.140808 -49.298302 0.000000
-114.041885 -92.140808 -49.298302 0.000000
-100.558594 -92.140808 -49.298302 0.000000
-87.075287 -92.140808 -49.298302 0.000000
-73.591980 -92.140808 -49.298302 0.245863
-60.108704 -92.140808 -49.298302 0.282730
-46.625397 -92.140808 -49.298302 0.292036
-33.142090 -92.140808 -49.298302 0.291864
-19.658783 -92.140808 -49.298302 0.259861
-6.175476 -92.140808 -49.298302 0.263285
7.307800 -92.140808 -49.298302 0.224772
20.791107 -92.140808 -49.298302 0.168344
34.274414 -92.140808 -49.298302 0.121714
47.757721 -92.140808 -49.298302 0.078967
61.240997 -92.140808 -49.298302 0.054068
74.724304 -92.140808 -49.298302 0.032084
88.207611 -92.140808 -49.298302 0.012808
101.690918 -92.140808 -49.298302 0.008509
115.174225 -92.140808 -49.298302 0.004329
128.657501 -92.140808 -49.298302 0.001368
142.140808 -92.140808 -49.298302 -0.000842
155.624115 -92.140808 -49.298302 0.002757
169.107422 -92.140808 -49.298302 0.005252
182.590698 -92.140808 -49.298302 0.006840
196.074036 -92.140808 -49.298302 0.007327
209.557312 -92.140808 -49.298302 0.000612
223.040588 -92.140808 -49.298302 -0.002633
236.523926 -92.140808 -49.298302 -0.003239
250.007202 -92.140808 -49.298302 -0.001714
263.490540 -92.140808 -49.298302 -0.000193
276.973816 -92.140808 -49.298302 0.000950
290.457092 -92.140808 -49.298302 0.001687
303.940430 -92.140808 -49.298302 0.000000
317.423706 -92.140808 -49.298302 0.000000
330.907043 -92.140808 -49.298302 0.000000
344.390320 -92.140808 -49.298302 0.000000
-343.257996 -105.624115 -49.298302 0.000000
-329.774689 -105.624115 -49.298302 0.000000
-316.291382 -105.624115 -49.298302 0.000000
-302.808105 -105.624115 -49.298302 0.000000
-289.324799 -105.624115 -49.298302 0.000000
-275.841492 -105.624115 -49.298302 0.000000
-262.358185 -105.624115 -49.298302 0.000000
-248.874893 -105.624115 -49.298302 0.000000
-235.391602 -105.624115 -49.298302 0.000000
-221.908295 -105.624115 -49.298302 0.000000
-208.424988 -105.624115 -49.298302 0.000000
-194.941696 -105.624115 -49.298302 0.000000
-181.458389 -105.624115 -49.298302 0.000000
-167.975098 -105.624115 -49.298302 0.000000
-154.491791 -105.624115 -49.298302 0.000000
-141.008499 -105.624115 -49.298302 0.127074
-127.525192 -105.624115 -49.298302 0.000000
-114.041885 -105.624115 -49.298302 0.151833
-100.558594 -105.624115 -49.298302 0.000000
-87.075287 -105.624115 -49.298302 0.000000
-73.591980 -105.624115 -49.298302 0.000000
-60.108704 -105.624115 -49.298302 0.000000
-46.625397 -105.624115 -49.298302 0.000000
-33.142090 -105.624115 -49.298302 0.246921
-19.658783 -105.624115 -49.298302 0.217243
-6.175476 -105.624115 -49.298302 0.199143
7.307800 -105.624115 -49.298302 0.170332
20.791107 -105.624115 -49.298302 0.133159
34.274414 -105.624115 -49.298302 0.093112
47.757721 -105.624115 -49.298302 0.052757
61.240997 -105.624115 -49.298302 0.035179
74.724304 -105.624115 -49.298302 0.025526
88.207611 -105.624115 -49.298302 0.011539
101.690918 -105.624115 -49.298302 0.005694
115.174225 -105.624115 -49.298302 -0.003217
128.657501 -105.624115 -49.298302 -0.004651
142.140808 -105.624115 -49.298302 -0.001885
155.624115 -105.624115 -49.298302 -0.001822
169.107422 -105.624115 -49.298302 0.003819
182.590698 -105.624115 -49.298302 0.007219
196.074036 -105.624115 -49.298302 0.005582
209.557312 -105.624115 -49.298302 0.002127
223.040588 -105.624115 -49.298302 -0.003276
236.523926 -105.624115 -49.298302 -0.006595
250.007202 -105.624115 -49.298302 -0.004096
263.490540 -105.624115 -49.298302 -0.002014
276.973816 -105.624115 -49.298302 -0.000005
290.457092 -105.624115 -49.298302 0.001303
303.940430 -105.624115 -49.298302 0.000000
317.423706 -105.624115 -49.298302 0.000000
330.907043 -105.624115 -49.298302 0.000000
344.390320 -105.624115 -49.298302 0.000000
-343.257996 -119.107422 -49.298302 0.000000
-329.774689 -119.107422 -49.298302 0.000000
-316.291382 -119.107422 -49.298302 0.000000
-302.808105 -119.107422 -49.298302 0.000000
-289.324799 -119.107422 -49.298302 0.000000
-275.841492 -119.107422 -49.298302 0.000000
-262.358185 -119.107422 -49.298302 0.000000
-248.874893 -119.107422 -49.298302 0.000000
-235.391602 -119.107422 -49.298302 0.000000
-221.908295 -119.107422 -49.298302 0.000000
-208.424988 -119.107422 -49.298302 0.000000
-194.941696 -119.107422 -49.298302 0.000000
-181.458389 -119.107422 -49.298302 0.000000
-167.975098 -119.107422 -49.298302 0.000000
-154.491791 -119.107422 -49.298302 0.000000
-141.008499 -119.107422 -49.298302 0.000000
-127.525192 -119.107422 -49.298302 0.000000
-114.041885 -119.107422 -49.298302 0.000000
-100.558594 -119.107422 -49.298302 0.000000
-87.075287 -119.107422 -49.298302 0.000000
-73.591980 -119.107422 -49.298302 0.000000
-60.108704 -119.107422 -49.298302 0.000000
-46.625397 -119.107422 -49.298302 0.199092
-33.142090 -119.107422 -49.298302 0.000000
-19.658783 -119.107422 -49.298302 0.168978
-6.175476 -119.107422 -49.298302 0.000000
7.307800 -119.107422 -49.298302 0.000000
20.791107 -119.107422 -49.298302 0.081134
34.274414 -119.107422 -49.298302 0.073610
47.757721 -119.107422 -49.298302 0.041428
61.240997 -119.107422 -49.298302 0.022954
74.724304 -119.107422 -49.298302 0.011035
88.207611 -119.107422 -49.298302 0.004874
101.690918 -119.107422 -49.298302 -0.001338
115.174225 -119.107422 -49.298302 -0.003605
128.657501 -119.107422 -49.298302 -0.006066
142.140808 -119.107422 -49.298302 -0.007756
155.624115 -119.107422 -49.298302 -0.003967
169.107422 -119.107422 -49.298302 0.000620
182.590698 -119.107422 -49.298302 0.005256
196.074036 -119.107422 -49.298302 0.007058
209.557312 -119.107422 -49.298302 0.003549
223.040588 -119.107422 -49.298302 -0.006267
236.523926 -119.107422 -49.298302 -0.006750
250.007202 -119.107422 -49.298302 -0.006454
263.490540 -119.107422 -49.298302 -0.003836
276.973816 -119.107422 -49.298302 -0.002141
290.457092 -119.107422 -49.298302 -0.000674
303.940430 -119.107422 -49.298302 0.000000
317.423706 -119.107422 -49.298302 0.000000
330.907043 -119.107422 -49.298302 0.000000
344.390320 -119.107422 -49.298302 0.000000
-343.257996 -132.590698 -49.298302 0.000000
-329.774689 -132.590698 -49.298302 0.000000
-316.291382 -132.590698 -49.298302 0.000000
-302.808105 -132.590698 -49.298302 0.000000
-289.324799 -132.590698 -49.298302 0.000000
-275.841492 -132.590698 -49.298302 0.000000
-262.358185 -132.590698 -49.298302 0.000000
-248.874893 -132.590698 -49.298302 0.000000
-235.391602 -132.590698 -49.298302 0.000000
-221.908295 -132.590698 -49.298302 0.000000
-208.424988 -132.590698 -49.298302 0.000000
-194.941696 -132.590698 -49.298302 0.000000
-181.458389 -132.590698 -49.298302 0.000000
-167.975098 -132.590698 -49.298302 0.000000
-154.491791 -132.590698 -49.298302 0.087878
-141.008499 -132.590698 -49.298302 0.000000
-127.525192 -132.590698 -49.298302 0.000000
-114.041885 -132.590698 -49.298302 0.000000
-100.558594 -132.590698 -49.298302 0.000000
-87.075287 -132.590698 -49.298302 0.000000
-73.591980 -132.590698 -49.298302 0.000000
-60.108704 -132.590698 -49.298302 0.000000
-46.625397 -132.590698 -49.298302 0.000000
-33.142090 -132.590698 -49.298302 0.000000
-19.658783 -132.590698 -49.298302 0.000000
-6.175476 -132.590698 -49.298302 0.000000
7.307800 -132.590698 -49.298302 0.000000
20.791107 -132.590698 -49.298302 0.000000
34.274414 -132.590698 -49.298302 0.000000
47.757721 -132.590698 -49.298302 0.000000
61.240997 -132.590698 -49.298302 0.000000
74.724304 -132.590698 -49.298302 0.009783
88.207611 -132.590698 -49.298302 -0.000259
101.690918 -132.590698 -49.298302 -0.002691
115.174225 -132.590698 -49.298302 -0.008903
128.657501 -132.590698 -49.298302 -0.010653
142.140808 -132.590698 -49.298302 -0.010791
155.624115 -132.590698 -49.298302 -0.001356
169.107422 -132.590698 -49.298302 0.002403
182.590698 -132.590698 -49.298302 0.008242
196.074036 -132.590698 -49.298302 0.011725
209.557312 -132.590698 -49.298302 0.006202
223.040588 -132.590698 -49.298302 -0.003967
236.523926 -132.590698 -49.298302 -0.007398
250.007202 -132.590698 -49.298302 -0.008825
263.490540 -132.590698 -49.298302 -0.007093
276.973816 -132.590698 -49.298302 -0.006416
290.457092 -132.590698 -49.298302 -0.002502
303.940430 -132.590698 -49.298302 0.000000
317.423706 -132.590698 -49.298302 0.000000
330.907043 -132.590698 -49.298302 0.000000
344.390320 -132.590698 -49.298302 0.000000
-343.257996 -146.074036 -49.298302 0.000000
-329.774689 -146.074036 -49.298302 0.000000
-316.291382 -146.074036 -49.298302 0.000000
-302.808105 -146.074036 -49.298302 0.000000
-289.324799 -146.074036 -49.298302 0.000000
-275.841492 -146.074036 -49.298302 0.000000
-262.358185 -146.074036 -49.298302 0.000000
-248.874893 -146.074036 -49.298302 0.000000
-235.391602 -146.074036 -49.298302 0.000000
-221.908295 -146.074036 -49.298302 0.000000
-208.424988 -146.074036 -49.298302 0.000000
-194.941696 -146.074036 -49.298302 0.000000
-181.458389 -146.074036 -49.298302 0.000000
-167.975098 -146.074036 -49.298302 0.000000
-154.491791 -146.074036 -49.298302 0.000000
-141.008499 -146.074036 -49.298302 0.000000
-127.525192 -146.074036 -49.298302 0.000000
-114.041885 -146.074036 -49.298302 0.000000
-100.558594 -146.074036 -49.298302 0.000000
-87.075287 -146.074036 -49.298302 0.000000
-73.591980 -146.074036 -49.298302 0.000000
-60.108704 -146.074036 -49.298302 0.000000
-46.625397 -146.074036 -49.298302 0.000000
-33.142090 -146.074036 -49.298302 0.000000
-19.658783 -146.074036 -49.298302 0.000000
-6.175476 -146.074036 -49.298302 0.000000
7.307800 -146.074036 -49.298302 0.000000
20.791107 -146.074036 -49.298302 0.000000
34.274414 -146.074036 -49.298302 0.000000
47.757721 -146.074036 -49.298302 0.000000
61.240997 -146.074036 -49.298302 0.000000
74.724304 -146.074036 -49.298302 0.000000
88.207611 -146.074036 -49.298302 0.000000
101.690918 -146.074036 -49.298302 0.000000
115.174225 -146.074036 -49.298302 0.000000
128.657501 -146.074036 -49.298302 0.000000
142.140808 -146.074036 -49.298302 -0.004304
155.624115 -146.074036 -49.298302 0.000403
169.107422 -146.074036 -49.298302 0.003284
182.590698 -146.074036 -49.298302 0.016841
196.074036 -146.074036 -49.298302 0.020958
209.557312 -146.074036 -49.298302 0.011503
223.040588 -146.074036 -49.298302 0.000000
236.523926 -146.074036 -49.298302 0.000000
250.007202 -146.074036 -49.298302 -0.006749
263.490540 -146.074036 -49.298302 0.000000
276.973816 -146.074036 -49.298302 0.000000
290.457092 -146.074036 -49.298302 0.000000
303.940430 -146.074036 -49.298302 0.000000
317.423706 -146.074036 -49.298302 0.000000
330.907043 -146.074036 -49.298302 0.000000
344.390320 -146.074036 -49.298302 0.000000
-343.257996 -159.557312 -49.298302 0.000000
-329.774689 -159.557312 -49.298302 0.000000
-316.291382 -159.557312 -49.298302 0.000000
-302.808105 -159.557312 -49.298302 0.000000
-289.324799 -159.557312 -49.298302 0.000000
-275.841492 -159.557312 -49.298302 0.000000
-262.358185 -159.557312 -49.298302 0.000000
-248.874893 -159.557312 -49.298302 0.000000
-235.391602 -159.557312 -49.298302 0.000000
-221.908295 -159.557312 -49.298302 0.000000
-208.424988 -159.557312 -49.298302 0.000000
-194.941696 -159.557312 -49.298302 0.000000
-181.458389 -159.557312 -49.298302 0.000000
-167.975098 -159.557312 -49.298302 0.000000
-154.491791 -159.557312 -49.298302 0.000000
-141.008499 -159.557312 -49.298302 0.000000
-127.525192 -159.557312 -49.298302 0.000000
-114.041885 -159.557312 -49.298302 0.000000
-100.558594 -159.557312 -49.298302 0.000000
-87.075287 -159.557312 -49.298302 0.000000
-73.591980 -159.557312 -49.298302 0.000000
-60.108704 -159.557312 -49.298302 0.000000
-46.625397 -159.557312 -49.298302 0.000000
-33.142090 -159.557312 -49.298302 0.000000
-19.658783 -159.557312 -49.298302 0.000000
-6.175476 -159.557312 -49.298302 0.000000
7.307800 -159.557312 -49.298302 0.000000
20.791107 -159.557312 -49.298302 0.000000
34.274414 -159.557312 -49.298302 0.000000
47.757721 -159.557312 -49.298302 0.000000
61.240997 -159.557312 -49.298302 0.000000
74.724304 -159.557312 -49.298302 0.000000
88.207611 -159.557312 -49.298302 0.000000
101.690918 -159.557312 -49.298302 0.000000
115.174225 -159.557312 -49.298302 0.000000
128.657501 -159.557312 -49.298302 0.000000
142.140808 -159.557312 -49.298302 0.000000
155.624115 -159.557312 -49.298302 0.000000
169.107422 -159.557312 -49.298302 0.000000
182.590698 -159.557312 -49.298302 0.000000
196.074036 -159.557312 -49.298302 0.000000
209.557312 -159.557312 -49.298302 0.000000
223.040588 -159.557312 -49.298302 0.000000
236.523926 -159.557312 -49.298302 0.000000
250.007202 -159.557312 -49.298302 0.000000
263.490540 -159.557312 -49.298302 0.000000
276.973816 -159.557312 -49.298302 0.000000
290.457092 -159.557312 -49.298302 0.000000
303.940430 -159.557312 -49.298302 0.000000
317.423706 -159.557312 -49.298302 0.000000
330.907043 -159.557312 -49.298302 0.000000
344.390320 -159.557312 -49.298302 0.000000
-343.257996 -173.040588 -49.298302 0.000000
-329.774689 -173.040588 -49.298302 0.000000
-316.291382 -173.040588 -49.298302 0.000000
-302.808105 -173.040588 -49.298302 0.000000
-289.324799 -173.040588 -49.298302 0.000000
-275.841492 -173.040588 -49.298302 0.000000
-262.358185 -173.040588 -49.298302 0.000000
-248.874893 -173.040588 -49.298302 0.000000
-235.391602 -173.040588 -49.298302 0.000000
-221.908295 -173.040588 -49.298302 0.000000
-208.424988 -173.040588 -49.298302 0.000000
-194.941696 -173.040588 -49.298302 0.000000
-181.458389 -173.040588 -49.298302 0.000000
-167.975098 -173.040588 -49.298302 0.000000
-154.491791 -173.040588 -49.298302 0.000000
-141.008499 -173.040588 -49.298302 0.000000
-127.525192 -173.040588 -49.298302 0.000000
-114.041885 -173.040588 -49.298302 0.000000
-100.558594 -173.040588 -49.298302 0.000000
-87.075287 -173.040588 -49.298302 0.000000
-73.591980 -173.040588 -49.298302 0.000000
-60.108704 -173.040588 -49.298302 0.000000
-46.625397 -173.040588 -49.298302 0.000000
-33.142090 -173.040588 -49.298302 0.000000
-19.658783 -173.040588 -49.298302 0.000000
-6.175476 -173.040588 -49.298302 0.000000
7.307800 -173.040588 -49.298302 0.000000
20.791107 -173.040588 -49.298302 0.000000
34.274414 -173.040588 -49.298302 0.000000
47.757721 -173.040588 -49.298302 0.000000
61.240997 -173.040588 -49.298302 0.000000
74.724304 -173.040588 -49.298302 0.000000
88.207611 -173.040588 -49.298302 0.000000
101.690918 -173.040588 -49.298302 0.000000
115.174225 -173.040588 -49.298302 0.000000
128.657501 -173.040588 -49.298302 0.000000
142.140808 -173.040588 -49.298302 0.000000
155.624115 -173.040588 -49.298302 0.000000
169.107422 -173.040588 -49.298302 0.000000
182.590698 -173.040588 -49.298302 0.000000
196.074036 -173.040588 -49.298302 0.000000
209.557312 -173.040588 -49.298302 0.000000
223.040588 -173.040588 -49.298302 0.000000
236.523926 -173.040588 -49.298302 0.000000
250.007202 -173.040588 -49.298302 0.000000
263.490540 -173.040588 -49.298302 0.000000
276.973816 -173.040588 -49.298302 0.000000
290.457092 -173.040588 -49.298302 0.000000
303.940430 -173.040588 -49.298302 0.000000
317.423706 -173.040588 -49.298302 0.000000
330.907043 -173.040588 -49.298302 0.000000
344.390320 -173.040588 -49.298302 0.000000
-343.257996 -186.523926 -49.298302 0.000000
-329.774689 -186.523926 -49.298302 0.000000
-316.291382 -186.523926 -49.298302 0.000000
-302.808105 -186.523926 -49.298302 0.000000
-289.324799 -186.523926 -49.298302 0.000000
-275.841492 -186.523926 -49.298302 0.000000
-262.358185 -186.523926 -49.298302 0.000000
-248.874893 -186.523926 -49.298302 0.000000
-235.391602 -186.523926 -49.298302 0.000000
-221.908295 -186.523926 -49.298302 0.000000
-208.424988 -186.523926 -49.298302 0.000000
-194.941696 -186.523926 -49.298302 0.000000
-181.458389 -186.523926 -49.298302 0.000000
-167.975098 -186.523926 -49.298302 0.000000
-154.491791 -186.523926 -49.298302 0.000000
-141.008499 -186.523926 -49.298302 0.000000
-127.525192 -186.523926 -49.298302 0.000000
-114.041885 -186.523926 -49.298302 0.000000
-100.558594 -186.523926 -49.298302 0.000000
-87.075287 -186.523926 -49.298302 0.000000
-73.591980 -186.523926 -49.298302 0.000000
-60.108704 -186.523926 -49.298302 0.000000
-46.625397 -186.523926 -49.298302 0.000000
-33.142090 -186.523926 -49.298302 0.000000
-19.658783 -186.523926 -49.298302 0.000000
-6.175476 -186.523926 -49.298302 0.000000
7.307800 -186.523926 -49.298302 0.000000
20.791107 -186.523926 -49.298302 0.000000
34.274414 -186.523926 -49.298302 0.000000
47.757721 -186.523926 -49.298302 0.000000
61.240997 -186.523926 -49.298302 0.000000
74.724304 -186.523926 -49.298302 0.000000
88.207611 -186.523926 -49.298302 0.000000
101.690918 -186.523926 -49.298302 0.000000
115.174225 -186.523926 -49.298302 0.000000
128.657501 -186.523926 -49.298302 0.000000
142.140808 -186.523926 -49.298302 0.000000
155.624115 -186.523926 -49.298302 0.000000
169.107422 -186.523926 -49.298302 0.000000
182.590698 -186.523926 -49.298302 0.000000
196.074036 -186.523926 -49.298302 0.000000
209.557312 -186.523926 -49.298302 0.000000
223.040588 -186.523926 -49.298302 0.000000
236.523926 -186.523926 -49.298302 0.000000
250.007202 -186.523926 -49.298302 0.000000
263.490540 -186.523926 -49.298302 0.000000
276.973816 -186.523926 -49.298302 0.000000
290.457092 -186.523926 -49.298302 0.000000
303.940430 -186.523926 -49.298302 0.000000
317.423706 -186.523926 -49.298302 0.000000
330.907043 -186.523926 -49.298302 0.000000
344.390320 -186.523926 -49.298302 0.000000
-343.257996 -200.007202 -49.298302 0.000000
-329.774689 -200.007202 -49.298302 0.000000
-316.291382 -200.007202 -49.298302 0.000000
-302.808105 -200.007202 -49.298302 0.000000
-289.324799 -200.007202 -49.298302 0.000000
-275.841492 -200.007202 -49.298302 0.000000
-262.358185 -200.007202 -49.298302 0.000000
-248.874893 -200.007202 -49.298302 0.000000
-235.391602 -200.007202 -49.298302 0.000000
-221.908295 -200.007202 -49.298302 0.000000
-208.424988 -200.007202 -49.298302 0.000000
-194.941696 -200.007202 -49.298302 0.000000
-181.458389 -200.007202 -49.298302 0.000000
-167.975098 -200.007202 -49.298302 0.000000
-154.491791 -200.007202 -49.298302 0.000000
-141.008499 -200.007202 -49.298302 0.000000
-127.525192 -200.007202 -49.298302 0.000000
-114.041885 -200.007202 -49.298302 0.000000
-100.558594 -200.007202 -49.298302 0.000000
-87.075287 -200.007202 -49.298302 0.000000
-73.591980 -200.007202 -49.298302 0.000000
-60.108704 -200.007202 -49.298302 0.000000
-46.625397 -200.007202 -49.298302 0.000000
-33.142090 -200.007202 -49.298302 0.000000
-19.658783 -200.007202 -49.298302 0.000000
-6.175476 -200.007202 -49.298302 0.000000
7.307800 -200.007202 -49.298302 0.000000
20.791107 -200.007202 -49.298302 0.000000
34.274414 -200.007202 -49.298302 0.000000
47.757721 -200.007202 -49.298302 0.000000
61.240997 -200.007202 -49.298302 0.000000
74.724304 -200.007202 -49.298302 0.000000
88.207611 -200.007202 -49.298302 0.000000
101.690918 -200.007202 -49.298302 0.000000
115.174225 -200.007202 -49.298302 0.000000
128.657501 -200.007202 -49.298302 0.000000
142.140808 -200.007202 -49.298302 0.000000
155.624115 -200.007202 -49.298302 0.000000
169.107422 -200.007202 -49.298302 0.000000
182.590698 -200.007202 -49.298302 0.000000
196.074036 -200.007202 -49.298302 0.000000
209.557312 -200.007202 -49.298302 0.000000
223.040588 -200.007202 -49.298302 0.000000
236.523926 -200.007202 -49.298302 0.000000
250.007202 -200.007202 -49.298302 0.000000
263.490540 -200.007202 -49.298302 0.000000
276.973816 -200.007202 -49.298302 0.000000
290.457092 -200.007202 -49.298302 0.000000
303.940430 -200.007202 -49.298302 0.000000
317.423706 -200.007202 -49.298302 0.000000
330.907043 -200.007202 -49.298302 0.000000
344.390320 -200.007202 -49.298302 0.000000
-343.257996 393.257996 -35.815002 0.000000
-329.774689 393.257996 -35.815002 0.000000
-316.291382 393.257996 -35.815002 0.000000
-302.808105 393.257996 -35.815002 0.000000
-289.324799 393.257996 -35.815002 0.000000
-275.841492 393.257996 -35.815002 0.000000
-262.358185 393.257996 -35.815002 0.000000
-248.874893 393.257996 -35.815002 0.000000
-235.391602 393.257996 -35.815002 0.000000
-221.908295 393.257996 -35.815002 0.000000
-208.424988 393.257996 -35.815002 0.000000
-194.941696 393.257996 -35.815002 0.000000
-181.458389 393.257996 -35.815002 0.000000
-167.975098 393.257996 -35.815002 0.000000
-154.491791 393.257996 -35.815002 0.000000
-141.008499 393.257996 -35.815002 0.000000
-127.525192 393.257996 -35.815002 0.000000
-114.041885 393.257996 -35.815002 0.000000
-100.558594 393.257996 -35.815002 0.000000
-87.075287 393.257996 -35.815002 0.000000
-73.591980 393.257996 -35.815002 0.000000
-60.108704 393.257996 -35.815002 0.000000
-46.625397 393.257996 -35.815002 0.000000
-33.142090 393.257996 -35.815002 0.000000
-19.658783 393.257996 -35.815002 0.000000
-6.175476 393.257996 -35.815002 0.000000
7.307800 393.257996 -35.815002 0.000000
20.791107 393.257996 -35.815002 0.000000
34.274414 393.257996 -35.815002 0.000000
47.757721 393.257996 -35.815002 0.000000
61.240997 393.257996 -35.815002 0.000000
74.724304 393.257996 -35.815002 0.000000
88.207611 393.257996 -35.815002 0.000000
101.690918 393.257996 -35.815002 0.000000
115.174225 393.257996 -35.815002 0.000000
128.657501 393.257996 -35.815002 0.000000
142.140808 393.257996 -35.815002 0.000000
155.624115 393.257996 -35.815002 0.000000
169.107422 393.257996 -35.815002 0.000000
182.590698 393.257996 -35.815002 0.000000
196.074036 393.257996 -35.815002 0.000000
209.557312 393.257996 -35.815002 0.000000
223.040588 393.257996 -35.815002 0.000000
236.523926 393.257996 -35.815002 0.000000
250.007202 393.257996 -35.815002 0.000000
263.490540 393.257996 -35.815002 0.000000
276.973816 393.257996 -35.815002 0.000000
290.457092 393.257996 -35.815002 0.000000
303.940430 393.257996 -35.815002 0.000000
317.423706 393.257996 -35.815002 0.000000
330.907043 393.257996 -35.815002 0.000000
344.390320 393.257996 -35.815002 0.000000
-343.257996 379.774689 -35.815002 0.000000
-329.774689 379.774689 -35.815002 0.000000
-316.291382 379.774689 -35.815002 0.000000
-302.808105 379.774689 -35.815002 0.000000
-289.324799 379.774689 -35.815002 0.000000
-275.841492 379.774689 -35.815002 0.000000
-262.358185 379.774689 -35.815002 0.000000
-248.874893 379.774689 -35.815002 0.000000
-235.391602 379.774689 -35.815002 0.000000
-221.908295 379.774689 -35.815002 0.000000
-208.424988 379.774689 -35.815002 0.000000
-194.941696 379.774689 -35.815002 0.000000
-181.458389 379.774689 -35.815002 0.000000
-167.975098 379.774689 -35.815002 0.000000
-154.491791 379.774689 -35.815002 0.000000
-141.008499 379.774689 -35.815002 0.000000
-127.525192 379.774689 -35.815002 0.000000
-114.041885 379.774689 -35.815002 0.000000
-100.558594 379.774689 -35.815002 0.000000
-87.075287 379.774689 -35.815002 0.000000
-73.591980 379.774689 -35.815002 0.000000
-60.108704 379.774689 -35.815002 0.000000
-46.625397 379.774689 -35.815002 0.000000
-33.142090 379.774689 -35.815002 0.000000
-19.658783 379.774689 -35.815002 0.000000
-6.175476 379.774689 -35.815002 0.000000
7.307800 379.774689 -35.815002 0.000000
20.791107 379.774689 -35.815002 0.000000
34.274414 379.774689 -35.815002 0.000000
47.757721 379.774689 -35.815002 0.000000
61.240997 379.774689 -35.815002 0.000000
74.724304 379.774689 -35.815002 0.000000
88.207611 379.774689 -35.815002 0.000000
101.690918 379.774689 -35.815002 0.000000
115.174225 379.774689 -35.815002 0.000000
128.657501 379.774689 -35.815002 0.000000
142.140808 379.774689 -35.815002 0.000000
155.624115 379.774689 -35.815002 0.000000
169.107422 379.774689 -35.815002 0.000000
182.590698 379.774689 -35.815002 0.000000
196.074036 379.774689 -35.815002 0.000000
209.557312 379.774689 -35.815002 0.000000
223.040588 379.774689 -35.815002 0.000000
236.523926 379.774689 -35.815002 0.000000
250.007202 379.774689 -35.815002 0.000000
263.490540 379.774689 -35.815002 0.000000
276.973816 379.774689 -35.815002 0.000000
290.457092 379.774689 -35.815002 0.000000
303.940430 379.774689 -35.815002 0.000000
317.423706 379.774689 -35.815002 0.000000
330.907043 379.774689 -35.815002 0.000000
344.390320 379.774689 -35.815002 0.000000
-343.257996 366.291382 -35.815002 0.000000
-329.774689 366.291382 -35.815002 0.000000
-316.291382 366.291382 -35.815002 -0.005368
-302.808105 366.291382 -35.815002 0.000000
-289.324799 366.291382 -35.815002 0.000000
-275.841492 366.291382 -35.815002 0.000000
-262.358185 366.291382 -35.815002 0.000000
-248.874893 366.291382 -35.815002 0.000000
-235.391602 366.291382 -35.815002 0.000000
-221.908295 366.291382 -35.815002 0.000000
-208.424988 366.291382 -35.815002 0.000000
-194.941696 366.291382 -35.815002 0.000000
-181.458389 366.291382 -35.815002 0.000000
-167.975098 366.291382 -35.815002 0.000000
-154.491791 366.291382 -35.815002 0.000000
-141.008499 366.291382 -35.815002 0.000000
-127.525192 366.291382 -35.815002 0.000000
-114.041885 366.291382 -35.815002 0.000000
-100.558594 366.291382 -35.815002 0.000000
-87.075287 366.291382 -35.815002 0.000000
-73.591980 366.291382 -35.815002 0.000000
-60.108704 366.291382 -35.815002 0.000000
-46.625397 366.291382 -35.815002 0.000000
-33.142090 366.291382 -35.815002 0.000000
-19.658783 366.291382 -35.815002 0.000000
-6.175476 366.291382 -35.815002 0.000000
7.307800 366.291382 -35.815002 0.000000
20.791107 366.291382 -35.815002 0.000000
34.274414 366.291382 -35.815002 0.000000
47.757721 366.291382 -35.815002 0.000000
61.240997 366.291382 -35.815002 0.000000
74.724304 366.291382 -35.815002 0.000000
88.207611 366.291382 -35.815002 0.000000
101.690918 366.291382 -35.815002 0.000000
115.174225 366.291382 -35.815002 0.000000
128.657501 366.291382 -35.815002 0.000000
142.140808 366.291382 -35.815002 0.000000
155.624115 366.291382 -35.815002 0.000000
169.107422 366.291382 -35.815002 0.000000
182.590698 366.291382 -35.815002 0.000000
196.074036 366.291382 -35.815002 0.000000
209.557312 366.291382 -35.815002 0.000000
223.040588 366.291382 -35.815002 0.000000
236.523926 366.291382 -35.815002 0.000000
250.007202 366.291382 -35.815002 0.000000
263.490540 366.291382 -35.815002 0.000000
276.973816 366.291382 -35.815002 0.000000
290.457092 366.291382 -35.815002 0.000000
303.940430 366.291382 -35.815002 0.000000
317.423706 366.291382 -35.815002 0.000000
330.907043 366.291382 -35.815002 0.000000
344.390320 366.291382 -35.815002 0.000000
-343.257996 352.808105 -35.815002 0.000000
-329.774689 352.808105 -35.815002 0.000000
-316.291382 352.808105 -35.815002 0.000000
-302.808105 352.808105 -35.815002 -0.002919
-289.324799 352.808105 -35.815002 -0.003078
-275.841492 352.808105 -35.815002 -0.003880
-262.358185 352.808105 -35.815002 -0.005194
-248.874893 352.808105 -35.815002 -0.004951
-235.391602 352.808105 -35.815002 -0.006203
-221.908295 352.808105 -35.815002 -0.009693
-208.424988 352.808105 -35.815002 -0.019751
-194.941696 352.808105 -35.815002 -0.029641
-181.458389 352.808105 -35.815002 0.000000
-167.975098 352.808105 -35.815002 0.000000
-154.491791 352.808105 -35.815002 0.000000
-141.008499 352.808105 -35.815002 0.000000
-127.525192 352.808105 -35.815002 0.000000
-114.041885 352.808105 -35.815002 0.000000
-100.558594 352.808105 -35.815002 0.000000
-87.075287 352.808105 -35.815002 0.000000
-73.591980 352.808105 -35.815002 0.000000
-60.108704 352.808105 -35.815002 0.000000
-46.625397 352.808105 -35.815002 0.000000
-33.142090 352.808105 -35.815002 0.000000
-19.658783 352.808105 -35.815002 0.000000
-6.175476 352.808105 -35.815002 0.000000
7.307800 352.808105 -35.815002 0.000000
20.791107 352.808105 -35.815002 0.000000
34.274414 352.808105 -35.815002 -0.046085
47.757721 352.808105 -35.815002 -0.039275
61.240997 352.808105 -35.815002 -0.032856
74.724304 352.808105 -35.815002 0.000000
88.207611 352.808105 -35.815002 0.000000
101.690918 352.808105 -35.815002 0.000000
115.174225 352.808105 -35.815002 0.000000
128.657501 352.808105 -35.815002 0.000000
142.140808 352.808105 -35.815002 0.000000
155.624115 352.808105 -35.815002 0.000000
169.107422 352.808105 -35.815002 0.000000
182.590698 352.808105 -35.815002 0.000000
196.074036 352.808105 -35.815002 0.000000
209.557312 352.808105 -35.815002 0.000000
223.040588 352.808105 -35.815002 0.000000
236.523926 352.808105 -35.815002 0.000000
250.007202 352.808105 -35.815002 0.000000
263.490540 352.808105 -35.815002 0.000000
276.973816 352.808105 -35.815002 0.000000
290.457092 352.808105 -35.815002 0.000000
303.940430 352.808105 -35.815002 0.000000
317.423706 352.808105 -35.815002 0.000000
330.907043 352.808105 -35.815002 0.000000
344.390320 352.808105 -35.815002 0.000000
-343.257996 339.324799 -35.815002 0.000000
-329.774689 339.324799 -35.815002 0.000000
-316.291382 339.324799 -35.815002 -0.003345
-302.808105 339.324799 -35.815002 -0.003039
-289.324799 339.324799 -35.815002 -0.002079
-275.841492 339.324799 -35.815002 -0.002752
-262.358185 339.324799 -35.815002 -0.003285
-248.874893 339.324799 -35.815002 -0.003785
-235.391602 339.324799 -35.815002 -0.006659
-221.908295 339.324799 -35.815002 -0.012668
-208.424988 339.324799 -35.815002 -0.024190
-194.941696 339.324799 -35.815002 -0.029610
-181.458389 339.324799 -35.815002 -0.049085
-167.975098 339.324799 -35.815002 -0.064463
-154.491791 339.324799 -35.815002 -0.096837
-141.008499 339.324799 -35.815002 -0.123120
-127.525192 339.324799 -35.815002 -0.130165
-114.041885 339.324799 -35.815002 -0.156802
-100.558594 339.324799 -35.815002 -0.172183
-87.075287 339.324799 -35.815002 -0.172988
-73.591980 339.324799 -35.815002 -0.172186
-60.108704 339.324799 -35.815002 -0.175392
-46.625397 339.324799 -35.815002 -0.189250
-33.142090 339.324799 -35.815002 -0.169355
-19.658783 339.324799 -35.815002 -0.127866
-6.175476 339.324799 -35.815002 -0.106080
7.307800 339.324799 -35.815002 -0.083295
20.791107 339.324799 -35.815002 -0.067133
34.274414 339.324799 -35.815002 -0.051216
47.757721 339.324799 -35.815002 -0.043063
61.240997 339.324799 -35.815002 -0.038295
74.724304 339.324799 -35.815002 -0.041188
88.207611 339.324799 -35.815002 -0.045655
101.690918 339.324799 -35.815002 -0.055786
115.174225 339.324799 -35.815002 -0.089586
128.657501 339.324799 -35.815002 -0.122733
142.140808 339.324799 -35.815002 -0.141878
155.624115 339.324799 -35.815002 -0.162520
169.107422 339.324799 -35.815002 -0.159878
182.590698 339.324799 -35.815002 -0.162460
196.074036 339.324799 -35.815002 -0.135676
209.557312 339.324799 -35.815002 -0.108848
223.040588 339.324799 -35.815002 -0.078350
236.523926 339.324799 -35.815002 -0.045451
250.007202 339.324799 -35.815002 -0.030759
263.490540 339.324799 -35.815002 -0.032850
276.973816 339.324799 -35.815002 -0.024269
290.457092 339.324799 -35.815002 0.000000
303.940430 339.324799 -35.815002 0.000000
317.423706 339.324799 -35.815002 0.000000
330.907043 339.324799 -35.815002 0.000000
344.390320 339.324799 -35.815002 0.000000
-343.257996 325.841492 -35.815002 0.000000
-329.774689 325.841492 -35.815002 0.000000
-316.291382 325.841492 -35.815002 -0.002902
-302.808105 325.841492 -35.815002 -0.002274
-289.324799 325.841492 -35.815002 -0.001333
-275.841492 325.841492 -35.815002 -0.001450
-262.358185 325.841492 -35.815002 -0.002706
-248.874893 325.841492 -35.815002 -0.002790
-235.391602 325.841492 -35.815002 -0.004738
-221.908295 325.841492 -35.815002 -0.009943
-208.424988 325.841492 -35.815002 -0.024460
-194.941696 325.841492 -35.815002 -0.031831
-181.458389 325.841492 -35.815002 -0.053014
-167.975098 325.841492 -35.815002 -0.077474
-154.491791 325.841492 -35.815002 -0.097875
-141.008499 325.841492 -35.815002 -0.109958
-127.525192 325.841492 -35.815002 -0.110829
-114.041885 325.841492 -35.815002 -0.123624
-100.558594 325.841492 -35.815002 -0.137119
-87.075287 325.841492 -35.815002 -0.145015
-73.591980 325.841492 -35.815002 -0.143921
-60.108704 325.841492 -35.815002 -0.143138
-46.625397 325.841492 -35.815002 -0.147789
-33.142090 325.841492 -35.815002 -0.156510
-19.658783 325.841492 -35.815002 -0.127772
-6.175476 325.841492 -35.815002 -0.109483
7.307800 325.841492 -35.815002 -0.087173
20.791107 325.841492 -35.815002 -0.070996
34.274414 325.841492 -35.815002 -0.053996
47.757721 325.841492 -35.815002 -0.052891
61.240997 325.841492 -35.815002 -0.046536
74.724304 325.841492 -35.815002 -0.047373
88.207611 325.841492 -35.815002 -0.063523
101.690918 325.841492 -35.815002 -0.098130
115.174225 325.841492 -35.815002 -0.136601
128.657501 325.841492 -35.815002 -0.158066
142.140808 325.841492 -35.815002 -0.171524
155.624115 325.841492 -35.815002 -0.197763
169.107422 325.841492 -35.815002 -0.194750
182.590698 325.841492 -35.815002 -0.178117
196.074036 325.841492 -35.815002 -0.159904
209.557312 325.841492 -35.815002 -0.126419
223.040588 325.841492 -35.815002 -0.093954
236.523926 325.841492 -35.815002 -0.056841
250.007202 325.841492 -35.815002 -0.037344
263.490540 325.841492 -35.815002 -0.031307
276.973816 325.841492 -35.815002 -0.015342
290.457092 325.841492 -35.815002 -0.015961
303.940430 325.841492 -35.815002 0.000000
317.423706 325.841492 -35.815002 0.000000
330.907043 325.841492 -35.815002 0.000000
344.390320 325.841492 -35.815002 0.000000
-343.257996 312.358185 -35.815002 0.000000
-329.774689 312.358185 -35.815002 0.000000
-316.291382 312.358185 -35.815002 -0.001670
-302.808105 312.358185 -35.815002 -0.001420
-289.324799 312.358185 -35.815002 -0.000438
-275.841492 312.358185 -35.815002 -0.000462
-262.358185 312.358185 -35.815002 -0.001320
-248.874893 312.358185 -35.815002 -0.003604
-235.391602 312.358185 -35.815002 -0.007776
-221.908295 312.358185 -35.815002 -0.015096
-208.424988 312.358185 -35.815002 -0.022175
-194.941696 312.358185 -35.815002 -0.034226
-181.458389 312.358185 -35.815002 -0.050478
-167.975098 312.358185 -35.815002 -0.078277
-154.491791 312.358185 -35.815002 -0.096927
-141.008499 312.358185 -35.815002 -0.099537
-127.525192 312.358185 -35.815002 -0.103784
-114.041885 312.358185 -35.815002 -0.099602
-100.558594 312.358185 -35.815002 -0.113816
-87.075287 312.358185 -35.815002 -0.127087
-73.591980 312.358185 -35.815002 -0.128330
-60.108704 312.358185 -35.815002 -0.116222
-46.625397 312.358185 -35.815002 -0.123942
-33.142090 312.358185 -35.815002 -0.115323
-19.658783 312.358185 -35.815002 -0.117081
-6.175476 312.358185 -35.815002 -0.111805
7.307800 312.358185 -35.815002 -0.090764
20.791107 312.358185 -35.815002 -0.077879
34.274414 312.358185 -35.815002 -0.059828
47.757721 312.358185 -35.815002 -0.056181
61.240997 312.358185 -35.815002 -0.056841
74.724304 312.358185 -35.815002 -0.067127
88.207611 312.358185 -35.815002 -0.089973
101.690918 312.358185 -35.815002 -0.137468
115.174225 312.358185 -35.815002 -0.191187
128.657501 312.358185 -35.815002 -0.195504
142.140808 312.358185 -35.815002 -0.210793
155.624115 312.358185 -35.815002 -0.201860
169.107422 312.358185 -35.815002 -0.193144
182.590698 312.358185 -35.815002 -0.177562
196.074036 312.358185 -35.815002 -0.170931
209.557312 312.358185 -35.815002 -0.137303
223.040588 312.358185 -35.815002 -0.108995
236.523926 312.358185 -35.815002 -0.070994
250.007202 312.358185 -35.815002 -0.046371
263.490540 312.358185 -35.815002 -0.029450
276.973816 312.358185 -35.815002 -0.019704
290.457092 312.358185 -35.815002 -0.010299
303.940430 312.358185 -35.815002 0.000000
317.423706 312.358185 -35.815002 0.000000
330.907043 312.358185 -35.815002 0.000000
344.390320 312.358185 -35.815002 0.000000
-343.257996 298.874878 -35.815002 0.000000
-329.774689 298.874878 -35.815002 0.000000
-316.291382 298.874878 -35.815002 -0.001506
-302.808105 298.874878 -35.815002 -0.000609
-289.324799 298.874878 -35.815002 0.000374
-275.841492 298.874878 -35.815002 -0.000908
-262.358185 298.874878 -35.815002 -0.000507
-248.874893 298.874878 -35.815002 -0.004248
-235.391602 298.874878 -35.815002 -0.008058
-221.908295 298.874878 -35.815002 -0.012065
-208.424988 298.874878 -35.815002 -0.019814
-194.941696 298.874878 -35.815002 -0.036654
-181.458389 298.874878 -35.815002 -0.049987
-167.975098 298.874878 -35.815002 -0.070664
-154.491791 298.874878 -35.815002 -0.084971
-141.008499 298.874878 -35.815002 -0.092672
-127.525192 298.874878 -35.815002 -0.100076
-114.041885 298.874878 -35.815002 -0.107494
-100.558594 298.874878 -35.815002 -0.104731
-87.075287 298.874878 -35.815002 -0.107791
-73.591980 298.874878 -35.815002 -0.109071
-60.108704 298.874878 -35.815002 -0.105651
-46.625397 298.874878 -35.815002 -0.090353
-33.142090 298.874878 -35.815002 -0.090924
-19.658783 298.874878 -35.815002 -0.099405
-6.175476 298.874878 -35.815002 -0.102854
7.307800 298.874878 -35.815002 -0.098411
20.791107 298.874878 -35.815002 -0.085000
34.274414 298.874878 -35.815002 -0.067205
47.757721 298.874878 -35.815002 -0.064382
61.240997 298.874878 -35.815002 -0.065804
74.724304 298.874878 -35.815002 -0.077957
88.207611 298.874878 -35.815002 -0.112812
101.690918 298.874878 -35.815002 -0.177382
115.174225 298.874878 -35.815002 -0.196875
128.657501 298.874878 -35.815002 -0.200532
142.140808 298.874878 -35.815002 -0.197677
155.624115 298.874878 -35.815002 -0.173625
169.107422 298.874878 -35.815002 -0.168801
182.590698 298.874878 -35.815002 -0.150148
196.074036 298.874878 -35.815002 -0.154800
209.557312 298.874878 -35.815002 -0.131239
223.040588 298.874878 -35.815002 -0.110220
236.523926 298.874878 -35.815002 -0.082775
250.007202 298.874878 -35.815002 -0.045560
263.490540 298.874878 -35.815002 -0.033858
276.973816 298.874878 -35.815002 -0.020920
290.457092 298.874878 -35.815002 -0.003797
303.940430 298.874878 -35.815002 0.000000
317.423706 298.874878 -35.815002 0.000000
330.907043 298.874878 -35.815002 0.000000
344.390320 298.874878 -35.815002 0.000000
-343.257996 285.391602 -35.815002 0.000000
-329.774689 285.391602 -35.815002 0.000000
-316.291382 285.391602 -35.815002 -0.001553
-302.808105 285.391602 -35.815002 -0.001025
-289.324799 285.391602 -35.815002 -0.000128
-275.841492 285.391602 -35.815002 -0.000156
-262.358185 285.391602 -35.815002 -0.000014
-248.874893 285.391602 -35.815002 -0.000433
-235.391602 285.391602 -35.815002 -0.004242
-221.908295 285.391602 -35.815002 -0.011771
-208.424988 285.391602 -35.815002 -0.020439
-194.941696 285.391602 -35.815002 -0.043861
-181.458389 285.391602 -35.815002 -0.052584
-167.975098 285.391602 -35.815002 -0.065758
-154.491791 285.391602 -35.815002 -0.074645
-141.008499 285.391602 -35.815002 -0.078129
-127.525192 285.391602 -35.815002 -0.089582
-114.041885 285.391602 -35.815002 -0.093969
-100.558594 285.391602 -35.815002 -0.104653
-87.075287 285.391602 -35.815002 -0.100547
-73.591980 285.391602 -35.815002 -0.106302
-60.108704 285.391602 -35.815002 -0.089405
-46.625397 285.391602 -35.815002 -0.083041
-33.142090 285.391602 -35.815002 -0.077174
-19.658783 285.391602 -35.815002 -0.083967
-6.175476 285.391602 -35.815002 -0.085789
7.307800 285.391602 -35.815002 -0.094692
20.791107 285.391602 -35.815002 -0.092984
34.274414 285.391602 -35.815002 -0.087573
47.757721 285.391602 -35.815002 -0.072254
61.240997 285.391602 -35.815002 -0.085541
74.724304 285.391602 -35.815002 -0.113778
88.207611 285.391602 -35.815002 -0.153482
101.690918 285.391602 -35.815002 -0.194531
115.174225 285.391602 -35.815002 -0.194402
128.657501 285.391602 -35.815002 -0.175969
142.140808 285.391602 -35.815002 -0.166686
155.624115 285.391602 -35.815002 -0.144852
169.107422 285.391602 -35.815002 -0.132421
182.590698 285.391602 -35.815002 -0.117789
196.074036 285.391602 -35.815002 -0.120266
209.557312 285.391602 -35.815002 -0.105921
223.040588 285.391602 -35.815002 -0.095885
236.523926 285.391602 -35.815002 -0.081381
250.007202 285.391602 -35.815002 -0.052680
263.490540 285.391602 -35.815002 -0.032527
276.973816 285.391602 -35.815002 -0.014385
290.457092 285.391602 -35.815002 -0.005234
303.940430 285.391602 -35.815002 -0.004666
317.423706 285.391602 -35.815002 0.000000
330.907043 285.391602 -35.815002 0.000000
344.390320 285.391602 -35.815002 0.000000
-343.257996 271.908295 -35.815002 0.000000
-329.774689 271.908295 -35.815002 0.000000
-316.291382 271.908295 -35.815002 -0.001151
-302.808105 271.908295 -35.815002 -0.000638
-289.324799 271.908295 -35.815002 0.000220
-275.841492 271.908295 -35.815002 -0.000227
-262.358185 271.908295 -35.815002 -0.000840
-248.874893 271.908295 -35.815002 -0.000355
-235.391602 271.908295 -35.815002 -0.005668
-221.908295 271.908295 -35.815002 -0.010868
-208.424988 271.908295 -35.815002 -0.024401
-194.941696 271.908295 -35.815002 -0.036953
-181.458389 271.908295 -35.815002 -0.050763
-167.975098 271.908295 -35.815002 -0.059421
-154.491791 271.908295 -35.815002 -0.065265
-141.008499 271.908295 -35.815002 -0.080173
-127.525192 271.908295 -35.815002 -0.082783
-114.041885 271.908295 -35.815002 -0.086267
-100.558594 271.908295 -35.815002 -0.093458
-87.075287 271.908295 -35.815002 -0.101380
-73.591980 271.908295 -35.815002 -0.094972
-60.108704 271.908295 -35.815002 -0.081144
-46.625397 271.908295 -35.815002 -0.069737
-33.142090 271.908295 -35.815002 -0.064485
-19.658783 271.908295 -35.815002 -0.067513
-6.175476 271.908295 -35.815002 -0.070247
7.307800 271.908295 -35.815002 -0.081339
20.791107 271.908295 -35.815002 -0.098011
34.274414 271.908295 -35.815002 -0.091277
47.757721 271.908295 -35.815002 -0.090643
61.240997 271.908295 -35.815002 -0.111701
74.724304 271.908295 -35.815002 -0.129159
88.207611 271.908295 -35.815002 -0.153313
101.690918 271.908295 -35.815002 -0.180427
115.174225 271.908295 -35.815002 -0.176584
128.657501 271.908295 -35.815002 -0.163588
142.140808 271.908295 -35.815002 -0.127439
155.624115 271.908295 -35.815002 -0.102558
169.107422 271.908295 -35.815002 -0.092718
182.590698 271.908295 -35.815002 -0.095996
196.074036 271.908295 -35.815002 -0.092504
209.557312 271.908295 -35.815002 -0.077386
223.040588 271.908295 -35.815002 -0.073990
236.523926 271.908295 -35.815002 -0.070848
250.007202 271.908295 -35.815002 -0.046852
263.490540 271.908295 -35.815002 -0.026092
276.973816 271.908295 -35.815002 -0.012052
290.457092 271.908295 -35.815002 -0.004204
303.940430 271.908295 -35.815002 -0.000894
317.423706 271.908295 -35.815002 0.000000
330.907043 271.908295 -35.815002 0.000000
344.390320 271.908295 -35.815002 0.000000
-343.257996 258.424988 -35.815002 0.000000
-329.774689 258.424988 -35.815002 0.000000
-316.291382 258.424988 -35.815002 -0.001402
-302.808105 258.424988 -35.815002 -0.001037
-289.324799 258.424988 -35.815002 -0.000619
-275.841492 258.424988 -35.815002 -0.000041
-262.358185 258.424988 -35.815002 -0.000037
-248.874893 258.424988 -35.815002 0.001387
-235.391602 258.424988 -35.815002 -0.007737
-221.908295 258.424988 -35.815002 -0.015853
-208.424988 258.424988 -35.815002 -0.028348
-194.941696 258.424988 -35.815002 -0.041940
-181.458389 258.424988 -35.815002 -0.052005
-167.975098 258.424988 -35.815002 -0.056336
-154.491791 258.424988 -35.815002 -0.063836
-141.008499 258.424988 -35.815002 -0.074115
-127.525192 258.424988 -35.815002 -0.086084
-114.041885 258.424988 -35.815002 -0.083699
-100.558594 258.424988 -35.815002 -0.090989
-87.075287 258.424988 -35.815002 -0.088906
-73.591980 258.424988 -35.815002 -0.079275
-60.108704 258.424988 -35.815002 -0.071891
-46.625397 258.424988 -35.815002 -0.060776
-33.142090 258.424988 -35.815002 -0.057307
-19.658783 258.424988 -35.815002 -0.060738
-6.175476 258.424988 -35.815002 -0.072241
7.307800 258.424988 -35.815002 -0.084403
20.791107 258.424988 -35.815002 -0.090417
34.274414 258.424988 -35.815002 -0.092434
47.757721 258.424988 -35.815002 -0.103587
61.240997 258.424988 -35.815002 -0.118591
74.724304 258.424988 -35.815002 -0.141322
88.207611 258.424988 -35.815002 -0.156666
101.690918 258.424988 -35.815002 -0.156228
115.174225 258.424988 -35.815002 -0.127630
128.657501 258.424988 -35.815002 -0.091108
142.140808 258.424988 -35.815002 -0.062537
155.624115 258.424988 -35.815002 -0.055897
169.107422 258.424988 -35.815002 -0.068104
182.590698 258.424988 -35.815002 -0.071395
196.074036 258.424988 -35.815002 -0.065793
209.557312 258.424988 -35.815002 -0.060048
223.040588 258.424988 -35.815002 -0.056382
236.523926 258.424988 -35.815002 -0.052759
250.007202 258.424988 -35.815002 -0.034636
263.490540 258.424988 -35.815002 -0.019292
276.973816 258.424988 -35.815002 -0.008789
290.457092 258.424988 -35.815002 -0.002632
303.940430 258.424988 -35.815002 -0.001318
317.423706 258.424988 -35.815002 -0.002187
330.907043 258.424988 -35.815002 0.000000
344.390320 258.424988 -35.815002 0.000000
-343.257996 244.941696 -35.815002 0.000000
-329.774689 244.941696 -35.815002 0.000000
-316.291382 244.941696 -35.815002 -0.002150
-302.808105 244.941696 -35.815002 -0.001707
-289.324799 244.941696 -35.815002 -0.000895
-275.841492 244.941696 -35.815002 -0.000664
-262.358185 244.941696 -35.815002 0.000386
-248.874893 244.941696 -35.815002 -0.002284
-235.391602 244.941696 -35.815002 -0.008732
-221.908295 244.941696 -35.815002 -0.020371
-208.424988 244.941696 -35.815002 -0.028594
-194.941696 244.941696 -35.815002 -0.044885
-181.458389 244.941696 -35.815002 -0.062670
-167.975098 244.941696 -35.815002 -0.065029
-154.491791 244.941696 -35.815002 -0.067034
-141.008499 244.941696 -35.815002 -0.070034
-127.525192 244.941696 -35.815002 -0.080278
-114.041885 244.941696 -35.815002 -0.083994
-100.558594 244.941696 -35.815002 -0.094790
-87.075287 244.941696 -35.815002 -0.091440
-73.591980 244.941696 -35.815002 -0.076848
-60.108704 244.941696 -35.815002 -0.066153
-46.625397 244.941696 -35.815002 -0.052998
-33.142090 244.941696 -35.815002 -0.050461
-19.658783 244.941696 -35.815002 -0.060496
-6.175476 244.941696 -35.815002 -0.066299
7.307800 244.941696 -35.815002 -0.081404
20.791107 244.941696 -35.815002 -0.088935
34.274414 244.941696 -35.815002 -0.095871
47.757721 244.941696 -35.815002 -0.119952
61.240997 244.941696 -35.815002 -0.113202
74.724304 244.941696 -35.815002 -0.124450
88.207611 244.941696 -35.815002 -0.142647
101.690918 244.941696 -35.815002 -0.113514
115.174225 244.941696 -35.815002 -0.070696
128.657501 244.941696 -35.815002 -0.045669
142.140808 244.941696 -35.815002 -0.037143
155.624115 244.941696 -35.815002 -0.032038
169.107422 244.941696 -35.815002 -0.038454
182.590698 244.941696 -35.815002 -0.049936
196.074036 244.941696 -35.815002 -0.049340
209.557312 244.941696 -35.815002 -0.047042
223.040588 244.941696 -35.815002 -0.038618
236.523926 244.941696 -35.815002 -0.032139
250.007202 244.941696 -35.815002 -0.030691
263.490540 244.941696 -35.815002 -0.015473
276.973816 244.941696 -35.815002 -0.006190
290.457092 244.941696 -35.815002 -0.000255
303.940430 244.941696 -35.815002 -0.000233
317.423706 244.941696 -35.815002 -0.000728
330.907043 244.941696 -35.815002 0.000000
344.390320 244.941696 -35.815002 0.000000
-343.257996 231.458389 -35.815002 0.000000
-329.774689 231.458389 -35.815002 0.000000
-316.291382 231.458389 -35.815002 -0.002761
-302.808105 231.458389 -35.815002 -0.001321
-289.324799 231.458389 -35.815002 -0.000819
-275.841492 231.458389 -35.815002 -0.000376
-262.358185 231.458389 -35.815002 -0.000040
-248.874893 231.458389 -35.815002 -0.006566
-235.391602 231.458389 -35.815002 -0.013192
-221.908295 231.458389 -35.815002 -0.026637
-208.424988 231.458389 -35.815002 -0.032284
-194.941696 231.458389 -35.815002 -0.042575
-181.458389 231.458389 -35.815002 -0.053146
-167.975098 231.458389 -35.815002 -0.051768
-154.491791 231.458389 -35.815002 -0.062320
-141.008499 231.458389 -35.815002 -0.068599
-127.525192 231.458389 -35.815002 -0.067381
-114.041885 231.458389 -35.815002 -0.084626
-100.558594 231.458389 -35.815002 -0.090042
-87.075287 231.458389 -35.815002 -0.075107
-73.591980 231.458389 -35.815002 -0.065828
-60.108704 231.458389 -35.815002 -0.049577
-46.625397 231.458389 -35.815002 -0.042284
-33.142090 231.458389 -35.815002 -0.043370
-19.658783 231.458389 -35.815002 -0.054852
-6.175476 231.458389 -35.815002 -0.060267
7.307800 231.458389 -35.815002 -0.083019
20.791107 231.458389 -35.815002 -0.086512
34.274414 231.458389 -35.815002 -0.090300
47.757721 231.458389 -35.815002 -0.106494
61.240997 231.458389 -35.815002 -0.102425
74.724304 231.458389 -35.815002 -0.094845
88.207611 231.458389 -35.815002 -0.092752
101.690918 231.458389 -35.815002 -0.063601
115.174225 231.458389 -35.815002 -0.020175
128.657501 231.458389 -35.815002 -0.005271
142.140808 231.458389 -35.815002 0.002857
155.624115 231.458389 -35.815002 -0.007543
169.107422 231.458389 -35.815002 -0.004027
182.590698 231.458389 -35.815002 -0.016854
196.074036 231.458389 -35.815002 -0.024914
209.557312 231.458389 -35.815002 -0.025116
223.040588 231.458389 -35.815002 -0.019207
236.523926 231.458389 -35.815002 -0.028858
250.007202 231.458389 -35.815002 -0.029311
263.490540 231.458389 -35.815002 -0.013096
276.973816 231.458389 -35.815002 -0.003689
290.457092 231.458389 -35.815002 -0.001620
303.940430 231.458389 -35.815002 -0.001025
317.423706 231.458389 -35.815002 -0.001486
330.907043 231.458389 -35.815002 0.000000
344.390320 231.458389 -35.815002 0.000000
-343.257996 217.975098 -35.815002 0.000000
-329.774689 217.975098 -35.815002 0.000000
-316.291382 217.975098 -35.815002 -0.001597
-302.808105 217.975098 -35.815002 -0.000849
-289.324799 217.975098 -35.815002 0.000403
-275.841492 217.975098 -35.815002 0.001641
-262.358185 217.975098 -35.815002 0.001080
-248.874893 217.975098 -35.815002 -0.005000
-235.391602 217.975098 -35.815002 -0.013484
-221.908295 217.975098 -35.815002 -0.016176
-208.424988 217.975098 -35.815002 -0.028324
-194.941696 217.975098 -35.815002 -0.030646
-181.458389 217.975098 -35.815002 -0.041665
-167.975098 217.975098 -35.815002 -0.048683
-154.491791 217.975098 -35.815002 -0.063661
-141.008499 217.975098 -35.815002 -0.076431
-127.525192 217.975098 -35.815002 -0.071961
-114.041885 217.975098 -35.815002 -0.077611
-100.558594 217.975098 -35.815002 -0.079442
-87.075287 217.975098 -35.815002 -0.076863
-73.591980 217.975098 -35.815002 -0.047017
-60.108704 217.975098 -35.815002 -0.039148
-46.625397 217.975098 -35.815002 -0.034205
-33.142090 217.975098 -35.815002 -0.034919
-19.658783 217.975098 -35.815002 -0.035860
-6.175476 217.975098 -35.815002 -0.047344
7.307800 217.975098 -35.815002 -0.060380
20.791107 217.975098 -35.815002 -0.061272
34.274414 217.975098 -35.815002 -0.071461
47.757721 217.975098 -35.815002 -0.084740
61.240997 217.975098 -35.815002 -0.073828
74.724304 217.975098 -35.815002 -0.059878
88.207611 217.975098 -35.815002 -0.030336
101.690918 217.975098 -35.815002 -0.007072
115.174225 217.975098 -35.815002 0.026793
128.657501 217.975098 -35.815002 0.044277
142.140808 217.975098 -35.815002 0.028788
155.624115 217.975098 -35.815002 0.012544
169.107422 217.975098 -35.815002 0.010113
182.590698 217.975098 -35.815002 0.000841
196.074036 217.975098 -35.815002 -0.008886
209.557312 217.975098 -35.815002 -0.007726
223.040588 217.975098 -35.815002 -0.011262
236.523926 217.975098 -35.815002 -0.015869
250.007202 217.975098 -35.815002 -0.019222
263.490540 217.975098 -35.815002 -0.010220
276.973816 217.975098 -35.815002 -0.002876
290.457092 217.975098 -35.815002 -0.001581
303.940430 217.975098 -35.815002 -0.002426
317.423706 217.975098 -35.815002 -0.002316
330.907043 217.975098 -35.815002 0.000000
344.390320 217.975098 -35.815002 0.000000
-343.257996 204.491791 -35.815002 0.000000
-329.774689 204.491791 -35.815002 0.000000
-316.291382 204.491791 -35.815002 -0.000720
-302.808105 204.491791 -35.815002 0.000026
-289.324799 204.491791 -35.815002 0.001612
-275.841492 204.491791 -35.815002 0.001681
-262.358185 204.491791 -35.815002 0.001425
-248.874893 204.491791 -35.815002 -0.002090
-235.391602 204.491791 -35.815002 -0.006427
-221.908295 204.491791 -35.815002 -0.012527
-208.424988 204.491791 -35.815002 -0.018334
-194.941696 204.491791 -35.815002 -0.024712
-181.458389 204.491791 -35.815002 -0.025287
-167.975098 204.491791 -35.815002 -0.052558
-154.491791 204.491791 -35.815002 -0.062673
-141.008499 204.491791 -35.815002 -0.076509
-127.525192 204.491791 -35.815002 -0.086397
-114.041885 204.491791 -35.815002 -0.093226
-100.558594 204.491791 -35.815002 -0.073339
-87.075287 204.491791 -35.815002 -0.065315
-73.591980 204.491791 -35.815002 -0.042263
-60.108704 204.491791 -35.815002 -0.033658
-46.625397 204.491791 -35.815002 -0.019815
-33.142090 204.491791 -35.815002 -0.031372
-19.658783 204.491791 -35.815002 -0.032257
-6.175476 204.491791 -35.815002 -0.044001
7.307800 204.491791 -35.815002 -0.047270
20.791107 204.491791 -35.815002 -0.039067
34.274414 204.491791 -35.815002 -0.042884
47.757721 204.491791 -35.815002 -0.046966
61.240997 204.491791 -35.815002 -0.029289
74.724304 204.491791 -35.815002 -0.016568
88.207611 204.491791 -35.815002 0.006519
101.690918 204.491791 -35.815002 0.033147
115.174225 204.491791 -35.815002 0.060374
128.657501 204.491791 -35.815002 0.064285
142.140808 204.491791 -35.815002 0.044491
155.624115 204.491791 -35.815002 0.036158
169.107422 204.491791 -35.815002 0.034244
182.590698 204.491791 -35.815002 0.014765
196.074036 204.491791 -35.815002 0.002113
209.557312 204.491791 -35.815002 -0.000690
223.040588 204.491791 -35.815002 -0.000279
236.523926 204.491791 -35.815002 -0.019274
250.007202 204.491791 -35.815002 -0.011139
263.490540 204.491791 -35.815002 -0.011021
276.973816 204.491791 -35.815002 -0.004753
290.457092 204.491791 -35.815002 -0.002763
303.940430 204.491791 -35.815002 -0.002604
317.423706 204.491791 -35.815002 -0.002761
330.907043 204.491791 -35.815002 0.000000
344.390320 204.491791 -35.815002 0.000000
-343.257996 191.008499 -35.815002 0.000000
-329.774689 191.008499 -35.815002 0.000000
-316.291382 191.008499 -35.815002 0.000290
-302.808105 191.008499 -35.815002 0.000381
-289.324799 191.008499 -35.815002 0.000754
-275.841492 191.008499 -35.815002 0.001490
-262.358185 191.008499 -35.815002 -0.000956
-248.874893 191.008499 -35.815002 -0.000261
-235.391602 191.008499 -35.815002 -0.008668
-221.908295 191.008499 -35.815002 -0.006561
-208.424988 191.008499 -35.815002 -0.007709
-194.941696 191.008499 -35.815002 -0.004349
-181.458389 191.008499 -35.815002 -0.020305
-167.975098 191.008499 -35.815002 -0.041487
-154.491791 191.008499 -35.815002 -0.070605
-141.008499 191.008499 -35.815002 -0.073301
-127.525192 191.008499 -35.815002 -0.082036
-114.041885 191.008499 -35.815002 -0.080652
-100.558594 191.008499 -35.815002 -0.080044
-87.075287 191.008499 -35.815002 -0.058038
-73.591980 191.008499 -35.815002 -0.042200
-60.108704 191.008499 -35.815002 -0.033846
-46.625397 191.008499 -35.815002 -0.022103
-33.142090 191.008499 -35.815002 -0.020447
-19.658783 191.008499 -35.815002 -0.023521
-6.175476 191.008499 -35.815002 -0.036478
7.307800 191.008499 -35.815002 -0.022812
20.791107 191.008499 -35.815002 -0.028423
34.274414 191.008499 -35.815002 -0.021492
47.757721 191.008499 -35.815002 -0.006722
61.240997 191.008499 -35.815002 -0.002821
74.724304 191.008499 -35.815002 0.013810
88.207611 191.008499 -35.815002 0.042259
101.690918 191.008499 -35.815002 0.063368
115.174225 191.008499 -35.815002 0.082461
128.657501 191.008499 -35.815002 0.083577
142.140808 191.008499 -35.815002 0.077045
155.624115 191.008499 -35.815002 0.062512
169.107422 191.008499 -35.815002 0.046476
182.590698 191.008499 -35.815002 0.024849
196.074036 191.008499 -35.815002 0.005380
209.557312 191.008499 -35.815002 0.006267
223.040588 191.008499 -35.815002 -0.004919
236.523926 191.008499 -35.815002 -0.009192
250.007202 191.008499 -35.815002 -0.014340
263.490540 191.008499 -35.815002 -0.008177
276.973816 191.008499 -35.815002 -0.003882
290.457092 191.008499 -35.815002 -0.002662
303.940430 191.008499 -35.815002 -0.003542
317.423706 191.008499 -35.815002 -0.003094
330.907043 191.008499 -35.815002 0.000000
344.390320 191.008499 -35.815002 0.000000
-343.257996 177.525192 -35.815002 0.000000
-329.774689 177.525192 -35.815002 0.000000
-316.291382 177.525192 -35.815002 0.000489
-302.808105 177.525192 -35.815002 0.000619
-289.324799 177.525192 -35.815002 0.001697
-275.841492 177.525192 -35.815002 0.001163
-262.358185 177.525192 -35.815002 0.000158
-248.874893 177.525192 -35.815002 -0.002611
-235.391602 177.525192 -35.815002 -0.014529
-221.908295 177.525192 -35.815002 -0.005207
-208.424988 177.525192 -35.815002 -0.004633
-194.941696 177.525192 -35.815002 -0.000757
-181.458389 177.525192 -35.815002 -0.012936
-167.975098 177.525192 -35.815002 -0.044664
-154.491791 177.525192 -35.815002 -0.073931
-141.008499 177.525192 -35.815002 -0.087323
-127.525192 177.525192 -35.815002 -0.107803
-114.041885 177.525192 -35.815002 -0.094975
-100.558594 177.525192 -35.815002 -0.069173
-87.075287 177.525192 -35.815002 -0.053729
-73.591980 177.525192 -35.815002 -0.038634
-60.108704 177.525192 -35.815002 -0.028290
-46.625397 177.525192 -35.815002 -0.018439
-33.142090 177.525192 -35.815002 -0.017629
-19.658783 177.525192 -35.815002 -0.022231
-6.175476 177.525192 -35.815002 -0.018538
7.307800 177.525192 -35.815002 -0.016087
20.791107 177.525192 -35.815002 0.000286
34.274414 177.525192 -35.815002 0.007999
47.757721 177.525192 -35.815002 0.028263
61.240997 177.525192 -35.815002 0.035824
74.724304 177.525192 -35.815002 0.043917
88.207611 177.525192 -35.815002 0.063991
101.690918 177.525192 -35.815002 0.076700
115.174225 177.525192 -35.815002 0.085737
128.657501 177.525192 -35.815002 0.091326
142.140808 177.525192 -35.815002 0.077690
155.624115 177.525192 -35.815002 0.070411
169.107422 177.525192 -35.815002 0.053587
182.590698 177.525192 -35.815002 0.030722
196.074036 177.525192 -35.815002 0.024010
209.557312 177.525192 -35.815002 0.015781
223.040588 177.525192 -35.815002 0.010111
236.523926 177.525192 -35.815002 -0.003582
250.007202 177.525192 -35.815002 -0.004448
263.490540 177.525192 -35.815002 -0.004131
276.973816 177.525192 -35.815002 -0.004682
290.457092 177.525192 -35.815002 -0.004730
303.940430 177.525192 -35.815002 -0.003579
317.423706 177.525192 -35.815002 -0.002649
330.907043 177.525192 -35.815002 0.000000
344.390320 177.525192 -35.815002 0.000000
-343.257996 164.041885 -35.815002 0.000000
-329.774689 164.041885 -35.815002 0.000000
-316.291382 164.041885 -35.815002 0.001314
-302.808105 164.041885 -35.815002 0.001607
-289.324799 164.041885 -35.815002 0.001249
-275.841492 164.041885 -35.815002 0.000251
-262.358185 164.041885 -35.815002 -0.001391
-248.874893 164.041885 -35.815002 -0.009176
-235.391602 164.041885 -35.815002 -0.012783
-221.908295 164.041885 -35.815002 -0.013806
-208.424988 164.041885 -35.815002 -0.022034
-194.941696 164.041885 -35.815002 -0.020763
-181.458389 164.041885 -35.815002 -0.020565
-167.975098 164.041885 -35.815002 -0.042716
-154.491791 164.041885 -35.815002 -0.060087
-141.008499 164.041885 -35.815002 -0.078812
-127.525192 164.041885 -35.815002 -0.107503
-114.041885 164.041885 -35.815002 -0.071757
-100.558594 164.041885 -35.815002 -0.054059
-87.075287 164.041885 -35.815002 -0.051940
-73.591980 164.041885 -35.815002 -0.033760
-60.108704 164.041885 -35.815002 -0.020422
-46.625397 164.041885 -35.815002 -0.009990
-33.142090 164.041885 -35.815002 -0.012894
-19.658783 164.041885 -35.815002 -0.007550
-6.175476 164.041885 -35.815002 -0.012281
7.307800 164.041885 -35.815002 0.003039
20.791107 164.041885 -35.815002 0.024337
34.274414 164.041885 -35.815002 0.040068
47.757721 164.041885 -35.815002 0.052628
61.240997 164.041885 -35.815002 0.073174
74.724304 164.041885 -35.815002 0.076513
88.207611 164.041885 -35.815002 0.077802
101.690918 164.041885 -35.815002 0.083445
115.174225 164.041885 -35.815002 0.089731
128.657501 164.041885 -35.815002 0.080988
142.140808 164.041885 -35.815002 0.071984
155.624115 164.041885 -35.815002 0.062559
169.107422 164.041885 -35.815002 0.054600
182.590698 164.041885 -35.815002 0.034380
196.074036 164.041885 -35.815002 0.019728
209.557312 164.041885 -35.815002 0.006573
223.040588 164.041885 -35.815002 0.011540
236.523926 164.041885 -35.815002 0.002540
250.007202 164.041885 -35.815002 -0.001304
263.490540 164.041885 -35.815002 -0.003041
276.973816 164.041885 -35.815002 -0.004213
290.457092 164.041885 -35.815002 -0.004414
303.940430 164.041885 -35.815002 -0.003538
317.423706 164.041885 -35.815002 -0.002740
330.907043 164.041885 -35.815002 0.000000
344.390320 164.041885 -35.815002 0.000000
-343.257996 150.558594 -35.815002 0.000000
-329.774689 150.558594 -35.815002 0.000000
-316.291382 150.558594 -35.815002 0.001501
-302.808105 150.558594 -35.815002 0.001861
-289.324799 150.558594 -35.815002 0.001221
-275.841492 150.558594 -35.815002 0.001036
-262.358185 150.558594 -35.815002 -0.002265
-248.874893 150.558594 -35.815002 -0.011267
-235.391602 150.558594 -35.815002 -0.014736
-221.908295 150.558594 -35.815002 -0.021255
-208.424988 150.558594 -35.815002 -0.027956
-194.941696 150.558594 -35.815002 -0.037523
-181.458389 150.558594 -35.815002 -0.037119
-167.975098 150.558594 -35.815002 -0.062727
-154.491791 150.558594 -35.815002 -0.065235
-141.008499 150.558594 -35.815002 -0.067933
-127.525192 150.558594 -35.815002 -0.068497
-114.041885 150.558594 -35.815002 -0.068377
-100.558594 150.558594 -35.815002 -0.035696
-87.075287 150.558594 -35.815002 -0.038011
-73.591980 150.558594 -35.815002 -0.038380
-60.108704 150.558594 -35.815002 -0.019454
-46.625397 150.558594 -35.815002 -0.013583
-33.142090 150.558594 -35.815002 -0.009254
-19.658783 150.558594 -35.815002 -0.004701
-6.175476 150.558594 -35.815002 0.004842
7.307800 150.558594 -35.815002 0.026822
20.791107 150.558594 -35.815002 0.056868
34.274414 150.558594 -35.815002 0.065260
47.757721 150.558594 -35.815002 0.076973
61.240997 150.558594 -35.815002 0.109969
74.724304 150.558594 -35.815002 0.122499
88.207611 150.558594 -35.815002 0.116210
101.690918 150.558594 -35.815002 0.101749
115.174225 150.558594 -35.815002 0.091462
128.657501 150.558594 -35.815002 0.081891
142.140808 150.558594 -35.815002 0.072877
155.624115 150.558594 -35.815002 0.060411
169.107422 150.558594 -35.815002 0.050115
182.590698 150.558594 -35.815002 0.033619
196.074036 150.558594 -35.815002 0.024402
209.557312 150.558594 -35.815002 0.017648
223.040588 150.558594 -35.815002 0.009019
236.523926 150.558594 -35.815002 0.001522
250.007202 150.558594 -35.815002 -0.001558
263.490540 150.558594 -35.815002 -0.002710
276.973816 150.558594 -35.815002 -0.003911
290.457092 150.558594 -35.815002 -0.004135
303.940430 150.558594 -35.815002 -0.003324
317.423706 150.558594 -35.815002 -0.002175
330.907043 150.558594 -35.815002 0.000000
344.390320 150.558594 -35.815002 0.000000
-343.257996 137.075287 -35.815002 0.000000
-329.774689 137.075287 -35.815002 0.000000
-316.291382 137.075287 -35.815002 0.001830
-302.808105 137.075287 -35.815002 0.002058
-289.324799 137.075287 -35.815002 0.001345
-275.841492 137.075287 -35.815002 0.000731
-262.358185 137.075287 -35.815002 -0.002709
-248.874893 137.075287 -35.815002 -0.008353
-235.391602 137.075287 -35.815002 -0.022097
-221.908295 137.075287 -35.815002 -0.038029
-208.424988 137.075287 -35.815002 -0.051627
-194.941696 137.075287 -35.815002 -0.075503
-181.458389 137.075287 -35.815002 -0.084871
-167.975098 137.075287 -35.815002 -0.093370
-154.491791 137.075287 -35.815002 -0.079958
-141.008499 137.075287 -35.815002 -0.062515
-127.525192 137.075287 -35.815002 -0.032596
-114.041885 137.075287 -35.815002 -0.046662
-100.558594 137.075287 -35.815002 -0.031470
-87.075287 137.075287 -35.815002 -0.035315
-73.591980 137.075287 -35.815002 -0.014839
-60.108704 137.075287 -35.815002 -0.015801
-46.625397 137.075287 -35.815002 -0.021157
-33.142090 137.075287 -35.815002 -0.003590
-19.658783 137.075287 -35.815002 0.005405
-6.175476 137.075287 -35.815002 0.012531
7.307800 137.075287 -35.815002 0.055385
20.791107 137.075287 -35.815002 0.067081
34.274414 137.075287 -35.815002 0.100124
47.757721 137.075287 -35.815002 0.117940
61.240997 137.075287 -35.815002 0.136676
74.724304 137.075287 -35.815002 0.148140
88.207611 137.075287 -35.815002 0.138870
101.690918 137.075287 -35.815002 0.117128
115.174225 137.075287 -35.815002 0.095729
128.657501 137.075287 -35.815002 0.090493
142.140808 137.075287 -35.815002 0.083386
155.624115 137.075287 -35.815002 0.071314
169.107422 137.075287 -35.815002 0.046536
182.590698 137.075287 -35.815002 0.037509
196.074036 137.075287 -35.815002 0.026978
209.557312 137.075287 -35.815002 0.016977
223.040588 137.075287 -35.815002 0.009180
236.523926 137.075287 -35.815002 0.001605
250.007202 137.075287 -35.815002 -0.000620
263.490540 137.075287 -35.815002 -0.000544
276.973816 137.075287 -35.815002 -0.002322
290.457092 137.075287 -35.815002 -0.003267
303.940430 137.075287 -35.815002 -0.002476
317.423706 137.075287 -35.815002 -0.001520
330.907043 137.075287 -35.815002 0.000000
344.390320 137.075287 -35.815002 0.000000
-343.257996 123.591980 -35.815002 0.000000
-329.774689 123.591980 -35.815002 0.000000
-316.291382 123.591980 -35.815002 0.001939
-302.808105 123.591980 -35.815002 0.001699
-289.324799 123.591980 -35.815002 0.000657
-275.841492 123.591980 -35.815002 -0.001417
-262.358185 123.591980 -35.815002 -0.005552
-248.874893 123.591980 -35.815002 -0.011987
-235.391602 123.591980 -35.815002 -0.030735
-221.908295 123.591980 -35.815002 -0.052529
-208.424988 123.591980 -35.815002 -0.062584
-194.941696 123.591980 -35.815002 -0.098632
-181.458389 123.591980 -35.815002 -0.117658
-167.975098 123.591980 -35.815002 -0.109809
-154.491791 123.591980 -35.815002 -0.082743
-141.008499 123.591980 -35.815002 -0.034476
-127.525192 123.591980 -35.815002 -0.024822
-114.041885 123.591980 -35.815002 -0.021147
-100.558594 123.591980 -35.815002 -0.007884
-87.075287 123.591980 -35.815002 -0.016912
-73.591980 123.591980 -35.815002 -0.019319
-60.108704 123.591980 -35.815002 -0.016707
-46.625397 123.591980 -35.815002 -0.007915
-33.142090 123.591980 -35.815002 -0.003976
-19.658783 123.591980 -35.815002 0.008341
-6.175476 123.591980 -35.815002 0.029793
7.307800 123.591980 -35.815002 0.062410
20.791107 123.591980 -35.815002 0.080210
34.274414 123.591980 -35.815002 0.122335
47.757721 123.591980 -35.815002 0.142234
61.240997 123.591980 -35.815002 0.156512
74.724304 123.591980 -35.815002 0.158182
88.207611 123.591980 -35.815002 0.142129
101.690918 123.591980 -35.815002 0.109243
115.174225 123.591980 -35.815002 0.100339
128.657501 123.591980 -35.815002 0.091437
142.140808 123.591980 -35.815002 0.081812
155.624115 123.591980 -35.815002 0.064418
169.107422 123.591980 -35.815002 0.046475
182.590698 123.591980 -35.815002 0.034082
196.074036 123.591980 -35.815002 0.021385
209.557312 123.591980 -35.815002 0.013772
223.040588 123.591980 -35.815002 0.003632
236.523926 123.591980 -35.815002 0.001035
250.007202 123.591980 -35.815002 0.000077
263.490540 123.591980 -35.815002 0.000129
276.973816 123.591980 -35.815002 -0.001089
290.457092 123.591980 -35.815002 -0.002099
303.940430 123.591980 -35.815002 -0.001839
317.423706 123.591980 -35.815002 -0.001335
330.907043 123.591980 -35.815002 0.000000
344.390320 123.591980 -35.815002 0.000000
-343.257996 110.108704 -35.815002 0.000000
-329.774689 110.108704 -35.815002 0.000000
-316.291382 110.108704 -35.815002 0.002152
-302.808105 110.108704 -35.815002 0.001238
-289.324799 110.108704 -35.815002 0.000817
-275.841492 110.108704 -35.815002 -0.000830
-262.358185 110.108704 -35.815002 -0.003522
-248.874893 110.108704 -35.815002 -0.014279
-235.391602 110.108704 -35.815002 -0.031352
-221.908295 110.108704 -35.815002 -0.055241
-208.424988 110.108704 -35.815002 -0.064502
-194.941696 110.108704 -35.815002 -0.115118
-181.458389 110.108704 -35.815002 -0.136096
-167.975098 110.108704 -35.815002 -0.142922
-154.491791 110.108704 -35.815002 -0.105664
-141.008499 110.108704 -35.815002 -0.073077
-127.525192 110.108704 -35.815002 -0.039980
-114.041885 110.108704 -35.815002 -0.028686
-100.558594 110.108704 -35.815002 -0.017778
-87.075287 110.108704 -35.815002 -0.016213
-73.591980 110.108704 -35.815002 -0.010641
-60.108704 110.108704 -35.815002 -0.004152
-46.625397 110.108704 -35.815002 0.002723
-33.142090 110.108704 -35.815002 -0.001863
-19.658783 110.108704 -35.815002 0.011425
-6.175476 110.108704 -35.815002 0.032623
7.307800 110.108704 -35.815002 0.056133
20.791107 110.108704 -35.815002 0.099529
34.274414 110.108704 -35.815002 0.118446
47.757721 110.108704 -35.815002 0.138397
61.240997 110.108704 -35.815002 0.146349
74.724304 110.108704 -35.815002 0.133285
88.207611 110.108704 -35.815002 0.118231
101.690918 110.108704 -35.815002 0.112610
115.174225 110.108704 -35.815002 0.100406
128.657501 110.108704 -35.815002 0.085341
142.140808 110.108704 -35.815002 0.072302
155.624115 110.108704 -35.815002 0.059648
169.107422 110.108704 -35.815002 0.044796
182.590698 110.108704 -35.815002 0.027410
196.074036 110.108704 -35.815002 0.013497
209.557312 110.108704 -35.815002 0.006243
223.040588 110.108704 -35.815002 0.004097
236.523926 110.108704 -35.815002 0.002130
250.007202 110.108704 -35.815002 0.001635
263.490540 110.108704 -35.815002 0.000023
276.973816 110.108704 -35.815002 -0.000125
290.457092 110.108704 -35.815002 -0.001106
303.940430 110.108704 -35.815002 -0.001112
317.423706 110.108704 -35.815002 -0.000732
330.907043 110.108704 -35.815002 0.000000
344.390320 110.108704 -35.815002 0.000000
-343.257996 96.625397 -35.815002 0.000000
-329.774689 96.625397 -35.815002 0.000000
-316.291382 96.625397 -35.815002 0.001342
-302.808105 96.625397 -35.815002 0.001337
-289.324799 96.625397 -35.815002 0.000974
-275.841492 96.625397 -35.815002 -0.001192
-262.358185 96.625397 -35.815002 -0.005677
-248.874893 96.625397 -35.815002 -0.017784
-235.391602 96.625397 -35.815002 -0.031250
-221.908295 96.625397 -35.815002 -0.059462
-208.424988 96.625397 -35.815002 -0.071369
-194.941696 96.625397 -35.815002 -0.114990
-181.458389 96.625397 -35.815002 -0.142527
-167.975098 96.625397 -35.815002 -0.121250
-154.491791 96.625397 -35.815002 -0.098465
-141.008499 96.625397 -35.815002 -0.077198
-127.525192 96.625397 -35.815002 -0.055154
-114.041885 96.625397 -35.815002 -0.026031
-100.558594 96.625397 -35.815002 -0.007936
-87.075287 96.625397 -35.815002 -0.014839
-73.591980 96.625397 -35.815002 -0.018549
-60.108704 96.625397 -35.815002 -0.014587
-46.625397 96.625397 -35.815002 -0.003627
-33.142090 96.625397 -35.815002 0.009201
-19.658783 96.625397 -35.815002 0.017261
-6.175476 96.625397 -35.815002 0.033317
7.307800 96.625397 -35.815002 0.066555
20.791107 96.625397 -35.815002 0.091716
34.274414 96.625397 -35.815002 0.102030
47.757721 96.625397 -35.815002 0.116968
61.240997 96.625397 -35.815002 0.115951
74.724304 96.625397 -35.815002 0.103499
88.207611 96.625397 -35.815002 0.085233
101.690918 96.625397 -35.815002 0.082989
115.174225 96.625397 -35.815002 0.071676
128.657501 96.625397 -35.815002 0.057599
142.140808 96.625397 -35.815002 0.050377
155.624115 96.625397 -35.815002 0.040504
169.107422 96.625397 -35.815002 0.030049
182.590698 96.625397 -35.815002 0.021365
196.074036 96.625397 -35.815002 0.010475
209.557312 96.625397 -35.815002 0.004610
223.040588 96.625397 -35.815002 0.003343
236.523926 96.625397 -35.815002 0.001554
250.007202 96.625397 -35.815002 0.001637
263.490540 96.625397 -35.815002 0.000890
276.973816 96.625397 -35.815002 0.000453
290.457092 96.625397 -35.815002 -0.000559
303.940430 96.625397 -35.815002 -0.000264
317.423706 96.625397 -35.815002 -0.000141
330.907043 96.625397 -35.815002 0.000000
344.390320 96.625397 -35.815002 0.000000
-343.257996 83.142090 -35.815002 0.000000
-329.774689 83.142090 -35.815002 0.000000
-316.291382 83.142090 -35.815002 -0.000021
-302.808105 83.142090 -35.815002 0.000072
-289.324799 83.142090 -35.815002 -0.000441
-275.841492 83.142090 -35.815002 -0.001231
-262.358185 83.142090 -35.815002 -0.007320
-248.874893 83.142090 -35.815002 -0.018825
-235.391602 83.142090 -35.815002 -0.040334
-221.908295 83.142090 -35.815002 -0.057096
-208.424988 83.142090 -35.815002 -0.073074
-194.941696 83.142090 -35.815002 -0.109796
-181.458389 83.142090 -35.815002 -0.116488
-167.975098 83.142090 -35.815002 -0.129627
-154.491791 83.142090 -35.815002 -0.096130
-141.008499 83.142090 -35.815002 -0.049767
-127.525192 83.142090 -35.815002 -0.042801
-114.041885 83.142090 -35.815002 -0.010486
-100.558594 83.142090 -35.815002 -0.012264
-87.075287 83.142090 -35.815002 -0.001366
-73.591980 83.142090 -35.815002 -0.008068
-60.108704 83.142090 -35.815002 -0.008920
-46.625397 83.142090 -35.815002 0.012233
-33.142090 83.142090 -35.815002 0.019132
-19.658783 83.142090 -35.815002 0.024276
-6.175476 83.142090 -35.815002 0.043212
7.307800 83.142090 -35.815002 0.075084
20.791107 83.142090 -35.815002 0.087946
34.274414 83.142090 -35.815002 0.099694
47.757721 83.142090 -35.815002 0.083139
61.240997 83.142090 -35.815002 0.071478
74.724304 83.142090 -35.815002 0.054772
88.207611 83.142090 -35.815002 0.043605
101.690918 83.142090 -35.815002 0.039857
115.174225 83.142090 -35.815002 0.041053
128.657501 83.142090 -35.815002 0.036068
142.140808 83.142090 -35.815002 0.032644
155.624115 83.142090 -35.815002 0.021699
169.107422 83.142090 -35.815002 0.017747
182.590698 83.142090 -35.815002 0.015378
196.074036 83.142090 -35.815002 0.009538
209.557312 83.142090 -35.815002 0.007069
223.040588 83.142090 -35.815002 0.003948
236.523926 83.142090 -35.815002 0.002219
250.007202 83.142090 -35.815002 0.002433
263.490540 83.142090 -35.815002 0.001460
276.973816 83.142090 -35.815002 0.000767
290.457092 83.142090 -35.815002 0.000301
303.940430 83.142090 -35.815002 0.000148
317.423706 83.142090 -35.815002 0.000332
330.907043 83.142090 -35.815002 0.000000
344.390320 83.142090 -35.815002 0.000000
-343.257996 69.658783 -35.815002 0.000000
-329.774689 69.658783 -35.815002 0.000000
-316.291382 69.658783 -35.815002 -0.000637
-302.808105 69.658783 -35.815002 -0.000014
-289.324799 69.658783 -35.815002 -0.001182
-275.841492 69.658783 -35.815002 -0.001614
-262.358185 69.658783 -35.815002 -0.008101
-248.874893 69.658783 -35.815002 -0.020709
-235.391602 69.658783 -35.815002 -0.033273
-221.908295 69.658783 -35.815002 -0.062189
-208.424988 69.658783 -35.815002 -0.070036
-194.941696 69.658783 -35.815002 -0.072049
-181.458389 69.658783 -35.815002 -0.093759
-167.975098 69.658783 -35.815002 -0.099333
-154.491791 69.658783 -35.815002 -0.095797
-141.008499 69.658783 -35.815002 -0.040716
-127.525192 69.658783 -35.815002 -0.006224
-114.041885 69.658783 -35.815002 0.005067
-100.558594 69.658783 -35.815002 -0.002528
-87.075287 69.658783 -35.815002 -0.001178
-73.591980 69.658783 -35.815002 0.002299
-60.108704 69.658783 -35.815002 0.012179
-46.625397 69.658783 -35.815002 0.014787
-33.142090 69.658783 -35.815002 0.020008
-19.658783 69.658783 -35.815002 0.030411
-6.175476 69.658783 -35.815002 0.051097
7.307800 69.658783 -35.815002 0.073052
20.791107 69.658783 -35.815002 0.090975
34.274414 69.658783 -35.815002 0.066129
47.757721 69.658783 -35.815002 0.047694
61.240997 69.658783 -35.815002 0.034228
74.724304 69.658783 -35.815002 0.016316
88.207611 69.658783 -35.815002 0.016382
101.690918 69.658783 -35.815002 0.013301
115.174225 69.658783 -35.815002 0.016665
128.657501 69.658783 -35.815002 0.016664
142.140808 69.658783 -35.815002 0.013128
155.624115 69.658783 -35.815002 0.007325
169.107422 69.658783 -35.815002 0.008405
182.590698 69.658783 -35.815002 0.009264
196.074036 69.658783 -35.815002 0.008751
209.557312 69.658783 -35.815002 0.006959
223.040588 69.658783 -35.815002 0.004349
236.523926 69.658783 -35.815002 0.002887
250.007202 69.658783 -35.815002 0.002316
263.490540 69.658783 -35.815002 0.001678
276.973816 69.658783 -35.815002 0.000842
290.457092 69.658783 -35.815002 0.000749
303.940430 69.658783 -35.815002 0.000341
317.423706 69.658783 -35.815002 0.000450
330.907043 69.658783 -35.815002 0.000000
344.390320 69.658783 -35.815002 0.000000
-343.257996 56.175476 -35.815002 0.000000
-329.774689 56.175476 -35.815002 0.000000
-316.291382 56.175476 -35.815002 0.000150
-302.808105 56.175476 -35.815002 0.000279
-289.324799 56.175476 -35.815002 -0.000735
-275.841492 56.175476 -35.815002 -0.002867
-262.358185 56.175476 -35.815002 -0.006300
-248.874893 56.175476 -35.815002 -0.016140
-235.391602 56.175476 -35.815002 -0.028787
-221.908295 56.175476 -35.815002 -0.046307
-208.424988 56.175476 -35.815002 -0.079350
-194.941696 56.175476 -35.815002 -0.075021
-181.458389 56.175476 -35.815002 -0.086825
-167.975098 56.175476 -35.815002 -0.062898
-154.491791 56.175476 -35.815002 -0.054375
-141.008499 56.175476 -35.815002 -0.034582
-127.525192 56.175476 -35.815002 -0.010329
-114.041885 56.175476 -35.815002 0.010007
-100.558594 56.175476 -35.815002 0.016607
-87.075287 56.175476 -35.815002 0.020892
-73.591980 56.175476 -35.815002 0.004002
-60.108704 56.175476 -35.815002 0.010262
-46.625397 56.175476 -35.815002 0.021022
-33.142090 56.175476 -35.815002 0.027523
-19.658783 56.175476 -35.815002 0.031436
-6.175476 56.175476 -35.815002 0.043759
7.307800 56.175476 -35.815002 0.068329
20.791107 56.175476 -35.815002 0.074427
34.274414 56.175476 -35.815002 0.037080
47.757721 56.175476 -35.815002 0.025575
61.240997 56.175476 -35.815002 0.001065
74.724304 56.175476 -35.815002 -0.008083
88.207611 56.175476 -35.815002 -0.002466
101.690918 56.175476 -35.815002 0.002189
115.174225 56.175476 -35.815002 0.000085
128.657501 56.175476 -35.815002 0.000237
142.140808 56.175476 -35.815002 -0.000285
155.624115 56.175476 -35.815002 0.001081
169.107422 56.175476 -35.815002 0.003185
182.590698 56.175476 -35.815002 0.006174
196.074036 56.175476 -35.815002 0.006347
209.557312 56.175476 -35.815002 0.006630
223.040588 56.175476 -35.815002 0.004834
236.523926 56.175476 -35.815002 0.003162
250.007202 56.175476 -35.815002 0.002267
263.490540 56.175476 -35.815002 0.001081
276.973816 56.175476 -35.815002 0.000367
290.457092 56.175476 -35.815002 0.000408
303.940430 56.175476 -35.815002 0.000273
317.423706 56.175476 -35.815002 0.000088
330.907043 56.175476 -35.815002 0.000000
344.390320 56.175476 -35.815002 0.000000
-343.257996 42.692200 -35.815002 0.000000
-329.774689 42.692200 -35.815002 0.000000
-316.291382 42.692200 -35.815002 0.000114
-302.808105 42.692200 -35.815002 0.000648
-289.324799 42.692200 -35.815002 -0.001196
-275.841492 42.692200 -35.815002 -0.001885
-262.358185 42.692200 -35.815002 -0.002588
-248.874893 42.692200 -35.815002 -0.011702
-235.391602 42.692200 -35.815002 -0.023526
-221.908295 42.692200 -35.815002 -0.037713
-208.424988 42.692200 -35.815002 -0.071773
-194.941696 42.692200 -35.815002 -0.087396
-181.458389 42.692200 -35.815002 -0.080991
-167.975098 42.692200 -35.815002 -0.046701
-154.491791 42.692200 -35.815002 -0.030342
-141.008499 42.692200 -35.815002 -0.032914
-127.525192 42.692200 -35.815002 -0.015126
-114.041885 42.692200 -35.815002 -0.003935
-100.558594 42.692200 -35.815002 0.015038
-87.075287 42.692200 -35.815002 0.021009
-73.591980 42.692200 -35.815002 0.008550
-60.108704 42.692200 -35.815002 0.014858
-46.625397 42.692200 -35.815002 0.010582
-33.142090 42.692200 -35.815002 0.024185
-19.658783 42.692200 -35.815002 0.022671
-6.175476 42.692200 -35.815002 0.039813
7.307800 42.692200 -35.815002 0.055625
20.791107 42.692200 -35.815002 0.058070
34.274414 42.692200 -35.815002 0.033362
47.757721 42.692200 -35.815002 0.009409
61.240997 42.692200 -35.815002 -0.001995
74.724304 42.692200 -35.815002 -0.007874
88.207611 42.692200 -35.815002 -0.013436
101.690918 42.692200 -35.815002 -0.015086
115.174225 42.692200 -35.815002 -0.018128
128.657501 42.692200 -35.815002 -0.013803
142.140808 42.692200 -35.815002 -0.008903
155.624115 42.692200 -35.815002 -0.004794
169.107422 42.692200 -35.815002 -0.000870
182.590698 42.692200 -35.815002 0.003862
196.074036 42.692200 -35.815002 0.006926
209.557312 42.692200 -35.815002 0.006923
223.040588 42.692200 -35.815002 0.005049
236.523926 42.692200 -35.815002 0.003469
250.007202 42.692200 -35.815002 0.002201
263.490540 42.692200 -35.815002 0.000954
276.973816 42.692200 -35.815002 0.000244
290.457092 42.692200 -35.815002 0.000117
303.940430 42.692200 -35.815002 -0.000070
317.423706 42.692200 -35.815002 -0.000331
330.907043 42.692200 -35.815002 0.000000
344.390320 42.692200 -35.815002 0.000000
-343.257996 29.208893 -35.815002 0.000000
-329.774689 29.208893 -35.815002 0.000000
-316.291382 29.208893 -35.815002 0.000802
-302.808105 29.208893 -35.815002 0.000551
-289.324799 29.208893 -35.815002 -0.000159
-275.841492 29.208893 -35.815002 -0.000241
-262.358185 29.208893 -35.815002 -0.000113
-248.874893 29.208893 -35.815002 -0.004565
-235.391602 29.208893 -35.815002 -0.023525
-221.908295 29.208893 -35.815002 -0.021578
-208.424988 29.208893 -35.815002 -0.057942
-194.941696 29.208893 -35.815002 -0.063298
-181.458389 29.208893 -35.815002 -0.073842
-167.975098 29.208893 -35.815002 -0.035727
-154.491791 29.208893 -35.815002 -0.024963
-141.008499 29.208893 -35.815002 -0.014752
-127.525192 29.208893 -35.815002 0.001856
-114.041885 29.208893 -35.815002 0.011064
-100.558594 29.208893 -35.815002 0.024123
-87.075287 29.208893 -35.815002 0.017077
-73.591980 29.208893 -35.815002 0.013995
-60.108704 29.208893 -35.815002 0.012995
-46.625397 29.208893 -35.815002 0.015955
-33.142090 29.208893 -35.815002 0.018223
-19.658783 29.208893 -35.815002 0.026176
-6.175476 29.208893 -35.815002 0.036888
7.307800 29.208893 -35.815002 0.053846
20.791107 29.208893 -35.815002 0.047244
34.274414 29.208893 -35.815002 0.039890
47.757721 29.208893 -35.815002 0.026008
61.240997 29.208893 -35.815002 0.004972
74.724304 29.208893 -35.815002 0.005983
88.207611 29.208893 -35.815002 -0.014542
101.690918 29.208893 -35.815002 -0.020310
115.174225 29.208893 -35.815002 -0.023346
128.657501 29.208893 -35.815002 -0.016551
142.140808 29.208893 -35.815002 -0.012312
155.624115 29.208893 -35.815002 -0.014382
169.107422 29.208893 -35.815002 -0.007366
182.590698 29.208893 -35.815002 0.000644
196.074036 29.208893 -35.815002 0.005015
209.557312 29.208893 -35.815002 0.006489
223.040588 29.208893 -35.815002 0.005635
236.523926 29.208893 -35.815002 0.003839
250.007202 29.208893 -35.815002 0.001581
263.490540 29.208893 -35.815002 0.000368
276.973816 29.208893 -35.815002 -0.000057
290.457092 29.208893 -35.815002 -0.000237
303.940430 29.208893 -35.815002 -0.000855
317.423706 29.208893 -35.815002 -0.000464
330.907043 29.208893 -35.815002 0.000000
344.390320 29.208893 -35.815002 0.000000
-343.257996 15.725586 -35.815002 0.000000
-329.774689 15.725586 -35.815002 0.000000
-316.291382 15.725586 -35.815002 0.002187
-302.808105 15.725586 -35.815002 0.002176
-289.324799 15.725586 -35.815002 0.001778
-275.841492 15.725586 -35.815002 0.002346
-262.358185 15.725586 -35.815002 0.004408
-248.874893 15.725586 -35.815002 0.004899
-235.391602 15.725586 -35.815002 -0.008084
-221.908295 15.725586 -35.815002 -0.024197
-208.424988 15.725586 -35.815002 -0.042906
-194.941696 15.725586 -35.815002 -0.046405
-181.458389 15.725586 -35.815002 -0.044364
-167.975098 15.725586 -35.815002 -0.010914
-154.491791 15.725586 -35.815002 0.011746
-141.008499 15.725586 -35.815002 0.022391
-127.525192 15.725586 -35.815002 0.020302
-114.041885 15.725586 -35.815002 0.017028
-100.558594 15.725586 -35.815002 0.035133
-87.075287 15.725586 -35.815002 0.033219
-73.591980 15.725586 -35.815002 0.023506
-60.108704 15.725586 -35.815002 0.017088
-46.625397 15.725586 -35.815002 0.021164
-33.142090 15.725586 -35.815002 0.013337
-19.658783 15.725586 -35.815002 0.033082
-6.175476 15.725586 -35.815002 0.041605
7.307800 15.725586 -35.815002 0.075422
20.791107 15.725586 -35.815002 0.071859
34.274414 15.725586 -35.815002 0.057237
47.757721 15.725586 -35.815002 0.049319
61.240997 15.725586 -35.815002 0.030448
74.724304 15.725586 -35.815002 0.010218
88.207611 15.725586 -35.815002 -0.006595
101.690918 15.725586 -35.815002 -0.016714
115.174225 15.725586 -35.815002 -0.014706
128.657501 15.725586 -35.815002 -0.017014
142.140808 15.725586 -35.815002 -0.012191
155.624115 15.725586 -35.815002 -0.010641
169.107422 15.725586 -35.815002 -0.008055
182.590698 15.725586 -35.815002 -0.001169
196.074036 15.725586 -35.815002 0.005118
209.557312 15.725586 -35.815002 0.006404
223.040588 15.725586 -35.815002 0.005995
236.523926 15.725586 -35.815002 0.004087
250.007202 15.725586 -35.815002 0.001614
263.490540 15.725586 -35.815002 0.000584
276.973816 15.725586 -35.815002 -0.000060
290.457092 15.725586 -35.815002 -0.000177
303.940430 15.725586 -35.815002 -0.000483
317.423706 15.725586 -35.815002 -0.000750
330.907043 15.725586 -35.815002 0.000000
344.390320 15.725586 -35.815002 0.000000
-343.257996 2.242279 -35.815002 0.000000
-329.774689 2.242279 -35.815002 0.000000
-316.291382 2.242279 -35.815002 0.003066
-302.808105 2.242279 -35.815002 0.002900
-289.324799 2.242279 -35.815002 0.003587
-275.841492 2.242279 -35.815002 0.007525
-262.358185 2.242279 -35.815002 0.005591
-248.874893 2.242279 -35.815002 0.007749
-235.391602 2.242279 -35.815002 0.006890
-221.908295 2.242279 -35.815002 -0.018763
-208.424988 2.242279 -35.815002 -0.031975
-194.941696 2.242279 -35.815002 -0.003730
-181.458389 2.242279 -35.815002 -0.002135
-167.975098 2.242279 -35.815002 0.008185
-154.491791 2.242279 -35.815002 0.047031
-141.008499 2.242279 -35.815002 0.045397
-127.525192 2.242279 -35.815002 0.043118
-114.041885 2.242279 -35.815002 0.037641
-100.558594 2.242279 -35.815002 0.043949
-87.075287 2.242279 -35.815002 0.049141
-73.591980 2.242279 -35.815002 0.036577
-60.108704 2.242279 -35.815002 0.047214
-46.625397 2.242279 -35.815002 0.041927
-33.142090 2.242279 -35.815002 0.054078
-19.658783 2.242279 -35.815002 0.059867
-6.175476 2.242279 -35.815002 0.091904
7.307800 2.242279 -35.815002 0.117088
20.791107 2.242279 -35.815002 0.121251
34.274414 2.242279 -35.815002 0.110893
47.757721 2.242279 -35.815002 0.083990
61.240997 2.242279 -35.815002 0.051089
74.724304 2.242279 -35.815002 0.032157
88.207611 2.242279 -35.815002 0.016964
101.690918 2.242279 -35.815002 0.010982
115.174225 2.242279 -35.815002 -0.000849
128.657501 2.242279 -35.815002 -0.002930
142.140808 2.242279 -35.815002 -0.004952
155.624115 2.242279 -35.815002 -0.010372
169.107422 2.242279 -35.815002 -0.005372
182.590698 2.242279 -35.815002 -0.002362
196.074036 2.242279 -35.815002 0.003974
209.557312 2.242279 -35.815002 0.006533
223.040588 2.242279 -35.815002 0.005709
236.523926 2.242279 -35.815002 0.004659
250.007202 2.242279 -35.815002 0.002936
263.490540 2.242279 -35.815002 0.001373
276.973816 2.242279 -35.815002 0.000488
290.457092 2.242279 -35.815002 0.000680
303.940430 2.242279 -35.815002 0.000112
317.423706 2.242279 -35.815002 -0.000222
330.907043 2.242279 -35.815002 0.000000
344.390320 2.242279 -35.815002 0.000000
-343.257996 -11.240997 -35.815002 0.000000
-329.774689 -11.240997 -35.815002 0.000000
-316.291382 -11.240997 -35.815002 0.004225
-302.808105 -11.240997 -35.815002 0.004661
-289.324799 -11.240997 -35.815002 0.004466
-275.841492 -11.240997 -35.815002 0.010806
-262.358185 -11.240997 -35.815002 0.015946
-248.874893 -11.240997 -35.815002 0.006886
-235.391602 -11.240997 -35.815002 0.006727
-221.908295 -11.240997 -35.815002 -0.007792
-208.424988 -11.240997 -35.815002 -0.013838
-194.941696 -11.240997 -35.815002 -0.016170
-181.458389 -11.240997 -35.815002 0.014969
-167.975098 -11.240997 -35.815002 0.046601
-154.491791 -11.240997 -35.815002 0.057821
-141.008499 -11.240997 -35.815002 0.074716
-127.525192 -11.240997 -35.815002 0.072856
-114.041885 -11.240997 -35.815002 0.072108
-100.558594 -11.240997 -35.815002 0.056122
-87.075287 -11.240997 -35.815002 0.049674
-73.591980 -11.240997 -35.815002 0.062384
-60.108704 -11.240997 -35.815002 0.085478
-46.625397 -11.240997 -35.815002 0.066594
-33.142090 -11.240997 -35.815002 0.074559
-19.658783 -11.240997 -35.815002 0.109661
-6.175476 -11.240997 -35.815002 0.139379
7.307800 -11.240997 -35.815002 0.182451
20.791107 -11.240997 -35.815002 0.186972
34.274414 -11.240997 -35.815002 0.172510
47.757721 -11.240997 -35.815002 0.131605
61.240997 -11.240997 -35.815002 0.095314
74.724304 -11.240997 -35.815002 0.059985
88.207611 -11.240997 -35.815002 0.035432
101.690918 -11.240997 -35.815002 0.023639
115.174225 -11.240997 -35.815002 0.016641
128.657501 -11.240997 -35.815002 0.007836
142.140808 -11.240997 -35.815002 0.003555
155.624115 -11.240997 -35.815002 -0.001326
169.107422 -11.240997 -35.815002 -0.006079
182.590698 -11.240997 -35.815002 -0.001566
196.074036 -11.240997 -35.815002 0.002026
209.557312 -11.240997 -35.815002 0.005533
223.040588 -11.240997 -35.815002 0.006322
236.523926 -11.240997 -35.815002 0.004912
250.007202 -11.240997 -35.815002 0.003636
263.490540 -11.240997 -35.815002 0.002328
276.973816 -11.240997 -35.815002 0.001382
290.457092 -11.240997 -35.815002 0.000913
303.940430 -11.240997 -35.815002 0.000708
317.423706 -11.240997 -35.815002 0.000792
330.907043 -11.240997 -35.815002 0.000000
344.390320 -11.240997 -35.815002 0.000000
-343.257996 -24.724304 -35.815002 0.000000
-329.774689 -24.724304 -35.815002 0.000000
-316.291382 -24.724304 -35.815002 0.003988
-302.808105 -24.724304 -35.815002 0.007936
-289.324799 -24.724304 -35.815002 0.008649
-275.841492 -24.724304 -35.815002 0.012223
-262.358185 -24.724304 -35.815002 0.018706
-248.874893 -24.724304 -35.815002 0.019534
-235.391602 -24.724304 -35.815002 0.026156
-221.908295 -24.724304 -35.815002 0.019743
-208.424988 -24.724304 -35.815002 0.002590
-194.941696 -24.724304 -35.815002 -0.009416
-181.458389 -24.724304 -35.815002 0.032161
-167.975098 -24.724304 -35.815002 0.087336
-154.491791 -24.724304 -35.815002 0.106743
-141.008499 -24.724304 -35.815002 0.106970
-127.525192 -24.724304 -35.815002 0.092508
-114.041885 -24.724304 -35.815002 0.077001
-100.558594 -24.724304 -35.815002 0.067368
-87.075287 -24.724304 -35.815002 0.078392
-73.591980 -24.724304 -35.815002 0.107280
-60.108704 -24.724304 -35.815002 0.114986
-46.625397 -24.724304 -35.815002 0.126653
-33.142090 -24.724304 -35.815002 0.144580
-19.658783 -24.724304 -35.815002 0.187768
-6.175476 -24.724304 -35.815002 0.218923
7.307800 -24.724304 -35.815002 0.256659
20.791107 -24.724304 -35.815002 0.228476
34.274414 -24.724304 -35.815002 0.215409
47.757721 -24.724304 -35.815002 0.165901
61.240997 -24.724304 -35.815002 0.115210
74.724304 -24.724304 -35.815002 0.081484
88.207611 -24.724304 -35.815002 0.055350
101.690918 -24.724304 -35.815002 0.033774
115.174225 -24.724304 -35.815002 0.020566
128.657501 -24.724304 -35.815002 0.020215
142.140808 -24.724304 -35.815002 0.008260
155.624115 -24.724304 -35.815002 0.001955
169.107422 -24.724304 -35.815002 -0.002289
182.590698 -24.724304 -35.815002 -0.002090
196.074036 -24.724304 -35.815002 0.000621
209.557312 -24.724304 -35.815002 0.004137
223.040588 -24.724304 -35.815002 0.005646
236.523926 -24.724304 -35.815002 0.004752
250.007202 -24.724304 -35.815002 0.003586
263.490540 -24.724304 -35.815002 0.002991
276.973816 -24.724304 -35.815002 0.001806
290.457092 -24.724304 -35.815002 0.001535
303.940430 -24.724304 -35.815002 0.001638
317.423706 -24.724304 -35.815002 0.001639
330.907043 -24.724304 -35.815002 0.000000
344.390320 -24.724304 -35.815002 0.000000
-343.257996 -38.207611 -35.815002 0.000000
-329.774689 -38.207611 -35.815002 0.000000
-316.291382 -38.207611 -35.815002 0.002509
-302.808105 -38.207611 -35.815002 0.005752
-289.324799 -38.207611 -35.815002 0.009580
-275.841492 -38.207611 -35.815002 0.013588
-262.358185 -38.207611 -35.815002 0.013693
-248.874893 -38.207611 -35.815002 0.020764
-235.391602 -38.207611 -35.815002 0.027304
-221.908295 -38.207611 -35.815002 0.023070
-208.424988 -38.207611 -35.815002 0.038794
-194.941696 -38.207611 -35.815002 0.034994
-181.458389 -38.207611 -35.815002 0.085665
-167.975098 -38.207611 -35.815002 0.120113
-154.491791 -38.207611 -35.815002 0.129211
-141.008499 -38.207611 -35.815002 0.113457
-127.525192 -38.207611 -35.815002 0.078119
-114.041885 -38.207611 -35.815002 0.093562
-100.558594 -38.207611 -35.815002 0.089663
-87.075287 -38.207611 -35.815002 0.118386
-73.591980 -38.207611 -35.815002 0.150308
-60.108704 -38.207611 -35.815002 0.180407
-46.625397 -38.207611 -35.815002 0.193601
-33.142090 -38.207611 -35.815002 0.214541
-19.658783 -38.207611 -35.815002 0.246727
-6.175476 -38.207611 -35.815002 0.290812
7.307800 -38.207611 -35.815002 0.302315
20.791107 -38.207611 -35.815002 0.304468
34.274414 -38.207611 -35.815002 0.251317
47.757721 -38.207611 -35.815002 0.168874
61.240997 -38.207611 -35.815002 0.109751
74.724304 -38.207611 -35.815002 0.086888
88.207611 -38.207611 -35.815002 0.058768
101.690918 -38.207611 -35.815002 0.031993
115.174225 -38.207611 -35.815002 0.024661
128.657501 -38.207611 -35.815002 0.022126
142.140808 -38.207611 -35.815002 0.008733
155.624115 -38.207611 -35.815002 0.001397
169.107422 -38.207611 -35.815002 -0.001343
182.590698 -38.207611 -35.815002 -0.001464
196.074036 -38.207611 -35.815002 -0.000824
209.557312 -38.207611 -35.815002 0.002347
223.040588 -38.207611 -35.815002 0.004303
236.523926 -38.207611 -35.815002 0.003998
250.007202 -38.207611 -35.815002 0.003116
263.490540 -38.207611 -35.815002 0.002511
276.973816 -38.207611 -35.815002 0.002238
290.457092 -38.207611 -35.815002 0.001694
303.940430 -38.207611 -35.815002 0.001947
317.423706 -38.207611 -35.815002 0.001634
330.907043 -38.207611 -35.815002 0.000000
344.390320 -38.207611 -35.815002 0.000000
-343.257996 -51.690918 -35.815002 0.000000
-329.774689 -51.690918 -35.815002 0.000000
-316.291382 -51.690918 -35.815002 0.000000
-302.808105 -51.690918 -35.815002 0.003492
-289.324799 -51.690918 -35.815002 0.006489
-275.841492 -51.690918 -35.815002 0.011869
-262.358185 -51.690918 -35.815002 0.015465
-248.874893 -51.690918 -35.815002 0.024810
-235.391602 -51.690918 -35.815002 0.024810
-221.908295 -51.690918 -35.815002 0.039682
-208.424988 -51.690918 -35.815002 0.095149
-194.941696 -51.690918 -35.815002 0.093908
-181.458389 -51.690918 -35.815002 0.092880
-167.975098 -51.690918 -35.815002 0.103265
-154.491791 -51.690918 -35.815002 0.133187
-141.008499 -51.690918 -35.815002 0.111921
-127.525192 -51.690918 -35.815002 0.096661
-114.041885 -51.690918 -35.815002 0.108766
-100.558594 -51.690918 -35.815002 0.131135
-87.075287 -51.690918 -35.815002 0.154555
-73.591980 -51.690918 -35.815002 0.190936
-60.108704 -51.690918 -35.815002 0.238806
-46.625397 -51.690918 -35.815002 0.251604
-33.142090 -51.690918 -35.815002 0.254202
-19.658783 -51.690918 -35.815002 0.296786
-6.175476 -51.690918 -35.815002 0.314800
7.307800 -51.690918 -35.815002 0.316177
20.791107 -51.690918 -35.815002 0.284284
34.274414 -51.690918 -35.815002 0.234661
47.757721 -51.690918 -35.815002 0.156352
61.240997 -51.690918 -35.815002 0.104152
74.724304 -51.690918 -35.815002 0.074296
88.207611 -51.690918 -35.815002 0.041221
101.690918 -51.690918 -35.815002 0.026636
115.174225 -51.690918 -35.815002 0.025963
128.657501 -51.690918 -35.815002 0.021152
142.140808 -51.690918 -35.815002 0.010233
155.624115 -51.690918 -35.815002 0.001908
169.107422 -51.690918 -35.815002 -0.002222
182.590698 -51.690918 -35.815002 -0.001953
196.074036 -51.690918 -35.815002 -0.002681
209.557312 -51.690918 -35.815002 0.000374
223.040588 -51.690918 -35.815002 0.002583
236.523926 -51.690918 -35.815002 0.001771
250.007202 -51.690918 -35.815002 0.002415
263.490540 -51.690918 -35.815002 0.002082
276.973816 -51.690918 -35.815002 0.001988
290.457092 -51.690918 -35.815002 0.001741
303.940430 -51.690918 -35.815002 0.001899
317.423706 -51.690918 -35.815002 0.002461
330.907043 -51.690918 -35.815002 0.000000
344.390320 -51.690918 -35.815002 0.000000
-343.257996 -65.174225 -35.815002 0.000000
-329.774689 -65.174225 -35.815002 0.000000
-316.291382 -65.174225 -35.815002 0.000000
-302.808105 -65.174225 -35.815002 0.000000
-289.324799 -65.174225 -35.815002 0.000000
-275.841492 -65.174225 -35.815002 0.000000
-262.358185 -65.174225 -35.815002 0.000000
-248.874893 -65.174225 -35.815002 0.000000
-235.391602 -65.174225 -35.815002 0.000000
-221.908295 -65.174225 -35.815002 0.041736
-208.424988 -65.174225 -35.815002 0.070817
-194.941696 -65.174225 -35.815002 0.071306
-181.458389 -65.174225 -35.815002 0.063829
-167.975098 -65.174225 -35.815002 0.074612
-154.491791 -65.174225 -35.815002 0.094417
-141.008499 -65.174225 -35.815002 0.127154
-127.525192 -65.174225 -35.815002 0.132391
-114.041885 -65.174225 -35.815002 0.152027
-100.558594 -65.174225 -35.815002 0.169586
-87.075287 -65.174225 -35.815002 0.200289
-73.591980 -65.174225 -35.815002 0.236984
-60.108704 -65.174225 -35.815002 0.278001
-46.625397 -65.174225 -35.815002 0.286199
-33.142090 -65.174225 -35.815002 0.302327
-19.658783 -65.174225 -35.815002 0.295396
-6.175476 -65.174225 -35.815002 0.323512
7.307800 -65.174225 -35.815002 0.307179
20.791107 -65.174225 -35.815002 0.266363
34.274414 -65.174225 -35.815002 0.193177
47.757721 -65.174225 -35.815002 0.135771
61.240997 -65.174225 -35.815002 0.092254
74.724304 -65.174225 -35.815002 0.057901
88.207611 -65.174225 -35.815002 0.027633
101.690918 -65.174225 -35.815002 0.019512
115.174225 -65.174225 -35.815002 0.016156
128.657501 -65.174225 -35.815002 0.009667
142.140808 -65.174225 -35.815002 0.004546
155.624115 -65.174225 -35.815002 0.000407
169.107422 -65.174225 -35.815002 -0.001777
182.590698 -65.174225 -35.815002 -0.000863
196.074036 -65.174225 -35.815002 -0.000319
209.557312 -65.174225 -35.815002 0.001171
223.040588 -65.174225 -35.815002 -0.000854
236.523926 -65.174225 -35.815002 0.001219
250.007202 -65.174225 -35.815002 0.001365
263.490540 -65.174225 -35.815002 0.001688
276.973816 -65.174225 -35.815002 0.001539
290.457092 -65.174225 -35.815002 0.001811
303.940430 -65.174225 -35.815002 0.002166
317.423706 -65.174225 -35.815002 0.002458
330.907043 -65.174225 -35.815002 0.000000
344.390320 -65.174225 -35.815002 0.000000
-343.257996 -78.657501 -35.815002 0.000000
-329.774689 -78.657501 -35.815002 0.000000
-316.291382 -78.657501 -35.815002 0.000000
-302.808105 -78.657501 -35.815002 0.000000
-289.324799 -78.657501 -35.815002 0.000000
-275.841492 -78.657501 -35.815002 0.000000
-262.358185 -78.657501 -35.815002 0.000000
-248.874893 -78.657501 -35.815002 0.000000
-235.391602 -78.657501 -35.815002 0.000000
-221.908295 -78.657501 -35.815002 0.000000
-208.424988 -78.657501 -35.815002 0.027885
-194.941696 -78.657501 -35.815002 0.000000
-181.458389 -78.657501 -35.815002 0.000000
-167.975098 -78.657501 -35.815002 0.051625
-154.491791 -78.657501 -35.815002 0.085401
-141.008499 -78.657501 -35.815002 0.108646
-127.525192 -78.657501 -35.815002 0.146026
-114.041885 -78.657501 -35.815002 0.173947
-100.558594 -78.657501 -35.815002 0.193659
-87.075287 -78.657501 -35.815002 0.218774
-73.591980 -78.657501 -35.815002 0.262338
-60.108704 -78.657501 -35.815002 0.275842
-46.625397 -78.657501 -35.815002 0.307701
-33.142090 -78.657501 -35.815002 0.301848
-19.658783 -78.657501 -35.815002 0.294413
-6.175476 -78.657501 -35.815002 0.289505
7.307800 -78.657501 -35.815002 0.254607
20.791107 -78.657501 -35.815002 0.213885
34.274414 -78.657501 -35.815002 0.155763
47.757721 -78.657501 -35.815002 0.110085
61.240997 -78.657501 -35.815002 0.076639
74.724304 -78.657501 -35.815002 0.044655
88.207611 -78.657501 -35.815002 0.021045
101.690918 -78.657501 -35.815002 0.014450
115.174225 -78.657501 -35.815002 0.008589
128.657501 -78.657501 -35.815002 0.000931
142.140808 -78.657501 -35.815002 0.001168
155.624115 -78.657501 -35.815002 -0.000537
169.107422 -78.657501 -35.815002 0.003102
182.590698 -78.657501 -35.815002 0.002290
196.074036 -78.657501 -35.815002 0.003456
209.557312 -78.657501 -35.815002 0.000259
223.040588 -78.657501 -35.815002 -0.002266
236.523926 -78.657501 -35.815002 -0.000845
250.007202 -78.657501 -35.815002 0.000295
263.490540 -78.657501 -35.815002 0.001253
276.973816 -78.657501 -35.815002 0.000767
290.457092 -78.657501 -35.815002 0.002140
303.940430 -78.657501 -35.815002 0.001412
317.423706 -78.657501 -35.815002 0.001660
330.907043 -78.657501 -35.815002 0.000000
344.390320 -78.657501 -35.815002 0.000000
-343.257996 -92.140808 -35.815002 0.000000
-329.774689 -92.140808 -35.815002 0.000000
-316.291382 -92.140808 -35.815002 0.000000
-302.808105 -92.140808 -35.815002 0.000000
-289.324799 -92.140808 -35.815002 0.000000
-275.841492 -92.140808 -35.815002 0.000000
-262.358185 -92.140808 -35.815002 0.000000
-248.874893 -92.140808 -35.815002 0.000000
-235.391602 -92.140808 -35.815002 0.000000
-221.908295 -92.140808 -35.815002 0.000000
-208.424988 -92.140808 -35.815002 0.000000
-194.941696 -92.140808 -35.815002 0.000000
-181.458389 -92.140808 -35.815002 0.070501
-167.975098 -92.140808 -35.815002 0.000000
-154.491791 -92.140808 -35.815002 0.096873
-141.008499 -92.140808 -35.815002 0.124262
-127.525192 -92.140808 -35.815002 0.142254
-114.041885 -92.140808 -35.815002 0.163424
-100.558594 -92.140808 -35.815002 0.186127
-87.075287 -92.140808 -35.815002 0.227074
-73.591980 -92.140808 -35.815002 0.244230
-60.108704 -92.140808 -35.815002 0.287160
-46.625397 -92.140808 -35.815002 0.294295
-33.142090 -92.140808 -35.815002 0.301547
-19.658783 -92.140808 -35.815002 0.257857
-6.175476 -92.140808 -35.815002 0.248146
7.307800 -92.140808 -35.815002 0.222286
20.791107 -92.140808 -35.815002 0.169476
34.274414 -92.140808 -35.815002 0.125385
47.757721 -92.140808 -35.815002 0.084117
61.240997 -92.140808 -35.815002 0.052051
74.724304 -92.140808 -35.815002 0.034431
88.207611 -92.140808 -35.815002 0.013459
101.690918 -92.140808 -35.815002 0.009464
115.174225 -92.140808 -35.815002 0.005286
128.657501 -92.140808 -35.815002 0.000597
142.140808 -92.140808 -35.815002 -0.000962
155.624115 -92.140808 -35.815002 0.002623
169.107422 -92.140808 -35.815002 0.004417
182.590698 -92.140808 -35.815002 0.007248
196.074036 -92.140808 -35.815002 0.005668
209.557312 -92.140808 -35.815002 0.000327
223.040588 -92.140808 -35.815002 -0.002922
236.523926 -92.140808 -35.815002 -0.003353
250.007202 -92.140808 -35.815002 -0.002052
263.490540 -92.140808 -35.815002 -0.000514
276.973816 -92.140808 -35.815002 0.000394
290.457092 -92.140808 -35.815002 0.001194
303.940430 -92.140808 -35.815002 0.002072
317.423706 -92.140808 -35.815002 0.002251
330.907043 -92.140808 -35.815002 0.000000
344.390320 -92.140808 -35.815002 0.000000
-343.257996 -105.624115 -35.815002 0.000000
-329.774689 -105.624115 -35.815002 0.000000
-316.291382 -105.624115 -35.815002 0.000000
-302.808105 -105.624115 -35.815002 0.000000
-289.324799 -105.624115 -35.815002 0.000000
-275.841492 -105.624115 -35.815002 0.000000
-262.358185 -105.624115 -35.815002 0.000000
-248.874893 -105.624115 -35.815002 0.000000
-235.391602 -105.624115 -35.815002 0.000000
-221.908295 -105.624115 -35.815002 0.000000
-208.424988 -105.624115 -35.815002 0.000000
-194.941696 -105.624115 -35.815002 0.050394
-181.458389 -105.624115 -35.815002 0.000000
-167.975098 -105.624115 -35.815002 0.000000
-154.491791 -105.624115 -35.815002 0.102172
-141.008499 -105.624115 -35.815002 0.119121
-127.525192 -105.624115 -35.815002 0.131196
-114.041885 -105.624115 -35.815002 0.153464
-100.558594 -105.624115 -35.815002 0.179270
-87.075287 -105.624115 -35.815002 0.000000
-73.591980 -105.624115 -35.815002 0.000000
-60.108704 -105.624115 -35.815002 0.000000
-46.625397 -105.624115 -35.815002 0.248114
-33.142090 -105.624115 -35.815002 0.249631
-19.658783 -105.624115 -35.815002 0.219071
-6.175476 -105.624115 -35.815002 0.192033
7.307800 -105.624115 -35.815002 0.179179
20.791107 -105.624115 -35.815002 0.128605
34.274414 -105.624115 -35.815002 0.096884
47.757721 -105.624115 -35.815002 0.049850
61.240997 -105.624115 -35.815002 0.033602
74.724304 -105.624115 -35.815002 0.023840
88.207611 -105.624115 -35.815002 0.012325
101.690918 -105.624115 -35.815002 0.007526
115.174225 -105.624115 -35.815002 -0.002316
128.657501 -105.624115 -35.815002 -0.004538
142.140808 -105.624115 -35.815002 -0.001368
155.624115 -105.624115 -35.815002 -0.000021
169.107422 -105.624115 -35.815002 0.003627
182.590698 -105.624115 -35.815002 0.007500
196.074036 -105.624115 -35.815002 0.004644
209.557312 -105.624115 -35.815002 0.002781
223.040588 -105.624115 -35.815002 -0.004358
236.523926 -105.624115 -35.815002 -0.006422
250.007202 -105.624115 -35.815002 -0.004186
263.490540 -105.624115 -35.815002 -0.001746
276.973816 -105.624115 -35.815002 0.000141
290.457092 -105.624115 -35.815002 0.000795
303.940430 -105.624115 -35.815002 0.001920
317.423706 -105.624115 -35.815002 0.002654
330.907043 -105.624115 -35.815002 0.000000
344.390320 -105.624115 -35.815002 0.000000
-343.257996 -119.107422 -35.815002 0.000000
-329.774689 -119.107422 -35.815002 0.000000
-316.291382 -119.107422 -35.815002 0.000000
-302.808105 -119.107422 -35.815002 0.000000
-289.324799 -119.107422 -35.815002 0.000000
-275.841492 -119.107422 -35.815002 0.000000
-262.358185 -119.107422 -35.815002 0.000000
-248.874893 -119.107422 -35.815002 0.000000
-235.391602 -119.107422 -35.815002 0.000000
-221.908295 -119.107422 -35.815002 0.000000
-208.424988 -119.107422 -35.815002 0.000000
-194.941696 -119.107422 -35.815002 0.000000
-181.458389 -119.107422 -35.815002 0.000000
-167.975098 -119.107422 -35.815002 0.000000
-154.491791 -119.107422 -35.815002 0.109586
-141.008499 -119.107422 -35.815002 0.126445
-127.525192 -119.107422 -35.815002 0.118275
-114.041885 -119.107422 -35.815002 0.000000
-100.558594 -119.107422 -35.815002 0.155485
-87.075287 -119.107422 -35.815002 0.000000
-73.591980 -119.107422 -35.815002 0.168274
-60.108704 -119.107422 -35.815002 0.000000
-46.625397 -119.107422 -35.815002 0.183393
-33.142090 -119.107422 -35.815002 0.183750
-19.658783 -119.107422 -35.815002 0.169682
-6.175476 -119.107422 -35.815002 0.143249
7.307800 -119.107422 -35.815002 0.135844
20.791107 -119.107422 -35.815002 0.084966
34.274414 -119.107422 -35.815002 0.072851
47.757721 -119.107422 -35.815002 0.045712
61.240997 -119.107422 -35.815002 0.022655
74.724304 -119.107422 -35.815002 0.014159
88.207611 -119.107422 -35.815002 0.003845
101.690918 -119.107422 -35.815002 -0.001200
115.174225 -119.107422 -35.815002 -0.004957
128.657501 -119.107422 -35.815002 -0.005871
142.140808 -119.107422 -35.815002 -0.006093
155.624115 -119.107422 -35.815002 -0.003560
169.107422 -119.107422 -35.815002 0.000755
182.590698 -119.107422 -35.815002 0.004446
196.074036 -119.107422 -35.815002 0.007381
209.557312 -119.107422 -35.815002 0.003347
223.040588 -119.107422 -35.815002 -0.005543
236.523926 -119.107422 -35.815002 -0.007291
250.007202 -119.107422 -35.815002 -0.007302
263.490540 -119.107422 -35.815002 -0.003882
276.973816 -119.107422 -35.815002 -0.001216
290.457092 -119.107422 -35.815002 -0.000416
303.940430 -119.107422 -35.815002 0.000997
317.423706 -119.107422 -35.815002 0.001463
330.907043 -119.107422 -35.815002 0.000000
344.390320 -119.107422 -35.815002 0.000000
-343.257996 -132.590698 -35.815002 0.000000
-329.774689 -132.590698 -35.815002 0.000000
-316.291382 -132.590698 -35.815002 0.000000
-302.808105 -132.590698 -35.815002 0.000000
-289.324799 -132.590698 -35.815002 0.000000
-275.841492 -132.590698 -35.815002 0.000000
-262.358185 -132.590698 -35.815002 0.000000
-248.874893 -132.590698 -35.815002 0.000000
-235.391602 -132.590698 -35.815002 0.000000
-221.908295 -132.590698 -35.815002 0.000000
-208.424988 -132.590698 -35.815002 0.000000
-194.941696 -132.590698 -35.815002 0.000000
-181.458389 -132.590698 -35.815002 0.057268
-167.975098 -132.590698 -35.815002 0.064072
-154.491791 -132.590698 -35.815002 0.000000
-141.008499 -132.590698 -35.815002 0.088075
-127.525192 -132.590698 -35.815002 0.106181
-114.041885 -132.590698 -35.815002 0.118115
-100.558594 -132.590698 -35.815002 0.146506
-87.075287 -132.590698 -35.815002 0.130415
-73.591980 -132.590698 -35.815002 0.134952
-60.108704 -132.590698 -35.815002 0.000000
-46.625397 -132.590698 -35.815002 0.000000
-33.142090 -132.590698 -35.815002 0.000000
-19.658783 -132.590698 -35.815002 0.134024
-6.175476 -132.590698 -35.815002 0.107513
7.307800 -132.590698 -35.815002 0.114846
20.791107 -132.590698 -35.815002 0.073603
34.274414 -132.590698 -35.815002 0.052886
47.757721 -132.590698 -35.815002 0.030659
61.240997 -132.590698 -35.815002 0.009980
74.724304 -132.590698 -35.815002 0.008402
88.207611 -132.590698 -35.815002 -0.001470
101.690918 -132.590698 -35.815002 -0.001769
115.174225 -132.590698 -35.815002 -0.009012
128.657501 -132.590698 -35.815002 -0.010565
142.140808 -132.590698 -35.815002 -0.008717
155.624115 -132.590698 -35.815002 -0.002541
169.107422 -132.590698 -35.815002 0.001716
182.590698 -132.590698 -35.815002 0.010304
196.074036 -132.590698 -35.815002 0.011036
209.557312 -132.590698 -35.815002 0.005277
223.040588 -132.590698 -35.815002 -0.002387
236.523926 -132.590698 -35.815002 -0.006744
250.007202 -132.590698 -35.815002 -0.009467
263.490540 -132.590698 -35.815002 -0.007574
276.973816 -132.590698 -35.815002 -0.004509
290.457092 -132.590698 -35.815002 -0.002746
303.940430 -132.590698 -35.815002 -0.000324
317.423706 -132.590698 -35.815002 0.000000
330.907043 -132.590698 -35.815002 0.000000
344.390320 -132.590698 -35.815002 0.000000
-343.257996 -146.074036 -35.815002 0.000000
-329.774689 -146.074036 -35.815002 0.000000
-316.291382 -146.074036 -35.815002 0.000000
-302.808105 -146.074036 -35.815002 0.000000
-289.324799 -146.074036 -35.815002 0.000000
-275.841492 -146.074036 -35.815002 0.000000
-262.358185 -146.074036 -35.815002 0.000000
-248.874893 -146.074036 -35.815002 0.000000
-235.391602 -146.074036 -35.815002 0.000000
-221.908295 -146.074036 -35.815002 0.000000
-208.424988 -146.074036 -35.815002 0.000000
-194.941696 -146.074036 -35.815002 0.000000
-181.458389 -146.074036 -35.815002 0.000000
-167.975098 -146.074036 -35.815002 0.000000
-154.491791 -146.074036 -35.815002 0.000000
-141.008499 -146.074036 -35.815002 0.000000
-127.525192 -146.074036 -35.815002 0.000000
-114.041885 -146.074036 -35.815002 0.000000
-100.558594 -146.074036 -35.815002 0.000000
-87.075287 -146.074036 -35.815002 0.000000
-73.591980 -146.074036 -35.815002 0.000000
-60.108704 -146.074036 -35.815002 0.000000
-46.625397 -146.074036 -35.815002 0.000000
-33.142090 -146.074036 -35.815002 0.000000
-19.658783 -146.074036 -35.815002 0.000000
-6.175476 -146.074036 -35.815002 0.000000
7.307800 -146.074036 -35.815002 0.000000
20.791107 -146.074036 -35.815002 0.000000
34.274414 -146.074036 -35.815002 0.000000
47.757721 -146.074036 -35.815002 0.000000
61.240997 -146.074036 -35.815002 0.000000
74.724304 -146.074036 -35.815002 0.000000
88.207611 -146.074036 -35.815002 0.000000
101.690918 -146.074036 -35.815002 0.000000
115.174225 -146.074036 -35.815002 0.000000
128.657501 -146.074036 -35.815002 -0.011652
142.140808 -146.074036 -35.815002 -0.003643
155.624115 -146.074036 -35.815002 0.000059
169.107422 -146.074036 -35.815002 0.003189
182.590698 -146.074036 -35.815002 0.017203
196.074036 -146.074036 -35.815002 0.020097
209.557312 -146.074036 -35.815002 0.014960
223.040588 -146.074036 -35.815002 0.006094
236.523926 -146.074036 -35.815002 -0.002722
250.007202 -146.074036 -35.815002 -0.007048
263.490540 -146.074036 -35.815002 -0.012352
276.973816 -146.074036 -35.815002 0.000000
290.457092 -146.074036 -35.815002 0.000000
303.940430 -146.074036 -35.815002 0.000000
317.423706 -146.074036 -35.815002 0.000000
330.907043 -146.074036 -35.815002 0.000000
344.390320 -146.074036 -35.815002 0.000000
-343.257996 -159.557312 -35.815002 0.000000
-329.774689 -159.557312 -35.815002 0.000000
-316.291382 -159.557312 -35.815002 0.000000
-302.808105 -159.557312 -35.815002 0.000000
-289.324799 -159.557312 -35.815002 0.000000
-275.841492 -159.557312 -35.815002 0.000000
-262.358185 -159.557312 -35.815002 0.000000
-248.874893 -159.557312 -35.815002 0.000000
-235.391602 -159.557312 -35.815002 0.000000
-221.908295 -159.557312 -35.815002 0.000000
-208.424988 -159.557312 -35.815002 0.000000
-194.941696 -159.557312 -35.815002 0.000000
-181.458389 -159.557312 -35.815002 0.000000
-167.975098 -159.557312 -35.815002 0.000000
-154.491791 -159.557312 -35.815002 0.000000
-141.008499 -159.557312 -35.815002 0.000000
-127.525192 -159.557312 -35.815002 0.000000
-114.041885 -159.557312 -35.815002 0.000000
-100.558594 -159.557312 -35.815002 0.000000
-87.075287 -159.557312 -35.815002 0.000000
-73.591980 -159.557312 -35.815002 0.000000
-60.108704 -159.557312 -35.815002 0.000000
-46.625397 -159.557312 -35.815002 0.000000
-33.142090 -159.557312 -35.815002 0.000000
-19.658783 -159.557312 -35.815002 0.000000
-6.175476 -159.557312 -35.815002 0.000000
7.307800 -159.557312 -35.815002 0.000000
20.791107 -159.557312 -35.815002 0.000000
34.274414 -159.557312 -35.815002 0.000000
47.757721 -159.557312 -35.815002 0.000000
61.240997 -159.557312 -35.815002 0.000000
74.724304 -159.557312 -35.815002 0.000000
88.207611 -159.557312 -35.815002 0.000000
101.690918 -159.557312 -35.815002 0.000000
115.174225 -159.557312 -35.815002 0.000000
128.657501 -159.557312 -35.815002 0.000000
142.140808 -159.557312 -35.815002 0.000000
155.624115 -159.557312 -35.815002 0.000000
169.107422 -159.557312 -35.815002 0.000000
182.590698 -159.557312 -35.815002 0.000000
196.074036 -159.557312 -35.815002 0.000000
209.557312 -159.557312 -35.815002 0.000000
223.040588 -159.557312 -35.815002 0.000000
236.523926 -159.557312 -35.815002 0.000000
250.007202 -159.557312 -35.815002 0.000000
263.490540 -159.557312 -35.815002 0.000000
276.973816 -159.557312 -35.815002 0.000000
290.457092 -159.557312 -35.815002 0.000000
303.940430 -159.557312 -35.815002 0.000000
317.423706 -159.557312 -35.815002 0.000000
330.907043 -159.557312 -35.815002 0.000000
344.390320 -159.557312 -35.815002 0.000000
-343.257996 -173.040588 -35.815002 0.000000
-329.774689 -173.040588 -35.815002 0.000000
-316.291382 -173.040588 -35.815002 0.000000
-302.808105 -173.040588 -35.815002 0.000000
-289.324799 -173.040588 -35.815002 0.000000
-275.841492 -173.040588 -35.815002 0.000000
-262.358185 -173.040588 -35.815002 0.000000
-248.874893 -173.040588 -35.815002 0.000000
-235.391602 -173.040588 -35.815002 0.000000
-221.908295 -173.040588 -35.815002 0.000000
-208.424988 -173.040588 -35.815002 0.000000
-194.941696 -173.040588 -35.815002 0.000000
-181.458389 -173.040588 -35.815002 0.000000
-167.975098 -173.040588 -35.815002 0.000000
-154.491791 -173.040588 -35.815002 0.000000
-141.008499 -173.040588 -35.815002 0.000000
-127.525192 -173.040588 -35.815002 0.000000
-114.041885 -173.040588 -35.815002 0.000000
-100.558594 -173.040588 -35.815002 0.000000
-87.075287 -173.040588 -35.815002 0.000000
-73.591980 -173.040588 -35.815002 0.000000
-60.108704 -173.040588 -35.815002 0.000000
-46.625397 -173.040588 -35.815002 0.000000
-33.142090 -173.040588 -35.815002 0.000000
-19.658783 -173.040588 -35.815002 0.000000
-6.175476 -173.040588 -35.815002 0.000000
7.307800 -173.040588 -35.815002 0.000000
20.791107 -173.040588 -35.815002 0.000000
34.274414 -173.040588 -35.815002 0.000000
47.757721 -173.040588 -35.815002 0.000000
61.240997 -173.040588 -35.815002 0.000000
74.724304 -173.040588 -35.815002 0.000000
88.207611 -173.040588 -35.815002 0.000000
101.690918 -173.040588 -35.815002 0.000000
115.174225 -173.040588 -35.815002 0.000000
128.657501 -173.040588 -35.815002 0.000000
142.140808 -173.040588 -35.815002 0.000000
155.624115 -173.040588 -35.815002 0.000000
169.107422 -173.040588 -35.815002 0.000000
182.590698 -173.040588 -35.815002 0.000000
196.074036 -173.040588 -35.815002 0.000000
209.557312 -173.040588 -35.815002 0.000000
223.040588 -173.040588 -35.815002 0.000000
236.523926 -173.040588 -35.815002 0.000000
250.007202 -173.040588 -35.815002 0.000000
263.490540 -173.040588 -35.815002 0.000000
276.973816 -173.040588 -35.815002 0.000000
290.457092 -173.040588 -35.815002 0.000000
303.940430 -173.040588 -35.815002 0.000000
317.423706 -173.040588 -35.815002 0.000000
330.907043 -173.040588 -35.815002 0.000000
344.390320 -173.040588 -35.815002 0.000000
-343.257996 -186.523926 -35.815002 0.000000
-329.774689 -186.523926 -35.815002 0.000000
-316.291382 -186.523926 -35.815002 0.000000
-302.808105 -186.523926 -35.815002 0.000000
-289.324799 -186.523926 -35.815002 0.000000
-275.841492 -186.523926 -35.815002 0.000000
-262.358185 -186.523926 -35.815002 0.000000
-248.874893 -186.523926 -35.815002 0.000000
-235.391602 -186.523926 -35.815002 0.000000
-221.908295 -186.523926 -35.815002 0.000000
-208.424988 -186.523926 -35.815002 0.000000
-194.941696 -186.523926 -35.815002 0.000000
-181.458389 -186.523926 -35.815002 0.000000
-167.975098 -186.523926 -35.815002 0.000000
-154.491791 -186.523926 -35.815002 0.000000
-141.008499 -186.523926 -35.815002 0.000000
-127.525192 -186.523926 -35.815002 0.000000
-114.041885 -186.523926 -35.815002 0.000000
-100.558594 -186.523926 -35.815002 0.000000
-87.075287 -186.523926 -35.815002 0.000000
-73.591980 -186.523926 -35.815002 0.000000
-60.108704 -186.523926 -35.815002 0.000000
-46.625397 -186.523926 -35.815002 0.000000
-33.142090 -186.523926 -35.815002 0.000000
-19.658783 -186.523926 -35.815002 0.000000
-6.175476 -186.523926 -35.815002 0.000000
7.307800 -186.523926 -35.815002 0.000000
20.791107 -186.523926 -35.815002 0.000000
34.274414 -186.523926 -35.815002 0.000000
47.757721 -186.523926 -35.815002 0.000000
61.240997 -186.523926 -35.815002 0.000000
74.724304 -186.523926 -35.815002 0.000000
88.207611 -186.523926 -35.815002 0.000000
101.690918 -186.523926 -35.815002 0.000000
115.174225 -186.523926 -35.815002 0.000000
128.657501 -186.523926 -35.815002 0.000000
142.140808 -186.523926 -35.815002 0.000000
155.624115 -186.523926 -35.815002 0.000000
169.107422 -186.523926 -35.815002 0.000000
182.590698 -186.523926 -35.815002 0.000000
196.074036 -186.523926 -35.815002 0.000000
209.557312 -186.523926 -35.815002 0.000000
223.040588 -186.523926 -35.815002 0.000000
236.523926 -186.523926 -35.815002 0.000000
250.007202 -186.523926 -35.815002 0.000000
263.490540 -186.523926 -35.815002 0.000000
276.973816 -186.523926 -35.815002 0.000000
290.457092 -186.523926 -35.815002 0.000000
303.940430 -186.523926 -35.815002 0.000000
317.423706 -186.523926 -35.815002 0.000000
330.907043 -186.523926 -35.815002 0.000000
344.390320 -186.523926 -35.815002 0.000000
-343.257996 -200.007202 -35.815002 0.000000
-329.774689 -200.007202 -35.815002 0.000000
-316.291382 -200.007202 -35.815002 0.000000
-302.808105 -200.007202 -35.815002 0.000000
-289.324799 -200.007202 -35.815002 0.000000
-275.841492 -200.007202 -35.815002 0.000000
-262.358185 -200.007202 -35.815002 0.000000
-248.874893 -200.007202 -35.815002 0.000000
-235.391602 -200.007202 -35.815002 0.000000
-221.908295 -200.007202 -35.815002 0.000000
-208.424988 -200.007202 -35.815002 0.000000
-194.941696 -200.007202 -35.815002 0.000000
-181.458389 -200.007202 -35.815002 0.000000
-167.975098 -200.007202 -35.815002 0.000000
-154.491791 -200.007202 -35.815002 0.000000
-141.008499 -200.007202 -35.815002 0.000000
-127.525192 -200.007202 -35.815002 0.000000
-114.041885 -200.007202 -35.815002 0.000000
-100.558594 -200.007202 -35.815002 0.000000
-87.075287 -200.007202 -35.815002 0.000000
-73.591980 -200.007202 -35.815002 0.000000
-60.108704 -200.007202 -35.815002 0.000000
-46.625397 -200.007202 -35.815002 0.000000
-33.142090 -200.007202 -35.815002 0.000000
-19.658783 -200.007202 -35.815002 0.000000
-6.175476 -200.007202 -35.815002 0.000000
7.307800 -200.007202 -35.815002 0.000000
20.791107 -200.007202 -35.815002 0.000000
34.274414 -200.007202 -35.815002 0.000000
47.757721 -200.007202 -35.815002 0.000000
61.240997 -200.007202 -35.815002 0.000000
74.724304 -200.007202 -35.815002 0.000000
88.207611 -200.007202 -35.815002 0.000000
101.690918 -200.007202 -35.815002 0.000000
115.174225 -200.007202 -35.815002 0.000000
128.657501 -200.007202 -35.815002 0.000000
142.140808 -200.007202 -35.815002 0.000000
155.624115 -200.007202 -35.815002 0.000000
169.107422 -200.007202 -35.815002 0.000000
182.590698 -200.007202 -35.815002 0.000000
196.074036 -200.007202 -35.815002 0.000000
209.557312 -200.007202 -35.815002 0.000000
223.040588 -200.007202 -35.815002 0.000000
236.523926 -200.007202 -35.815002 0.000000
250.007202 -200.007202 -35.815002 0.000000
263.490540 -200.007202 -35.815002 0.000000
276.973816 -200.007202 -35.815002 0.000000
290.457092 -200.007202 -35.815002 0.000000
303.940430 -200.007202 -35.815002 0.000000
317.423706 -200.007202 -35.815002 0.000000
330.907043 -200.007202 -35.815002 0.000000
344.390320 -200.007202 -35.815002 0.000000
-343.257996 393.257996 -22.331701 0.000000
-329.774689 393.257996 -22.331701 0.000000
-316.291382 393.257996 -22.331701 0.000000
-302.808105 393.257996 -22.331701 0.000000
-289.324799 393.257996 -22.331701 0.000000
-275.841492 393.257996 -22.331701 0.000000
-262.358185 393.257996 -22.331701 0.000000
-248.874893 393.257996 -22.331701 0.000000
-235.391602 393.257996 -22.331701 0.000000
-221.908295 393.257996 -22.331701 0.000000
-208.424988 393.257996 -22.331701 0.000000
-194.941696 393.257996 -22.331701 0.000000
-181.458389 393.257996 -22.331701 0.000000
-167.975098 393.257996 -22.331701 0.000000
-154.491791 393.257996 -22.331701 0.000000
-141.008499 393.257996 -22.331701 0.000000
-127.525192 393.257996 -22.331701 0.000000
-114.041885 393.257996 -22.331701 0.000000
-100.558594 393.257996 -22.331701 0.000000
-87.075287 393.257996 -22.331701 0.000000
-73.591980 393.257996 -22.331701 0.000000
-60.108704 393.257996 -22.331701 0.000000
-46.625397 393.257996 -22.331701 0.000000
-33.142090 393.257996 -22.331701 0.000000
-19.658783 393.257996 -22.331701 0.000000
-6.175476 393.257996 -22.331701 0.000000
7.307800 393.257996 -22.331701 0.000000
20.791107 393.257996 -22.331701 0.000000
34.274414 393.257996 -22.331701 0.000000
47.757721 393.257996 -22.331701 0.000000
61.240997 393.257996 -22.331701 0.000000
74.724304 393.257996 -22.331701 0.000000
88.207611 393.257996 -22.331701 0.000000
101.690918 393.257996 -22.331701 0.000000
115.174225 393.257996 -22.331701 0.000000
128.657501 393.257996 -22.331701 0.000000
142.140808 393.257996 -22.331701 0.000000
155.624115 393.257996 -22.331701 0.000000
169.107422 393.257996 -22.331701 0.000000
182.590698 393.257996 -22.331701 0.000000
196.074036 393.257996 -22.331701 0.000000
209.557312 393.257996 -22.331701 0.000000
223.040588 393.257996 -22.331701 0.000000
236.523926 393.257996 -22.331701 0.000000
250.007202 393.257996 -22.331701 0.000000
263.490540 393.257996 -22.331701 0.000000
276.973816 393.257996 -22.331701 0.000000
290.457092 393.257996 -22.331701 0.000000
303.940430 393.257996 -22.331701 0.000000
317.423706 393.257996 -22.331701 0.000000
330.907043 393.257996 -22.331701 0.000000
344.390320 393.257996 -22.331701 0.000000
-343.257996 379.774689 -22.331701 0.000000
-329.774689 379.774689 -22.331701 0.000000
-316.291382 379.774689 -22.331701 0.000000
-302.808105 379.774689 -22.331701 0.000000
-289.324799 379.774689 -22.331701 0.000000
-275.841492 379.774689 -22.331701 0.000000
-262.358185 379.774689 -22.331701 0.000000
-248.874893 379.774689 -22.331701 0.000000
-235.391602 379.774689 -22.331701 0.000000
-221.908295 379.774689 -22.331701 0.000000
-208.424988 379.774689 -22.331701 0.000000
-194.941696 379.774689 -22.331701 0.000000
-181.458389 379.774689 -22.331701 0.000000
-167.975098 379.774689 -22.331701 0.000000
-154.491791 379.774689 -22.331701 0.000000
-141.008499 379.774689 -22.331701 0.000000
-127.525192 379.774689 -22.331701 0.000000
-114.041885 379.774689 -22.331701 0.000000
-100.558594 379.774689 -22.331701 0.000000
-87.075287 379.774689 -22.331701 0.000000
-73.591980 379.774689 -22.331701 0.000000
-60.108704 379.774689 -22.331701 0.000000
-46.625397 379.774689 -22.331701 0.000000
-33.142090 379.774689 -22.331701 0.000000
-19.658783 379.774689 -22.331701 0.000000
-6.175476 379.774689 -22.331701 0.000000
7.307800 379.774689 -22.331701 0.000000
20.791107 379.774689 -22.331701 0.000000
34.274414 379.774689 -22.331701 0.000000
47.757721 379.774689 -22.331701 0.000000
61.240997 379.774689 -22.331701 0.000000
74.724304 379.774689 -22.331701 0.000000
88.207611 379.774689 -22.331701 0.000000
101.690918 379.774689 -22.331701 0.000000
115.174225 379.774689 -22.331701 0.000000
128.657501 379.774689 -22.331701 0.000000
142.140808 379.774689 -22.331701 0.000000
155.624115 379.774689 -22.331701 0.000000
169.107422 379.774689 -22.331701 0.000000
182.590698 379.774689 -22.331701 0.000000
196.074036 379.774689 -22.331701 0.000000
209.557312 379.774689 -22.331701 0.000000
223.040588 379.774689 -22.331701 0.000000
236.523926 379.774689 -22.331701 0.000000
250.007202 379.774689 -22.331701 0.000000
263.490540 379.774689 -22.331701 0.000000
276.973816 379.774689 -22.331701 0.000000
290.457092 379.774689 -22.331701 0.000000
303.940430 379.774689 -22.331701 0.000000
317.423706 379.774689 -22.331701 0.000000
330.907043 379.774689 -22.331701 0.000000
344.390320 379.774689 -22.331701 0.000000
-343.257996 366.291382 -22.331701 0.000000
-329.774689 366.291382 -22.331701 0.000000
-316.291382 366.291382 -22.331701 0.000000
-302.808105 366.291382 -22.331701 0.000000
-289.324799 366.291382 -22.331701 0.000000
-275.841492 366.291382 -22.331701 0.000000
-262.358185 366.291382 -22.331701 0.000000
-248.874893 366.291382 -22.331701 0.000000
-235.391602 366.291382 -22.331701 0.000000
-221.908295 366.291382 -22.331701 0.000000
-208.424988 366.291382 -22.331701 0.000000
-194.941696 366.291382 -22.331701 0.000000
-181.458389 366.291382 -22.331701 0.000000
-167.975098 366.291382 -22.331701 0.000000
-154.491791 366.291382 -22.331701 0.000000
-141.008499 366.291382 -22.331701 0.000000
-127.525192 366.291382 -22.331701 0.000000
-114.041885 366.291382 -22.331701 0.000000
-100.558594 366.291382 -22.331701 0.000000
-87.075287 366.291382 -22.331701 0.000000
-73.591980 366.291382 -22.331701 0.000000
-60.108704 366.291382 -22.331701 0.000000
-46.625397 366.291382 -22.331701 0.000000
-33.142090 366.291382 -22.331701 0.000000
-19.658783 366.291382 -22.331701 0.000000
-6.175476 366.291382 -22.331701 0.000000
7.307800 366.291382 -22.331701 0.000000
20.791107 366.291382 -22.331701 0.000000
34.274414 366.291382 -22.331701 0.000000
47.757721 366.291382 -22.331701 0.000000
61.240997 366.291382 -22.331701 0.000000
74.724304 366.291382 -22.331701 0.000000
88.207611 366.291382 -22.331701 0.000000
101.690918 366.291382 -22.331701 0.000000
115.174225 366.291382 -22.331701 0.000000
128.657501 366.291382 -22.331701 0.000000
142.140808 366.291382 -22.331701 0.000000
155.624115 366.291382 -22.331701 0.000000
169.107422 366.291382 -22.331701 0.000000
182.590698 366.291382 -22.331701 0.000000
196.074036 366.291382 -22.331701 0.000000
209.557312 366.291382 -22.331701 0.000000
223.040588 366.291382 -22.331701 0.000000
236.523926 366.291382 -22.331701 0.000000
250.007202 366.291382 -22.331701 0.000000
263.490540 366.291382 -22.331701 0.000000
276.973816 366.291382 -22.331701 0.000000
290.457092 366.291382 -22.331701 0.000000
303.940430 366.291382 -22.331701 0.000000
317.423706 366.291382 -22.331701 0.000000
330.907043 366.291382 -22.331701 0.000000
344.390320 366.291382 -22.331701 0.000000
-343.257996 352.808105 -22.331701 0.000000
-329.774689 352.808105 -22.331701 0.000000
-316.291382 352.808105 -22.331701 0.000000
-302.808105 352.808105 -22.331701 -0.002607
-289.324799 352.808105 -22.331701 -0.002804
-275.841492 352.808105 -22.331701 -0.004517
-262.358185 352.808105 -22.331701 -0.006476
-248.874893 352.808105 -22.331701 -0.005997
-235.391602 352.808105 -22.331701 -0.006865
-221.908295 352.808105 -22.331701 -0.010234
-208.424988 352.808105 -22.331701 -0.020371
-194.941696 352.808105 -22.331701 -0.029485
-181.458389 352.808105 -22.331701 0.000000
-167.975098 352.808105 -22.331701 0.000000
-154.491791 352.808105 -22.331701 0.000000
-141.008499 352.808105 -22.331701 0.000000
-127.525192 352.808105 -22.331701 0.000000
-114.041885 352.808105 -22.331701 0.000000
-100.558594 352.808105 -22.331701 0.000000
-87.075287 352.808105 -22.331701 0.000000
-73.591980 352.808105 -22.331701 0.000000
-60.108704 352.808105 -22.331701 0.000000
-46.625397 352.808105 -22.331701 0.000000
-33.142090 352.808105 -22.331701 0.000000
-19.658783 352.808105 -22.331701 0.000000
-6.175476 352.808105 -22.331701 0.000000
7.307800 352.808105 -22.331701 0.000000
20.791107 352.808105 -22.331701 0.000000
34.274414 352.808105 -22.331701 -0.047125
47.757721 352.808105 -22.331701 -0.038800
61.240997 352.808105 -22.331701 -0.030717
74.724304 352.808105 -22.331701 -0.031025
88.207611 352.808105 -22.331701 0.000000
101.690918 352.808105 -22.331701 0.000000
115.174225 352.808105 -22.331701 0.000000
128.657501 352.808105 -22.331701 0.000000
142.140808 352.808105 -22.331701 0.000000
155.624115 352.808105 -22.331701 0.000000
169.107422 352.808105 -22.331701 0.000000
182.590698 352.808105 -22.331701 0.000000
196.074036 352.808105 -22.331701 0.000000
209.557312 352.808105 -22.331701 0.000000
223.040588 352.808105 -22.331701 0.000000
236.523926 352.808105 -22.331701 0.000000
250.007202 352.808105 -22.331701 0.000000
263.490540 352.808105 -22.331701 0.000000
276.973816 352.808105 -22.331701 0.000000
290.457092 352.808105 -22.331701 0.000000
303.940430 352.808105 -22.331701 0.000000
317.423706 352.808105 -22.331701 0.000000
330.907043 352.808105 -22.331701 0.000000
344.390320 352.808105 -22.331701 0.000000
-343.257996 339.324799 -22.331701 0.000000
-329.774689 339.324799 -22.331701 0.000000
-316.291382 339.324799 -22.331701 0.000000
-302.808105 339.324799 -22.331701 -0.002668
-289.324799 339.324799 -22.331701 -0.002061
-275.841492 339.324799 -22.331701 -0.002378
-262.358185 339.324799 -22.331701 -0.003732
-248.874893 339.324799 -22.331701 -0.003069
-235.391602 339.324799 -22.331701 -0.005809
-221.908295 339.324799 -22.331701 -0.012078
-208.424988 339.324799 -22.331701 -0.025419
-194.941696 339.324799 -22.331701 -0.031358
-181.458389 339.324799 -22.331701 -0.049619
-167.975098 339.324799 -22.331701 -0.066548
-154.491791 339.324799 -22.331701 -0.095410
-141.008499 339.324799 -22.331701 -0.126008
-127.525192 339.324799 -22.331701 -0.130184
-114.041885 339.324799 -22.331701 -0.156229
-100.558594 339.324799 -22.331701 -0.173768
-87.075287 339.324799 -22.331701 -0.168576
-73.591980 339.324799 -22.331701 -0.165916
-60.108704 339.324799 -22.331701 -0.172930
-46.625397 339.324799 -22.331701 -0.183493
-33.142090 339.324799 -22.331701 -0.170269
-19.658783 339.324799 -22.331701 -0.126067
-6.175476 339.324799 -22.331701 -0.107312
7.307800 339.324799 -22.331701 -0.083749
20.791107 339.324799 -22.331701 -0.065705
34.274414 339.324799 -22.331701 -0.051145
47.757721 339.324799 -22.331701 -0.044183
61.240997 339.324799 -22.331701 -0.040392
74.724304 339.324799 -22.331701 -0.039040
88.207611 339.324799 -22.331701 -0.044394
101.690918 339.324799 -22.331701 -0.059477
115.174225 339.324799 -22.331701 -0.089971
128.657501 339.324799 -22.331701 -0.130166
142.140808 339.324799 -22.331701 -0.144749
155.624115 339.324799 -22.331701 -0.147505
169.107422 339.324799 -22.331701 -0.154725
182.590698 339.324799 -22.331701 -0.163518
196.074036 339.324799 -22.331701 -0.134451
209.557312 339.324799 -22.331701 -0.113475
223.040588 339.324799 -22.331701 -0.085663
236.523926 339.324799 -22.331701 -0.048103
250.007202 339.324799 -22.331701 -0.030473
263.490540 339.324799 -22.331701 -0.033222
276.973816 339.324799 -22.331701 -0.024811
290.457092 339.324799 -22.331701 0.000000
303.940430 339.324799 -22.331701 0.000000
317.423706 339.324799 -22.331701 0.000000
330.907043 339.324799 -22.331701 0.000000
344.390320 339.324799 -22.331701 0.000000
-343.257996 325.841492 -22.331701 0.000000
-329.774689 325.841492 -22.331701 0.000000
-316.291382 325.841492 -22.331701 -0.002800
-302.808105 325.841492 -22.331701 -0.002456
-289.324799 325.841492 -22.331701 -0.001341
-275.841492 325.841492 -22.331701 -0.001423
-262.358185 325.841492 -22.331701 -0.002129
-248.874893 325.841492 -22.331701 -0.002236
-235.391602 325.841492 -22.331701 -0.004104
-221.908295 325.841492 -22.331701 -0.010518
-208.424988 325.841492 -22.331701 -0.024675
-194.941696 325.841492 -22.331701 -0.032201
-181.458389 325.841492 -22.331701 -0.055471
-167.975098 325.841492 -22.331701 -0.083025
-154.491791 325.841492 -22.331701 -0.097780
-141.008499 325.841492 -22.331701 -0.111407
-127.525192 325.841492 -22.331701 -0.107350
-114.041885 325.841492 -22.331701 -0.119968
-100.558594 325.841492 -22.331701 -0.138231
-87.075287 325.841492 -22.331701 -0.148666
-73.591980 325.841492 -22.331701 -0.146785
-60.108704 325.841492 -22.331701 -0.138171
-46.625397 325.841492 -22.331701 -0.146635
-33.142090 325.841492 -22.331701 -0.153996
-19.658783 325.841492 -22.331701 -0.135619
-6.175476 325.841492 -22.331701 -0.114945
7.307800 325.841492 -22.331701 -0.089735
20.791107 325.841492 -22.331701 -0.071489
34.274414 325.841492 -22.331701 -0.057312
47.757721 325.841492 -22.331701 -0.049480
61.240997 325.841492 -22.331701 -0.047093
74.724304 325.841492 -22.331701 -0.043810
88.207611 325.841492 -22.331701 -0.061320
101.690918 325.841492 -22.331701 -0.100494
115.174225 325.841492 -22.331701 -0.130117
128.657501 325.841492 -22.331701 -0.171916
142.140808 325.841492 -22.331701 -0.167867
155.624115 325.841492 -22.331701 -0.183707
169.107422 325.841492 -22.331701 -0.186168
182.590698 325.841492 -22.331701 -0.183544
196.074036 325.841492 -22.331701 -0.163988
209.557312 325.841492 -22.331701 -0.132438
223.040588 325.841492 -22.331701 -0.103619
236.523926 325.841492 -22.331701 -0.064224
250.007202 325.841492 -22.331701 -0.038422
263.490540 325.841492 -22.331701 -0.031851
276.973816 325.841492 -22.331701 -0.015541
290.457092 325.841492 -22.331701 0.000000
303.940430 325.841492 -22.331701 0.000000
317.423706 325.841492 -22.331701 0.000000
330.907043 325.841492 -22.331701 0.000000
344.390320 325.841492 -22.331701 0.000000
-343.257996 312.358185 -22.331701 0.000000
-329.774689 312.358185 -22.331701 0.000000
-316.291382 312.358185 -22.331701 -0.001874
-302.808105 312.358185 -22.331701 -0.001653
-289.324799 312.358185 -22.331701 -0.000367
-275.841492 312.358185 -22.331701 -0.000047
-262.358185 312.358185 -22.331701 -0.000749
-248.874893 312.358185 -22.331701 -0.003577
-235.391602 312.358185 -22.331701 -0.007446
-221.908295 312.358185 -22.331701 -0.013852
-208.424988 312.358185 -22.331701 -0.024222
-194.941696 312.358185 -22.331701 -0.037998
-181.458389 312.358185 -22.331701 -0.054099
-167.975098 312.358185 -22.331701 -0.081579
-154.491791 312.358185 -22.331701 -0.093133
-141.008499 312.358185 -22.331701 -0.100091
-127.525192 312.358185 -22.331701 -0.100142
-114.041885 312.358185 -22.331701 -0.099784
-100.558594 312.358185 -22.331701 -0.112748
-87.075287 312.358185 -22.331701 -0.127307
-73.591980 312.358185 -22.331701 -0.123195
-60.108704 312.358185 -22.331701 -0.107351
-46.625397 312.358185 -22.331701 -0.120004
-33.142090 312.358185 -22.331701 -0.115525
-19.658783 312.358185 -22.331701 -0.115077
-6.175476 312.358185 -22.331701 -0.110270
7.307800 312.358185 -22.331701 -0.097297
20.791107 312.358185 -22.331701 -0.076238
34.274414 312.358185 -22.331701 -0.056471
47.757721 312.358185 -22.331701 -0.057700
61.240997 312.358185 -22.331701 -0.061410
74.724304 312.358185 -22.331701 -0.062533
88.207611 312.358185 -22.331701 -0.094218
101.690918 312.358185 -22.331701 -0.134106
115.174225 312.358185 -22.331701 -0.169913
128.657501 312.358185 -22.331701 -0.189826
142.140808 312.358185 -22.331701 -0.204381
155.624115 312.358185 -22.331701 -0.190047
169.107422 312.358185 -22.331701 -0.192530
182.590698 312.358185 -22.331701 -0.171070
196.074036 312.358185 -22.331701 -0.166458
209.557312 312.358185 -22.331701 -0.141604
223.040588 312.358185 -22.331701 -0.114881
236.523926 312.358185 -22.331701 -0.077376
250.007202 312.358185 -22.331701 -0.054181
263.490540 312.358185 -22.331701 -0.032178
276.973816 312.358185 -22.331701 -0.018262
290.457092 312.358185 -22.331701 -0.013371
303.940430 312.358185 -22.331701 0.000000
317.423706 312.358185 -22.331701 0.000000
330.907043 312.358185 -22.331701 0.000000
344.390320 312.358185 -22.331701 0.000000
-343.257996 298.874878 -22.331701 0.000000
-329.774689 298.874878 -22.331701 0.000000
-316.291382 298.874878 -22.331701 -0.001596
-302.808105 298.874878 -22.331701 -0.000959
-289.324799 298.874878 -22.331701 0.000171
-275.841492 298.874878 -22.331701 -0.000518
-262.358185 298.874878 -22.331701 -0.000937
-248.874893 298.874878 -22.331701 -0.003377
-235.391602 298.874878 -22.331701 -0.007543
-221.908295 298.874878 -22.331701 -0.011273
-208.424988 298.874878 -22.331701 -0.018536
-194.941696 298.874878 -22.331701 -0.036173
-181.458389 298.874878 -22.331701 -0.052872
-167.975098 298.874878 -22.331701 -0.071901
-154.491791 298.874878 -22.331701 -0.086708
-141.008499 298.874878 -22.331701 -0.092071
-127.525192 298.874878 -22.331701 -0.097393
-114.041885 298.874878 -22.331701 -0.109039
-100.558594 298.874878 -22.331701 -0.112030
-87.075287 298.874878 -22.331701 -0.109373
-73.591980 298.874878 -22.331701 -0.113431
-60.108704 298.874878 -22.331701 -0.101264
-46.625397 298.874878 -22.331701 -0.092242
-33.142090 298.874878 -22.331701 -0.093746
-19.658783 298.874878 -22.331701 -0.101513
-6.175476 298.874878 -22.331701 -0.098505
7.307800 298.874878 -22.331701 -0.097862
20.791107 298.874878 -22.331701 -0.088749
34.274414 298.874878 -22.331701 -0.066031
47.757721 298.874878 -22.331701 -0.066106
61.240997 298.874878 -22.331701 -0.063845
74.724304 298.874878 -22.331701 -0.077603
88.207611 298.874878 -22.331701 -0.109806
101.690918 298.874878 -22.331701 -0.167715
115.174225 298.874878 -22.331701 -0.192691
128.657501 298.874878 -22.331701 -0.201459
142.140808 298.874878 -22.331701 -0.194538
155.624115 298.874878 -22.331701 -0.168697
169.107422 298.874878 -22.331701 -0.167205
182.590698 298.874878 -22.331701 -0.153207
196.074036 298.874878 -22.331701 -0.148734
209.557312 298.874878 -22.331701 -0.136557
223.040588 298.874878 -22.331701 -0.119365
236.523926 298.874878 -22.331701 -0.078162
250.007202 298.874878 -22.331701 -0.048662
263.490540 298.874878 -22.331701 -0.032715
276.973816 298.874878 -22.331701 -0.020908
290.457092 298.874878 -22.331701 -0.007413
303.940430 298.874878 -22.331701 0.000000
317.423706 298.874878 -22.331701 0.000000
330.907043 298.874878 -22.331701 0.000000
344.390320 298.874878 -22.331701 0.000000
-343.257996 285.391602 -22.331701 0.000000
-329.774689 285.391602 -22.331701 0.000000
-316.291382 285.391602 -22.331701 -0.001538
-302.808105 285.391602 -22.331701 -0.000955
-289.324799 285.391602 -22.331701 -0.000516
-275.841492 285.391602 -22.331701 0.000100
-262.358185 285.391602 -22.331701 -0.000379
-248.874893 285.391602 -22.331701 -0.000929
-235.391602 285.391602 -22.331701 -0.005690
-221.908295 285.391602 -22.331701 -0.011869
-208.424988 285.391602 -22.331701 -0.023514
-194.941696 285.391602 -22.331701 -0.042291
-181.458389 285.391602 -22.331701 -0.055229
-167.975098 285.391602 -22.331701 -0.064433
-154.491791 285.391602 -22.331701 -0.076889
-141.008499 285.391602 -22.331701 -0.078106
-127.525192 285.391602 -22.331701 -0.086057
-114.041885 285.391602 -22.331701 -0.093286
-100.558594 285.391602 -22.331701 -0.102932
-87.075287 285.391602 -22.331701 -0.105405
-73.591980 285.391602 -22.331701 -0.111911
-60.108704 285.391602 -22.331701 -0.089435
-46.625397 285.391602 -22.331701 -0.081703
-33.142090 285.391602 -22.331701 -0.080000
-19.658783 285.391602 -22.331701 -0.083809
-6.175476 285.391602 -22.331701 -0.086310
7.307800 285.391602 -22.331701 -0.093183
20.791107 285.391602 -22.331701 -0.093133
34.274414 285.391602 -22.331701 -0.086563
47.757721 285.391602 -22.331701 -0.075083
61.240997 285.391602 -22.331701 -0.081798
74.724304 285.391602 -22.331701 -0.106114
88.207611 285.391602 -22.331701 -0.151233
101.690918 285.391602 -22.331701 -0.189258
115.174225 285.391602 -22.331701 -0.187585
128.657501 285.391602 -22.331701 -0.170091
142.140808 285.391602 -22.331701 -0.163935
155.624115 285.391602 -22.331701 -0.141892
169.107422 285.391602 -22.331701 -0.128993
182.590698 285.391602 -22.331701 -0.115109
196.074036 285.391602 -22.331701 -0.115216
209.557312 285.391602 -22.331701 -0.107489
223.040588 285.391602 -22.331701 -0.096350
236.523926 285.391602 -22.331701 -0.079060
250.007202 285.391602 -22.331701 -0.052155
263.490540 285.391602 -22.331701 -0.032910
276.973816 285.391602 -22.331701 -0.017270
290.457092 285.391602 -22.331701 -0.005716
303.940430 285.391602 -22.331701 -0.004925
317.423706 285.391602 -22.331701 0.000000
330.907043 285.391602 -22.331701 0.000000
344.390320 285.391602 -22.331701 0.000000
-343.257996 271.908295 -22.331701 0.000000
-329.774689 271.908295 -22.331701 0.000000
-316.291382 271.908295 -22.331701 -0.001210
-302.808105 271.908295 -22.331701 -0.000746
-289.324799 271.908295 -22.331701 0.000005
-275.841492 271.908295 -22.331701 -0.000064
-262.358185 271.908295 -22.331701 -0.000947
-248.874893 271.908295 -22.331701 -0.000526
-235.391602 271.908295 -22.331701 -0.005627
-221.908295 271.908295 -22.331701 -0.010081
-208.424988 271.908295 -22.331701 -0.024773
-194.941696 271.908295 -22.331701 -0.036306
-181.458389 271.908295 -22.331701 -0.050884
-167.975098 271.908295 -22.331701 -0.059654
-154.491791 271.908295 -22.331701 -0.066801
-141.008499 271.908295 -22.331701 -0.077946
-127.525192 271.908295 -22.331701 -0.083231
-114.041885 271.908295 -22.331701 -0.079613
-100.558594 271.908295 -22.331701 -0.094264
-87.075287 271.908295 -22.331701 -0.098754
-73.591980 271.908295 -22.331701 -0.097884
-60.108704 271.908295 -22.331701 -0.081570
-46.625397 271.908295 -22.331701 -0.065849
-33.142090 271.908295 -22.331701 -0.062018
-19.658783 271.908295 -22.331701 -0.062187
-6.175476 271.908295 -22.331701 -0.068956
7.307800 271.908295 -22.331701 -0.080229
20.791107 271.908295 -22.331701 -0.094874
34.274414 271.908295 -22.331701 -0.089976
47.757721 271.908295 -22.331701 -0.093061
61.240997 271.908295 -22.331701 -0.104172
74.724304 271.908295 -22.331701 -0.137082
88.207611 271.908295 -22.331701 -0.158229
101.690918 271.908295 -22.331701 -0.180613
115.174225 271.908295 -22.331701 -0.186074
128.657501 271.908295 -22.331701 -0.162160
142.140808 271.908295 -22.331701 -0.118234
155.624115 271.908295 -22.331701 -0.097602
169.107422 271.908295 -22.331701 -0.087355
182.590698 271.908295 -22.331701 -0.090156
196.074036 271.908295 -22.331701 -0.083078
209.557312 271.908295 -22.331701 -0.074723
223.040588 271.908295 -22.331701 -0.074146
236.523926 271.908295 -22.331701 -0.075420
250.007202 271.908295 -22.331701 -0.052946
263.490540 271.908295 -22.331701 -0.025218
276.973816 271.908295 -22.331701 -0.012221
290.457092 271.908295 -22.331701 -0.003771
303.940430 271.908295 -22.331701 -0.002038
317.423706 271.908295 -22.331701 0.000000
330.907043 271.908295 -22.331701 0.000000
344.390320 271.908295 -22.331701 0.000000
-343.257996 258.424988 -22.331701 0.000000
-329.774689 258.424988 -22.331701 0.000000
-316.291382 258.424988 -22.331701 -0.001493
-302.808105 258.424988 -22.331701 -0.000991
-289.324799 258.424988 -22.331701 -0.000741
-275.841492 258.424988 -22.331701 -0.000017
-262.358185 258.424988 -22.331701 0.000026
-248.874893 258.424988 -22.331701 0.000028
-235.391602 258.424988 -22.331701 -0.007992
-221.908295 258.424988 -22.331701 -0.017543
-208.424988 258.424988 -22.331701 -0.030751
-194.941696 258.424988 -22.331701 -0.042095
-181.458389 258.424988 -22.331701 -0.054576
-167.975098 258.424988 -22.331701 -0.056717
-154.491791 258.424988 -22.331701 -0.063782
-141.008499 258.424988 -22.331701 -0.073068
-127.525192 258.424988 -22.331701 -0.084315
-114.041885 258.424988 -22.331701 -0.081798
-100.558594 258.424988 -22.331701 -0.093000
-87.075287 258.424988 -22.331701 -0.083313
-73.591980 258.424988 -22.331701 -0.084094
-60.108704 258.424988 -22.331701 -0.069758
-46.625397 258.424988 -22.331701 -0.067880
-33.142090 258.424988 -22.331701 -0.058539
-19.658783 258.424988 -22.331701 -0.062803
-6.175476 258.424988 -22.331701 -0.074037
7.307800 258.424988 -22.331701 -0.085091
20.791107 258.424988 -22.331701 -0.093321
34.274414 258.424988 -22.331701 -0.099992
47.757721 258.424988 -22.331701 -0.103672
61.240997 258.424988 -22.331701 -0.115523
74.724304 258.424988 -22.331701 -0.136926
88.207611 258.424988 -22.331701 -0.158095
101.690918 258.424988 -22.331701 -0.159998
115.174225 258.424988 -22.331701 -0.135329
128.657501 258.424988 -22.331701 -0.088831
142.140808 258.424988 -22.331701 -0.066957
155.624115 258.424988 -22.331701 -0.061507
169.107422 258.424988 -22.331701 -0.066741
182.590698 258.424988 -22.331701 -0.070119
196.074036 258.424988 -22.331701 -0.067154
209.557312 258.424988 -22.331701 -0.056253
223.040588 258.424988 -22.331701 -0.056453
236.523926 258.424988 -22.331701 -0.056125
250.007202 258.424988 -22.331701 -0.038481
263.490540 258.424988 -22.331701 -0.019273
276.973816 258.424988 -22.331701 -0.010372
290.457092 258.424988 -22.331701 -0.003484
303.940430 258.424988 -22.331701 -0.000901
317.423706 258.424988 -22.331701 0.000000
330.907043 258.424988 -22.331701 0.000000
344.390320 258.424988 -22.331701 0.000000
-343.257996 244.941696 -22.331701 0.000000
-329.774689 244.941696 -22.331701 0.000000
-316.291382 244.941696 -22.331701 -0.002355
-302.808105 244.941696 -22.331701 -0.001417
-289.324799 244.941696 -22.331701 -0.001499
-275.841492 244.941696 -22.331701 -0.000190
-262.358185 244.941696 -22.331701 0.000365
-248.874893 244.941696 -22.331701 -0.003242
-235.391602 244.941696 -22.331701 -0.009303
-221.908295 244.941696 -22.331701 -0.021330
-208.424988 244.941696 -22.331701 -0.032337
-194.941696 244.941696 -22.331701 -0.047265
-181.458389 244.941696 -22.331701 -0.062340
-167.975098 244.941696 -22.331701 -0.063916
-154.491791 244.941696 -22.331701 -0.060926
-141.008499 244.941696 -22.331701 -0.072196
-127.525192 244.941696 -22.331701 -0.082456
-114.041885 244.941696 -22.331701 -0.081940
-100.558594 244.941696 -22.331701 -0.094769
-87.075287 244.941696 -22.331701 -0.093399
-73.591980 244.941696 -22.331701 -0.079749
-60.108704 244.941696 -22.331701 -0.059065
-46.625397 244.941696 -22.331701 -0.056195
-33.142090 244.941696 -22.331701 -0.055744
-19.658783 244.941696 -22.331701 -0.055204
-6.175476 244.941696 -22.331701 -0.063422
7.307800 244.941696 -22.331701 -0.084385
20.791107 244.941696 -22.331701 -0.087898
34.274414 244.941696 -22.331701 -0.096616
47.757721 244.941696 -22.331701 0.000000
61.240997 244.941696 -22.331701 -0.113615
74.724304 244.941696 -22.331701 -0.124188
88.207611 244.941696 -22.331701 -0.139291
101.690918 244.941696 -22.331701 -0.119259
115.174225 244.941696 -22.331701 -0.068231
128.657501 244.941696 -22.331701 -0.051567
142.140808 244.941696 -22.331701 -0.029343
155.624115 244.941696 -22.331701 -0.029364
169.107422 244.941696 -22.331701 -0.043118
182.590698 244.941696 -22.331701 -0.045909
196.074036 244.941696 -22.331701 -0.043907
209.557312 244.941696 -22.331701 -0.045680
223.040588 244.941696 -22.331701 -0.044049
236.523926 244.941696 -22.331701 -0.035757
250.007202 244.941696 -22.331701 -0.031582
263.490540 244.941696 -22.331701 -0.017094
276.973816 244.941696 -22.331701 -0.007408
290.457092 244.941696 -22.331701 -0.001792
303.940430 244.941696 -22.331701 -0.000954
317.423706 244.941696 -22.331701 -0.000932
330.907043 244.941696 -22.331701 0.000000
344.390320 244.941696 -22.331701 0.000000
-343.257996 231.458389 -22.331701 0.000000
-329.774689 231.458389 -22.331701 0.000000
-316.291382 231.458389 -22.331701 -0.002904
-302.808105 231.458389 -22.331701 -0.001822
-289.324799 231.458389 -22.331701 -0.000741
-275.841492 231.458389 -22.331701 -0.000257
-262.358185 231.458389 -22.331701 -0.000574
-248.874893 231.458389 -22.331701 -0.006569
-235.391602 231.458389 -22.331701 -0.015008
-221.908295 231.458389 -22.331701 -0.026328
-208.424988 231.458389 -22.331701 -0.031996
-194.941696 231.458389 -22.331701 -0.040413
-181.458389 231.458389 -22.331701 -0.053512
-167.975098 231.458389 -22.331701 -0.054233
-154.491791 231.458389 -22.331701 -0.061559
-141.008499 231.458389 -22.331701 -0.070972
-127.525192 231.458389 -22.331701 -0.072646
-114.041885 231.458389 -22.331701 -0.083226
-100.558594 231.458389 -22.331701 -0.086955
-87.075287 231.458389 -22.331701 -0.077363
-73.591980 231.458389 -22.331701 -0.066778
-60.108704 231.458389 -22.331701 -0.052893
-46.625397 231.458389 -22.331701 -0.049177
-33.142090 231.458389 -22.331701 -0.047330
-19.658783 231.458389 -22.331701 -0.048755
-6.175476 231.458389 -22.331701 -0.061999
7.307800 231.458389 -22.331701 -0.080427
20.791107 231.458389 -22.331701 -0.084556
34.274414 231.458389 -22.331701 -0.086909
47.757721 231.458389 -22.331701 -0.104324
61.240997 231.458389 -22.331701 0.000000
74.724304 231.458389 -22.331701 -0.092614
88.207611 231.458389 -22.331701 -0.088103
101.690918 231.458389 -22.331701 -0.062639
115.174225 231.458389 -22.331701 -0.020820
128.657501 231.458389 -22.331701 0.000000
142.140808 231.458389 -22.331701 0.001402
155.624115 231.458389 -22.331701 -0.010099
169.107422 231.458389 -22.331701 -0.006614
182.590698 231.458389 -22.331701 -0.015193
196.074036 231.458389 -22.331701 -0.026123
209.557312 231.458389 -22.331701 -0.020088
223.040588 231.458389 -22.331701 -0.024613
236.523926 231.458389 -22.331701 -0.026537
250.007202 231.458389 -22.331701 -0.031256
263.490540 231.458389 -22.331701 -0.015052
276.973816 231.458389 -22.331701 -0.004638
290.457092 231.458389 -22.331701 -0.002067
303.940430 231.458389 -22.331701 -0.001701
317.423706 231.458389 -22.331701 -0.001671
330.907043 231.458389 -22.331701 0.000000
344.390320 231.458389 -22.331701 0.000000
-343.257996 217.975098 -22.331701 0.000000
-329.774689 217.975098 -22.331701 0.000000
-316.291382 217.975098 -22.331701 -0.001623
-302.808105 217.975098 -22.331701 -0.001096
-289.324799 217.975098 -22.331701 0.000383
-275.841492 217.975098 -22.331701 0.001675
-262.358185 217.975098 -22.331701 0.000072
-248.874893 217.975098 -22.331701 -0.005881
-235.391602 217.975098 -22.331701 -0.012922
-221.908295 217.975098 -22.331701 -0.015237
-208.424988 217.975098 -22.331701 -0.030616
-194.941696 217.975098 -22.331701 -0.032994
-181.458389 217.975098 -22.331701 -0.039434
-167.975098 217.975098 -22.331701 -0.052577
-154.491791 217.975098 -22.331701 -0.062161
-141.008499 217.975098 -22.331701 -0.077946
-127.525192 217.975098 -22.331701 -0.073497
-114.041885 217.975098 -22.331701 -0.077652
-100.558594 217.975098 -22.331701 -0.081941
-87.075287 217.975098 -22.331701 -0.070585
-73.591980 217.975098 -22.331701 -0.047647
-60.108704 217.975098 -22.331701 -0.038914
-46.625397 217.975098 -22.331701 -0.033892
-33.142090 217.975098 -22.331701 -0.035771
-19.658783 217.975098 -22.331701 -0.035247
-6.175476 217.975098 -22.331701 -0.046480
7.307800 217.975098 -22.331701 -0.064568
20.791107 217.975098 -22.331701 -0.059329
34.274414 217.975098 -22.331701 -0.075382
47.757721 217.975098 -22.331701 -0.082630
61.240997 217.975098 -22.331701 -0.070139
74.724304 217.975098 -22.331701 -0.055400
88.207611 217.975098 -22.331701 -0.025243
101.690918 217.975098 -22.331701 -0.012197
115.174225 217.975098 -22.331701 0.025789
128.657501 217.975098 -22.331701 0.037584
142.140808 217.975098 -22.331701 0.026065
155.624115 217.975098 -22.331701 0.019949
169.107422 217.975098 -22.331701 0.009838
182.590698 217.975098 -22.331701 -0.000979
196.074036 217.975098 -22.331701 -0.004622
209.557312 217.975098 -22.331701 -0.009667
223.040588 217.975098 -22.331701 -0.013917
236.523926 217.975098 -22.331701 -0.017055
250.007202 217.975098 -22.331701 -0.020061
263.490540 217.975098 -22.331701 -0.009193
276.973816 217.975098 -22.331701 -0.002036
290.457092 217.975098 -22.331701 -0.001718
303.940430 217.975098 -22.331701 -0.002359
317.423706 217.975098 -22.331701 -0.002329
330.907043 217.975098 -22.331701 0.000000
344.390320 217.975098 -22.331701 0.000000
-343.257996 204.491791 -22.331701 0.000000
-329.774689 204.491791 -22.331701 0.000000
-316.291382 204.491791 -22.331701 -0.000686
-302.808105 204.491791 -22.331701 -0.000143
-289.324799 204.491791 -22.331701 0.001568
-275.841492 204.491791 -22.331701 0.001279
-262.358185 204.491791 -22.331701 0.000597
-248.874893 204.491791 -22.331701 -0.002726
-235.391602 204.491791 -22.331701 -0.008590
-221.908295 204.491791 -22.331701 -0.012702
-208.424988 204.491791 -22.331701 -0.020567
-194.941696 204.491791 -22.331701 -0.024657
-181.458389 204.491791 -22.331701 -0.023376
-167.975098 204.491791 -22.331701 -0.049500
-154.491791 204.491791 -22.331701 -0.063046
-141.008499 204.491791 -22.331701 -0.069932
-127.525192 204.491791 -22.331701 -0.081340
-114.041885 204.491791 -22.331701 -0.089992
-100.558594 204.491791 -22.331701 -0.072132
-87.075287 204.491791 -22.331701 -0.062601
-73.591980 204.491791 -22.331701 -0.039551
-60.108704 204.491791 -22.331701 -0.034928
-46.625397 204.491791 -22.331701 -0.025042
-33.142090 204.491791 -22.331701 -0.030900
-19.658783 204.491791 -22.331701 -0.033945
-6.175476 204.491791 -22.331701 -0.045241
7.307800 204.491791 -22.331701 -0.045273
20.791107 204.491791 -22.331701 -0.040686
34.274414 204.491791 -22.331701 -0.046290
47.757721 204.491791 -22.331701 -0.049861
61.240997 204.491791 -22.331701 -0.027501
74.724304 204.491791 -22.331701 -0.012183
88.207611 204.491791 -22.331701 0.009435
101.690918 204.491791 -22.331701 0.037117
115.174225 204.491791 -22.331701 0.058744
128.657501 204.491791 -22.331701 0.063215
142.140808 204.491791 -22.331701 0.042075
155.624115 204.491791 -22.331701 0.039232
169.107422 204.491791 -22.331701 0.029444
182.590698 204.491791 -22.331701 0.016832
196.074036 204.491791 -22.331701 0.002951
209.557312 204.491791 -22.331701 -0.000354
223.040588 204.491791 -22.331701 -0.005711
236.523926 204.491791 -22.331701 -0.016338
250.007202 204.491791 -22.331701 -0.010453
263.490540 204.491791 -22.331701 -0.010387
276.973816 204.491791 -22.331701 -0.005179
290.457092 204.491791 -22.331701 -0.002673
303.940430 204.491791 -22.331701 -0.003084
317.423706 204.491791 -22.331701 -0.002721
330.907043 204.491791 -22.331701 0.000000
344.390320 204.491791 -22.331701 0.000000
-343.257996 191.008499 -22.331701 0.000000
-329.774689 191.008499 -22.331701 0.000000
-316.291382 191.008499 -22.331701 0.000361
-302.808105 191.008499 -22.331701 0.000444
-289.324799 191.008499 -22.331701 0.000965
-275.841492 191.008499 -22.331701 0.001505
-262.358185 191.008499 -22.331701 -0.001498
-248.874893 191.008499 -22.331701 -0.001730
-235.391602 191.008499 -22.331701 -0.010576
-221.908295 191.008499 -22.331701 -0.006196
-208.424988 191.008499 -22.331701 -0.006016
-194.941696 191.008499 -22.331701 -0.007397
-181.458389 191.008499 -22.331701 -0.020578
-167.975098 191.008499 -22.331701 -0.041125
-154.491791 191.008499 -22.331701 -0.068722
-141.008499 191.008499 -22.331701 -0.072863
-127.525192 191.008499 -22.331701 -0.083955
-114.041885 191.008499 -22.331701 -0.076110
-100.558594 191.008499 -22.331701 -0.080651
-87.075287 191.008499 -22.331701 -0.056492
-73.591980 191.008499 -22.331701 -0.039613
-60.108704 191.008499 -22.331701 -0.037823
-46.625397 191.008499 -22.331701 -0.023191
-33.142090 191.008499 -22.331701 -0.025059
-19.658783 191.008499 -22.331701 -0.024141
-6.175476 191.008499 -22.331701 -0.034077
7.307800 191.008499 -22.331701 -0.027411
20.791107 191.008499 -22.331701 -0.031572
34.274414 191.008499 -22.331701 -0.031529
47.757721 191.008499 -22.331701 -0.014141
61.240997 191.008499 -22.331701 0.001675
74.724304 191.008499 -22.331701 0.015359
88.207611 191.008499 -22.331701 0.044308
101.690918 191.008499 -22.331701 0.061752
115.174225 191.008499 -22.331701 0.083759
128.657501 191.008499 -22.331701 0.085483
142.140808 191.008499 -22.331701 0.069184
155.624115 191.008499 -22.331701 0.057206
169.107422 191.008499 -22.331701 0.042335
182.590698 191.008499 -22.331701 0.023029
196.074036 191.008499 -22.331701 0.011209
209.557312 191.008499 -22.331701 0.009592
223.040588 191.008499 -22.331701 -0.001959
236.523926 191.008499 -22.331701 -0.010648
250.007202 191.008499 -22.331701 -0.013355
263.490540 191.008499 -22.331701 -0.007457
276.973816 191.008499 -22.331701 -0.004714
290.457092 191.008499 -22.331701 -0.003026
303.940430 191.008499 -22.331701 -0.003339
317.423706 191.008499 -22.331701 -0.002806
330.907043 191.008499 -22.331701 0.000000
344.390320 191.008499 -22.331701 0.000000
-343.257996 177.525192 -22.331701 0.000000
-329.774689 177.525192 -22.331701 0.000000
-316.291382 177.525192 -22.331701 0.000466
-302.808105 177.525192 -22.331701 0.000646
-289.324799 177.525192 -22.331701 0.001625
-275.841492 177.525192 -22.331701 0.001316
-262.358185 177.525192 -22.331701 -0.000385
-248.874893 177.525192 -22.331701 -0.003491
-235.391602 177.525192 -22.331701 -0.014092
-221.908295 177.525192 -22.331701 -0.002383
-208.424988 177.525192 -22.331701 -0.004762
-194.941696 177.525192 -22.331701 -0.004168
-181.458389 177.525192 -22.331701 -0.011209
-167.975098 177.525192 -22.331701 -0.038333
-154.491791 177.525192 -22.331701 -0.071994
-141.008499 177.525192 -22.331701 -0.078305
-127.525192 177.525192 -22.331701 -0.105229
-114.041885 177.525192 -22.331701 -0.096879
-100.558594 177.525192 -22.331701 -0.069688
-87.075287 177.525192 -22.331701 -0.063450
-73.591980 177.525192 -22.331701 -0.039000
-60.108704 177.525192 -22.331701 -0.029421
-46.625397 177.525192 -22.331701 -0.016793
-33.142090 177.525192 -22.331701 -0.023046
-19.658783 177.525192 -22.331701 -0.020747
-6.175476 177.525192 -22.331701 -0.017534
7.307800 177.525192 -22.331701 -0.018461
20.791107 177.525192 -22.331701 -0.007011
34.274414 177.525192 -22.331701 0.008749
47.757721 177.525192 -22.331701 0.025273
61.240997 177.525192 -22.331701 0.033308
74.724304 177.525192 -22.331701 0.045619
88.207611 177.525192 -22.331701 0.068192
101.690918 177.525192 -22.331701 0.075150
115.174225 177.525192 -22.331701 0.090010
128.657501 177.525192 -22.331701 0.087781
142.140808 177.525192 -22.331701 0.082543
155.624115 177.525192 -22.331701 0.063977
169.107422 177.525192 -22.331701 0.050589
182.590698 177.525192 -22.331701 0.032175
196.074036 177.525192 -22.331701 0.025553
209.557312 177.525192 -22.331701 0.018989
223.040588 177.525192 -22.331701 0.008171
236.523926 177.525192 -22.331701 -0.003073
250.007202 177.525192 -22.331701 -0.002558
263.490540 177.525192 -22.331701 -0.003977
276.973816 177.525192 -22.331701 -0.004819
290.457092 177.525192 -22.331701 -0.004442
303.940430 177.525192 -22.331701 -0.003653
317.423706 177.525192 -22.331701 -0.002841
330.907043 177.525192 -22.331701 0.000000
344.390320 177.525192 -22.331701 0.000000
-343.257996 164.041885 -22.331701 0.000000
-329.774689 164.041885 -22.331701 0.000000
-316.291382 164.041885 -22.331701 0.000910
-302.808105 164.041885 -22.331701 0.001074
-289.324799 164.041885 -22.331701 0.001017
-275.841492 164.041885 -22.331701 -0.000025
-262.358185 164.041885 -22.331701 -0.001677
-248.874893 164.041885 -22.331701 -0.008461
-235.391602 164.041885 -22.331701 -0.011180
-221.908295 164.041885 -22.331701 -0.011833
-208.424988 164.041885 -22.331701 -0.021827
-194.941696 164.041885 -22.331701 -0.014795
-181.458389 164.041885 -22.331701 -0.021069
-167.975098 164.041885 -22.331701 -0.047311
-154.491791 164.041885 -22.331701 -0.063530
-141.008499 164.041885 -22.331701 -0.078933
-127.525192 164.041885 -22.331701 -0.106937
-114.041885 164.041885 -22.331701 -0.080136
-100.558594 164.041885 -22.331701 -0.049650
-87.075287 164.041885 -22.331701 -0.053435
-73.591980 164.041885 -22.331701 -0.033039
-60.108704 164.041885 -22.331701 -0.019698
-46.625397 164.041885 -22.331701 -0.014150
-33.142090 164.041885 -22.331701 -0.015232
-19.658783 164.041885 -22.331701 -0.008908
-6.175476 164.041885 -22.331701 -0.014701
7.307800 164.041885 -22.331701 -0.000574
20.791107 164.041885 -22.331701 0.024652
34.274414 164.041885 -22.331701 0.032823
47.757721 164.041885 -22.331701 0.053610
61.240997 164.041885 -22.331701 0.071176
74.724304 164.041885 -22.331701 0.074189
88.207611 164.041885 -22.331701 0.081960
101.690918 164.041885 -22.331701 0.083831
115.174225 164.041885 -22.331701 0.086254
128.657501 164.041885 -22.331701 0.083046
142.140808 164.041885 -22.331701 0.075120
155.624115 164.041885 -22.331701 0.065744
169.107422 164.041885 -22.331701 0.049475
182.590698 164.041885 -22.331701 0.032807
196.074036 164.041885 -22.331701 0.017151
209.557312 164.041885 -22.331701 0.010247
223.040588 164.041885 -22.331701 0.009030
236.523926 164.041885 -22.331701 0.003635
250.007202 164.041885 -22.331701 -0.001525
263.490540 164.041885 -22.331701 -0.002690
276.973816 164.041885 -22.331701 -0.003856
290.457092 164.041885 -22.331701 -0.004280
303.940430 164.041885 -22.331701 -0.003456
317.423706 164.041885 -22.331701 -0.002577
330.907043 164.041885 -22.331701 0.000000
344.390320 164.041885 -22.331701 0.000000
-343.257996 150.558594 -22.331701 0.000000
-329.774689 150.558594 -22.331701 0.000000
-316.291382 150.558594 -22.331701 0.001235
-302.808105 150.558594 -22.331701 0.001805
-289.324799 150.558594 -22.331701 0.000907
-275.841492 150.558594 -22.331701 0.000600
-262.358185 150.558594 -22.331701 -0.002261
-248.874893 150.558594 -22.331701 -0.010109
-235.391602 150.558594 -22.331701 -0.014085
-221.908295 150.558594 -22.331701 -0.021705
-208.424988 150.558594 -22.331701 -0.031031
-194.941696 150.558594 -22.331701 -0.034107
-181.458389 150.558594 -22.331701 -0.032964
-167.975098 150.558594 -22.331701 -0.062114
-154.491791 150.558594 -22.331701 -0.072851
-141.008499 150.558594 -22.331701 -0.064972
-127.525192 150.558594 -22.331701 -0.064251
-114.041885 150.558594 -22.331701 -0.065650
-100.558594 150.558594 -22.331701 -0.036314
-87.075287 150.558594 -22.331701 -0.039016
-73.591980 150.558594 -22.331701 -0.050318
-60.108704 150.558594 -22.331701 -0.021527
-46.625397 150.558594 -22.331701 -0.014764
-33.142090 150.558594 -22.331701 -0.011151
-19.658783 150.558594 -22.331701 -0.006607
-6.175476 150.558594 -22.331701 0.005995
7.307800 150.558594 -22.331701 0.019003
20.791107 150.558594 -22.331701 0.051316
34.274414 150.558594 -22.331701 0.062638
47.757721 150.558594 -22.331701 0.075175
61.240997 150.558594 -22.331701 0.105599
74.724304 150.558594 -22.331701 0.117524
88.207611 150.558594 -22.331701 0.114361
101.690918 150.558594 -22.331701 0.098896
115.174225 150.558594 -22.331701 0.086768
128.657501 150.558594 -22.331701 0.081957
142.140808 150.558594 -22.331701 0.068187
155.624115 150.558594 -22.331701 0.063680
169.107422 150.558594 -22.331701 0.052115
182.590698 150.558594 -22.331701 0.032730
196.074036 150.558594 -22.331701 0.021459
209.557312 150.558594 -22.331701 0.015339
223.040588 150.558594 -22.331701 0.007274
236.523926 150.558594 -22.331701 0.002264
250.007202 150.558594 -22.331701 -0.001352
263.490540 150.558594 -22.331701 -0.002934
276.973816 150.558594 -22.331701 -0.003707
290.457092 150.558594 -22.331701 -0.004072
303.940430 150.558594 -22.331701 -0.003212
317.423706 150.558594 -22.331701 -0.002108
330.907043 150.558594 -22.331701 0.000000
344.390320 150.558594 -22.331701 0.000000
-343.257996 137.075287 -22.331701 0.000000
-329.774689 137.075287 -22.331701 0.000000
-316.291382 137.075287 -22.331701 0.001796
-302.808105 137.075287 -22.331701 0.002015
-289.324799 137.075287 -22.331701 0.001429
-275.841492 137.075287 -22.331701 0.000582
-262.358185 137.075287 -22.331701 -0.002547
-248.874893 137.075287 -22.331701 -0.007712
-235.391602 137.075287 -22.331701 -0.021748
-221.908295 137.075287 -22.331701 -0.036626
-208.424988 137.075287 -22.331701 -0.052445
-194.941696 137.075287 -22.331701 -0.075653
-181.458389 137.075287 -22.331701 -0.077929
-167.975098 137.075287 -22.331701 -0.090110
-154.491791 137.075287 -22.331701 -0.073161
-141.008499 137.075287 -22.331701 -0.060952
-127.525192 137.075287 -22.331701 -0.038965
-114.041885 137.075287 -22.331701 -0.051870
-100.558594 137.075287 -22.331701 -0.029949
-87.075287 137.075287 -22.331701 -0.036408
-73.591980 137.075287 -22.331701 -0.021185
-60.108704 137.075287 -22.331701 -0.013833
-46.625397 137.075287 -22.331701 -0.020452
-33.142090 137.075287 -22.331701 -0.004578
-19.658783 137.075287 -22.331701 0.005182
-6.175476 137.075287 -22.331701 0.016320
7.307800 137.075287 -22.331701 0.048999
20.791107 137.075287 -22.331701 0.071089
34.274414 137.075287 -22.331701 0.099193
47.757721 137.075287 -22.331701 0.112826
61.240997 137.075287 -22.331701 0.134111
74.724304 137.075287 -22.331701 0.143165
88.207611 137.075287 -22.331701 0.134582
101.690918 137.075287 -22.331701 0.112500
115.174225 137.075287 -22.331701 0.095013
128.657501 137.075287 -22.331701 0.087565
142.140808 137.075287 -22.331701 0.084951
155.624115 137.075287 -22.331701 0.069503
169.107422 137.075287 -22.331701 0.049874
182.590698 137.075287 -22.331701 0.036934
196.074036 137.075287 -22.331701 0.024357
209.557312 137.075287 -22.331701 0.012933
223.040588 137.075287 -22.331701 0.007835
236.523926 137.075287 -22.331701 0.001803
250.007202 137.075287 -22.331701 -0.000439
263.490540 137.075287 -22.331701 -0.000101
276.973816 137.075287 -22.331701 -0.002338
290.457092 137.075287 -22.331701 -0.003501
303.940430 137.075287 -22.331701 -0.002449
317.423706 137.075287 -22.331701 -0.001462
330.907043 137.075287 -22.331701 0.000000
344.390320 137.075287 -22.331701 0.000000
-343.257996 123.591980 -22.331701 0.000000
-329.774689 123.591980 -22.331701 0.000000
-316.291382 123.591980 -22.331701 0.001913
-302.808105 123.591980 -22.331701 0.001369
-289.324799 123.591980 -22.331701 0.000282
-275.841492 123.591980 -22.331701 -0.001323
-262.358185 123.591980 -22.331701 -0.005088
-248.874893 123.591980 -22.331701 -0.011774
-235.391602 123.591980 -22.331701 -0.031518
-221.908295 123.591980 -22.331701 -0.052761
-208.424988 123.591980 -22.331701 -0.061101
-194.941696 123.591980 -22.331701 -0.096594
-181.458389 123.591980 -22.331701 -0.118220
-167.975098 123.591980 -22.331701 -0.108944
-154.491791 123.591980 -22.331701 -0.082133
-141.008499 123.591980 -22.331701 -0.039562
-127.525192 123.591980 -22.331701 -0.031450
-114.041885 123.591980 -22.331701 -0.025229
-100.558594 123.591980 -22.331701 -0.000440
-87.075287 123.591980 -22.331701 -0.018175
-73.591980 123.591980 -22.331701 -0.014826
-60.108704 123.591980 -22.331701 -0.020408
-46.625397 123.591980 -22.331701 -0.008377
-33.142090 123.591980 -22.331701 -0.000655
-19.658783 123.591980 -22.331701 0.008591
-6.175476 123.591980 -22.331701 0.024150
7.307800 123.591980 -22.331701 0.062384
20.791107 123.591980 -22.331701 0.082067
34.274414 123.591980 -22.331701 0.116902
47.757721 123.591980 -22.331701 0.143561
61.240997 123.591980 -22.331701 0.152326
74.724304 123.591980 -22.331701 0.156946
88.207611 123.591980 -22.331701 0.138104
101.690918 123.591980 -22.331701 0.109516
115.174225 123.591980 -22.331701 0.099091
128.657501 123.591980 -22.331701 0.090968
142.140808 123.591980 -22.331701 0.080014
155.624115 123.591980 -22.331701 0.064768
169.107422 123.591980 -22.331701 0.047121
182.590698 123.591980 -22.331701 0.035555
196.074036 123.591980 -22.331701 0.019173
209.557312 123.591980 -22.331701 0.012656
223.040588 123.591980 -22.331701 0.004005
236.523926 123.591980 -22.331701 0.000695
250.007202 123.591980 -22.331701 0.000731
263.490540 123.591980 -22.331701 0.000110
276.973816 123.591980 -22.331701 -0.001225
290.457092 123.591980 -22.331701 -0.001894
303.940430 123.591980 -22.331701 -0.001754
317.423706 123.591980 -22.331701 -0.001156
330.907043 123.591980 -22.331701 0.000000
344.390320 123.591980 -22.331701 0.000000
-343.257996 110.108704 -22.331701 0.000000
-329.774689 110.108704 -22.331701 0.000000
-316.291382 110.108704 -22.331701 0.002124
-302.808105 110.108704 -22.331701 0.001162
-289.324799 110.108704 -22.331701 0.000393
-275.841492 110.108704 -22.331701 -0.001238
-262.358185 110.108704 -22.331701 -0.004029
-248.874893 110.108704 -22.331701 -0.013934
-235.391602 110.108704 -22.331701 -0.032322
-221.908295 110.108704 -22.331701 -0.054284
-208.424988 110.108704 -22.331701 -0.070777
-194.941696 110.108704 -22.331701 -0.113998
-181.458389 110.108704 -22.331701 -0.126988
-167.975098 110.108704 -22.331701 -0.133460
-154.491791 110.108704 -22.331701 -0.109325
-141.008499 110.108704 -22.331701 -0.077261
-127.525192 110.108704 -22.331701 -0.048075
-114.041885 110.108704 -22.331701 -0.039141
-100.558594 110.108704 -22.331701 -0.022312
-87.075287 110.108704 -22.331701 -0.024614
-73.591980 110.108704 -22.331701 -0.009299
-60.108704 110.108704 -22.331701 -0.011333
-46.625397 110.108704 -22.331701 -0.003369
-33.142090 110.108704 -22.331701 -0.006403
-19.658783 110.108704 -22.331701 0.014619
-6.175476 110.108704 -22.331701 0.028649
7.307800 110.108704 -22.331701 0.060467
20.791107 110.108704 -22.331701 0.097174
34.274414 110.108704 -22.331701 0.124186
47.757721 110.108704 -22.331701 0.140872
61.240997 110.108704 -22.331701 0.143108
74.724304 110.108704 -22.331701 0.134274
88.207611 110.108704 -22.331701 0.117076
101.690918 110.108704 -22.331701 0.110994
115.174225 110.108704 -22.331701 0.101448
128.657501 110.108704 -22.331701 0.089701
142.140808 110.108704 -22.331701 0.073492
155.624115 110.108704 -22.331701 0.060502
169.107422 110.108704 -22.331701 0.047559
182.590698 110.108704 -22.331701 0.026264
196.074036 110.108704 -22.331701 0.013232
209.557312 110.108704 -22.331701 0.005538
223.040588 110.108704 -22.331701 0.004307
236.523926 110.108704 -22.331701 0.002045
250.007202 110.108704 -22.331701 0.001776
263.490540 110.108704 -22.331701 0.000301
276.973816 110.108704 -22.331701 -0.000115
290.457092 110.108704 -22.331701 -0.000959
303.940430 110.108704 -22.331701 -0.000891
317.423706 110.108704 -22.331701 -0.000798
330.907043 110.108704 -22.331701 0.000000
344.390320 110.108704 -22.331701 0.000000
-343.257996 96.625397 -22.331701 0.000000
-329.774689 96.625397 -22.331701 0.000000
-316.291382 96.625397 -22.331701 0.001434
-302.808105 96.625397 -22.331701 0.001149
-289.324799 96.625397 -22.331701 0.000717
-275.841492 96.625397 -22.331701 -0.001479
-262.358185 96.625397 -22.331701 -0.005818
-248.874893 96.625397 -22.331701 -0.018451
-235.391602 96.625397 -22.331701 -0.030977
-221.908295 96.625397 -22.331701 -0.058952
-208.424988 96.625397 -22.331701 -0.070627
-194.941696 96.625397 -22.331701 -0.121426
-181.458389 96.625397 -22.331701 -0.144654
-167.975098 96.625397 -22.331701 -0.128786
-154.491791 96.625397 -22.331701 -0.090971
-141.008499 96.625397 -22.331701 -0.066151
-127.525192 96.625397 -22.331701 -0.058635
-114.041885 96.625397 -22.331701 -0.033452
-100.558594 96.625397 -22.331701 -0.009655
-87.075287 96.625397 -22.331701 -0.011324
-73.591980 96.625397 -22.331701 -0.011492
-60.108704 96.625397 -22.331701 -0.008626
-46.625397 96.625397 -22.331701 -0.002819
-33.142090 96.625397 -22.331701 0.012014
-19.658783 96.625397 -22.331701 0.019206
-6.175476 96.625397 -22.331701 0.036030
7.307800 96.625397 -22.331701 0.060179
20.791107 96.625397 -22.331701 0.088558
34.274414 96.625397 -22.331701 0.104883
47.757721 96.625397 -22.331701 0.122621
61.240997 96.625397 -22.331701 0.117682
74.724304 96.625397 -22.331701 0.099545
88.207611 96.625397 -22.331701 0.091590
101.690918 96.625397 -22.331701 0.090550
115.174225 96.625397 -22.331701 0.072922
128.657501 96.625397 -22.331701 0.057158
142.140808 96.625397 -22.331701 0.050927
155.624115 96.625397 -22.331701 0.042659
169.107422 96.625397 -22.331701 0.031395
182.590698 96.625397 -22.331701 0.021526
196.074036 96.625397 -22.331701 0.011037
209.557312 96.625397 -22.331701 0.005536
223.040588 96.625397 -22.331701 0.003170
236.523926 96.625397 -22.331701 0.001650
250.007202 96.625397 -22.331701 0.001678
263.490540 96.625397 -22.331701 0.000909
276.973816 96.625397 -22.331701 0.000368
290.457092 96.625397 -22.331701 -0.000337
303.940430 96.625397 -22.331701 -0.000147
317.423706 96.625397 -22.331701 -0.000071
330.907043 96.625397 -22.331701 0.000000
344.390320 96.625397 -22.331701 0.000000
-343.257996 83.142090 -22.331701 0.000000
-329.774689 83.142090 -22.331701 0.000000
-316.291382 83.142090 -22.331701 0.000022
-302.808105 83.142090 -22.331701 -0.000295
-289.324799 83.142090 -22.331701 -0.000547
-275.841492 83.142090 -22.331701 -0.001180
-262.358185 83.142090 -22.331701 -0.007000
-248.874893 83.142090 -22.331701 -0.019759
-235.391602 83.142090 -22.331701 -0.039393
-221.908295 83.142090 -22.331701 -0.065145
-208.424988 83.142090 -22.331701 -0.082429
-194.941696 83.142090 -22.331701 -0.114997
-181.458389 83.142090 -22.331701 -0.125527
-167.975098 83.142090 -22.331701 -0.121035
-154.491791 83.142090 -22.331701 -0.097803
-141.008499 83.142090 -22.331701 -0.068199
-127.525192 83.142090 -22.331701 -0.051303
-114.041885 83.142090 -22.331701 -0.020497
-100.558594 83.142090 -22.331701 -0.005336
-87.075287 83.142090 -22.331701 0.006109
-73.591980 83.142090 -22.331701 -0.005958
-60.108704 83.142090 -22.331701 -0.000817
-46.625397 83.142090 -22.331701 0.008588
-33.142090 83.142090 -22.331701 0.022290
-19.658783 83.142090 -22.331701 0.022652
-6.175476 83.142090 -22.331701 0.036828
7.307800 83.142090 -22.331701 0.070872
20.791107 83.142090 -22.331701 0.090750
34.274414 83.142090 -22.331701 0.095765
47.757721 83.142090 -22.331701 0.080031
61.240997 83.142090 -22.331701 0.067589
74.724304 83.142090 -22.331701 0.056819
88.207611 83.142090 -22.331701 0.051578
101.690918 83.142090 -22.331701 0.043819
115.174225 83.142090 -22.331701 0.041648
128.657501 83.142090 -22.331701 0.035970
142.140808 83.142090 -22.331701 0.032194
155.624115 83.142090 -22.331701 0.022496
169.107422 83.142090 -22.331701 0.016892
182.590698 83.142090 -22.331701 0.016033
196.074036 83.142090 -22.331701 0.010699
209.557312 83.142090 -22.331701 0.006473
223.040588 83.142090 -22.331701 0.003744
236.523926 83.142090 -22.331701 0.001921
250.007202 83.142090 -22.331701 0.002555
263.490540 83.142090 -22.331701 0.001447
276.973816 83.142090 -22.331701 0.000806
290.457092 83.142090 -22.331701 0.000475
303.940430 83.142090 -22.331701 0.000263
317.423706 83.142090 -22.331701 0.000412
330.907043 83.142090 -22.331701 0.000000
344.390320 83.142090 -22.331701 0.000000
-343.257996 69.658783 -22.331701 0.000000
-329.774689 69.658783 -22.331701 0.000000
-316.291382 69.658783 -22.331701 -0.000162
-302.808105 69.658783 -22.331701 -0.000257
-289.324799 69.658783 -22.331701 -0.001129
-275.841492 69.658783 -22.331701 -0.002557
-262.358185 69.658783 -22.331701 -0.008862
-248.874893 69.658783 -22.331701 -0.020795
-235.391602 69.658783 -22.331701 -0.032845
-221.908295 69.658783 -22.331701 -0.066111
-208.424988 69.658783 -22.331701 -0.076689
-194.941696 69.658783 -22.331701 -0.074293
-181.458389 69.658783 -22.331701 -0.097151
-167.975098 69.658783 -22.331701 -0.087402
-154.491791 69.658783 -22.331701 -0.086870
-141.008499 69.658783 -22.331701 -0.047061
-127.525192 69.658783 -22.331701 -0.010424
-114.041885 69.658783 -22.331701 0.009502
-100.558594 69.658783 -22.331701 -0.000253
-87.075287 69.658783 -22.331701 0.004310
-73.591980 69.658783 -22.331701 0.006130
-60.108704 69.658783 -22.331701 0.009568
-46.625397 69.658783 -22.331701 0.019318
-33.142090 69.658783 -22.331701 0.020378
-19.658783 69.658783 -22.331701 0.032375
-6.175476 69.658783 -22.331701 0.045203
7.307800 69.658783 -22.331701 0.071532
20.791107 69.658783 -22.331701 0.089421
34.274414 69.658783 -22.331701 0.065545
47.757721 69.658783 -22.331701 0.048384
61.240997 69.658783 -22.331701 0.034599
74.724304 69.658783 -22.331701 0.020448
88.207611 69.658783 -22.331701 0.017337
101.690918 69.658783 -22.331701 0.017049
115.174225 69.658783 -22.331701 0.014584
128.657501 69.658783 -22.331701 0.014953
142.140808 69.658783 -22.331701 0.012306
155.624115 69.658783 -22.331701 0.006967
169.107422 69.658783 -22.331701 0.009296
182.590698 69.658783 -22.331701 0.010099
196.074036 69.658783 -22.331701 0.008775
209.557312 69.658783 -22.331701 0.006712
223.040588 69.658783 -22.331701 0.004237
236.523926 69.658783 -22.331701 0.002906
250.007202 69.658783 -22.331701 0.002379
263.490540 69.658783 -22.331701 0.001580
276.973816 69.658783 -22.331701 0.000811
290.457092 69.658783 -22.331701 0.000924
303.940430 69.658783 -22.331701 0.000469
317.423706 69.658783 -22.331701 0.000484
330.907043 69.658783 -22.331701 0.000000
344.390320 69.658783 -22.331701 0.000000
-343.257996 56.175476 -22.331701 0.000000
-329.774689 56.175476 -22.331701 0.000000
-316.291382 56.175476 -22.331701 0.000283
-302.808105 56.175476 -22.331701 0.000037
-289.324799 56.175476 -22.331701 -0.001284
-275.841492 56.175476 -22.331701 -0.002552
-262.358185 56.175476 -22.331701 -0.005975
-248.874893 56.175476 -22.331701 -0.016505
-235.391602 56.175476 -22.331701 -0.031057
-221.908295 56.175476 -22.331701 -0.050320
-208.424988 56.175476 -22.331701 -0.081087
-194.941696 56.175476 -22.331701 -0.079176
-181.458389 56.175476 -22.331701 -0.075167
-167.975098 56.175476 -22.331701 -0.062165
-154.491791 56.175476 -22.331701 -0.052170
-141.008499 56.175476 -22.331701 -0.037109
-127.525192 56.175476 -22.331701 -0.003445
-114.041885 56.175476 -22.331701 0.013121
-100.558594 56.175476 -22.331701 0.015796
-87.075287 56.175476 -22.331701 0.015909
-73.591980 56.175476 -22.331701 0.010729
-60.108704 56.175476 -22.331701 0.010854
-46.625397 56.175476 -22.331701 0.023188
-33.142090 56.175476 -22.331701 0.021818
-19.658783 56.175476 -22.331701 0.032176
-6.175476 56.175476 -22.331701 0.050177
7.307800 56.175476 -22.331701 0.067565
20.791107 56.175476 -22.331701 0.074497
34.274414 56.175476 -22.331701 0.046734
47.757721 56.175476 -22.331701 0.027457
61.240997 56.175476 -22.331701 0.004118
74.724304 56.175476 -22.331701 -0.002308
88.207611 56.175476 -22.331701 -0.004878
101.690918 56.175476 -22.331701 0.003062
115.174225 56.175476 -22.331701 -0.000131
128.657501 56.175476 -22.331701 0.000238
142.140808 56.175476 -22.331701 -0.000558
155.624115 56.175476 -22.331701 0.001630
169.107422 56.175476 -22.331701 0.002986
182.590698 56.175476 -22.331701 0.005191
196.074036 56.175476 -22.331701 0.006196
209.557312 56.175476 -22.331701 0.006597
223.040588 56.175476 -22.331701 0.004433
236.523926 56.175476 -22.331701 0.003311
250.007202 56.175476 -22.331701 0.002101
263.490540 56.175476 -22.331701 0.001070
276.973816 56.175476 -22.331701 0.000513
290.457092 56.175476 -22.331701 0.000440
303.940430 56.175476 -22.331701 0.000359
317.423706 56.175476 -22.331701 0.000170
330.907043 56.175476 -22.331701 0.000000
344.390320 56.175476 -22.331701 0.000000
-343.257996 42.692200 -22.331701 0.000000
-329.774689 42.692200 -22.331701 0.000000
-316.291382 42.692200 -22.331701 0.000052
-302.808105 42.692200 -22.331701 0.000351
-289.324799 42.692200 -22.331701 -0.001374
-275.841492 42.692200 -22.331701 -0.002511
-262.358185 42.692200 -22.331701 -0.002660
-248.874893 42.692200 -22.331701 -0.012909
-235.391602 42.692200 -22.331701 -0.022404
-221.908295 42.692200 -22.331701 -0.047229
-208.424988 42.692200 -22.331701 -0.070533
-194.941696 42.692200 -22.331701 -0.078397
-181.458389 42.692200 -22.331701 -0.075709
-167.975098 42.692200 -22.331701 -0.043383
-154.491791 42.692200 -22.331701 -0.028865
-141.008499 42.692200 -22.331701 -0.029090
-127.525192 42.692200 -22.331701 -0.014400
-114.041885 42.692200 -22.331701 0.000863
-100.558594 42.692200 -22.331701 0.011867
-87.075287 42.692200 -22.331701 0.013550
-73.591980 42.692200 -22.331701 0.008075
-60.108704 42.692200 -22.331701 0.009977
-46.625397 42.692200 -22.331701 0.017534
-33.142090 42.692200 -22.331701 0.024327
-19.658783 42.692200 -22.331701 0.021161
-6.175476 42.692200 -22.331701 0.040425
7.307800 42.692200 -22.331701 0.054364
20.791107 42.692200 -22.331701 0.058457
34.274414 42.692200 -22.331701 0.038529
47.757721 42.692200 -22.331701 0.013181
61.240997 42.692200 -22.331701 0.001004
74.724304 42.692200 -22.331701 -0.011005
88.207611 42.692200 -22.331701 -0.011805
101.690918 42.692200 -22.331701 -0.017212
115.174225 42.692200 -22.331701 -0.015923
128.657501 42.692200 -22.331701 -0.011229
142.140808 42.692200 -22.331701 -0.008281
155.624115 42.692200 -22.331701 -0.006916
169.107422 42.692200 -22.331701 -0.001789
182.590698 42.692200 -22.331701 0.003335
196.074036 42.692200 -22.331701 0.006026
209.557312 42.692200 -22.331701 0.006895
223.040588 42.692200 -22.331701 0.004696
236.523926 42.692200 -22.331701 0.003251
250.007202 42.692200 -22.331701 0.002055
263.490540 42.692200 -22.331701 0.000969
276.973816 42.692200 -22.331701 0.000180
290.457092 42.692200 -22.331701 0.000032
303.940430 42.692200 -22.331701 -0.000122
317.423706 42.692200 -22.331701 -0.000213
330.907043 42.692200 -22.331701 0.000000
344.390320 42.692200 -22.331701 0.000000
-343.257996 29.208893 -22.331701 0.000000
-329.774689 29.208893 -22.331701 0.000000
-316.291382 29.208893 -22.331701 0.000703
-302.808105 29.208893 -22.331701 0.000684
-289.324799 29.208893 -22.331701 0.000955
-275.841492 29.208893 -22.331701 0.001188
-262.358185 29.208893 -22.331701 -0.001020
-248.874893 29.208893 -22.331701 -0.004231
-235.391602 29.208893 -22.331701 -0.018784
-221.908295 29.208893 -22.331701 -0.019496
-208.424988 29.208893 -22.331701 -0.065395
-194.941696 29.208893 -22.331701 -0.069588
-181.458389 29.208893 -22.331701 -0.070738
-167.975098 29.208893 -22.331701 -0.036662
-154.491791 29.208893 -22.331701 -0.026042
-141.008499 29.208893 -22.331701 -0.016061
-127.525192 29.208893 -22.331701 0.000369
-114.041885 29.208893 -22.331701 0.018420
-100.558594 29.208893 -22.331701 0.018470
-87.075287 29.208893 -22.331701 0.011179
-73.591980 29.208893 -22.331701 0.008665
-60.108704 29.208893 -22.331701 0.013867
-46.625397 29.208893 -22.331701 0.016225
-33.142090 29.208893 -22.331701 0.019350
-19.658783 29.208893 -22.331701 0.027978
-6.175476 29.208893 -22.331701 0.041080
7.307800 29.208893 -22.331701 0.053337
20.791107 29.208893 -22.331701 0.043542
34.274414 29.208893 -22.331701 0.038539
47.757721 29.208893 -22.331701 0.028664
61.240997 29.208893 -22.331701 0.015417
74.724304 29.208893 -22.331701 0.004316
88.207611 29.208893 -22.331701 -0.008426
101.690918 29.208893 -22.331701 -0.019018
115.174225 29.208893 -22.331701 -0.023099
128.657501 29.208893 -22.331701 -0.015698
142.140808 29.208893 -22.331701 -0.011393
155.624115 29.208893 -22.331701 -0.012912
169.107422 29.208893 -22.331701 -0.007264
182.590698 29.208893 -22.331701 0.000690
196.074036 29.208893 -22.331701 0.005532
209.557312 29.208893 -22.331701 0.006911
223.040588 29.208893 -22.331701 0.005567
236.523926 29.208893 -22.331701 0.003505
250.007202 29.208893 -22.331701 0.001636
263.490540 29.208893 -22.331701 0.000435
276.973816 29.208893 -22.331701 -0.000154
290.457092 29.208893 -22.331701 -0.000345
303.940430 29.208893 -22.331701 -0.000656
317.423706 29.208893 -22.331701 -0.000435
330.907043 29.208893 -22.331701 0.000000
344.390320 29.208893 -22.331701 0.000000
-343.257996 15.725586 -22.331701 0.000000
-329.774689 15.725586 -22.331701 0.000000
-316.291382 15.725586 -22.331701 0.002416
-302.808105 15.725586 -22.331701 0.002787
-289.324799 15.725586 -22.331701 0.001611
-275.841492 15.725586 -22.331701 0.003412
-262.358185 15.725586 -22.331701 0.004437
-248.874893 15.725586 -22.331701 0.004853
-235.391602 15.725586 -22.331701 -0.006654
-221.908295 15.725586 -22.331701 -0.012107
-208.424988 15.725586 -22.331701 -0.050136
-194.941696 15.725586 -22.331701 -0.051002
-181.458389 15.725586 -22.331701 -0.055806
-167.975098 15.725586 -22.331701 -0.016436
-154.491791 15.725586 -22.331701 0.012684
-141.008499 15.725586 -22.331701 0.027537
-127.525192 15.725586 -22.331701 0.022834
-114.041885 15.725586 -22.331701 0.022311
-100.558594 15.725586 -22.331701 0.032469
-87.075287 15.725586 -22.331701 0.030889
-73.591980 15.725586 -22.331701 0.020739
-60.108704 15.725586 -22.331701 0.018255
-46.625397 15.725586 -22.331701 0.025810
-33.142090 15.725586 -22.331701 0.017131
-19.658783 15.725586 -22.331701 0.029753
-6.175476 15.725586 -22.331701 0.042026
7.307800 15.725586 -22.331701 0.062569
20.791107 15.725586 -22.331701 0.070593
34.274414 15.725586 -22.331701 0.061675
47.757721 15.725586 -22.331701 0.049325
61.240997 15.725586 -22.331701 0.031992
74.724304 15.725586 -22.331701 -0.001904
88.207611 15.725586 -22.331701 -0.001650
101.690918 15.725586 -22.331701 -0.016724
115.174225 15.725586 -22.331701 -0.016878
128.657501 15.725586 -22.331701 -0.014192
142.140808 15.725586 -22.331701 -0.011181
155.624115 15.725586 -22.331701 -0.011790
169.107422 15.725586 -22.331701 -0.006395
182.590698 15.725586 -22.331701 -0.001293
196.074036 15.725586 -22.331701 0.006738
209.557312 15.725586 -22.331701 0.006674
223.040588 15.725586 -22.331701 0.006099
236.523926 15.725586 -22.331701 0.003881
250.007202 15.725586 -22.331701 0.001810
263.490540 15.725586 -22.331701 0.000589
276.973816 15.725586 -22.331701 -0.000207
290.457092 15.725586 -22.331701 -0.000342
303.940430 15.725586 -22.331701 -0.000632
317.423706 15.725586 -22.331701 -0.000734
330.907043 15.725586 -22.331701 0.000000
344.390320 15.725586 -22.331701 0.000000
-343.257996 2.242279 -22.331701 0.000000
-329.774689 2.242279 -22.331701 0.000000
-316.291382 2.242279 -22.331701 0.003218
-302.808105 2.242279 -22.331701 0.003880
-289.324799 2.242279 -22.331701 0.002672
-275.841492 2.242279 -22.331701 0.005903
-262.358185 2.242279 -22.331701 0.008521
-248.874893 2.242279 -22.331701 0.011227
-235.391602 2.242279 -22.331701 0.008813
-221.908295 2.242279 -22.331701 -0.015853
-208.424988 2.242279 -22.331701 -0.035292
-194.941696 2.242279 -22.331701 -0.010097
-181.458389 2.242279 -22.331701 -0.006478
-167.975098 2.242279 -22.331701 0.007645
-154.491791 2.242279 -22.331701 0.043100
-141.008499 2.242279 -22.331701 0.048690
-127.525192 2.242279 -22.331701 0.042739
-114.041885 2.242279 -22.331701 0.043183
-100.558594 2.242279 -22.331701 0.040216
-87.075287 2.242279 -22.331701 0.043114
-73.591980 2.242279 -22.331701 0.041252
-60.108704 2.242279 -22.331701 0.047353
-46.625397 2.242279 -22.331701 0.037539
-33.142090 2.242279 -22.331701 0.047471
-19.658783 2.242279 -22.331701 0.056735
-6.175476 2.242279 -22.331701 0.081892
7.307800 2.242279 -22.331701 0.113377
20.791107 2.242279 -22.331701 0.118393
34.274414 2.242279 -22.331701 0.108475
47.757721 2.242279 -22.331701 0.083292
61.240997 2.242279 -22.331701 0.053879
74.724304 2.242279 -22.331701 0.032255
88.207611 2.242279 -22.331701 0.014980
101.690918 2.242279 -22.331701 0.008208
115.174225 2.242279 -22.331701 0.000115
128.657501 2.242279 -22.331701 -0.002552
142.140808 2.242279 -22.331701 -0.006033
155.624115 2.242279 -22.331701 -0.008456
169.107422 2.242279 -22.331701 -0.005702
182.590698 2.242279 -22.331701 -0.002709
196.074036 2.242279 -22.331701 0.004557
209.557312 2.242279 -22.331701 0.007025
223.040588 2.242279 -22.331701 0.006367
236.523926 2.242279 -22.331701 0.004684
250.007202 2.242279 -22.331701 0.002929
263.490540 2.242279 -22.331701 0.001393
276.973816 2.242279 -22.331701 0.000368
290.457092 2.242279 -22.331701 0.000457
303.940430 2.242279 -22.331701 -0.000112
317.423706 2.242279 -22.331701 -0.000256
330.907043 2.242279 -22.331701 0.000000
344.390320 2.242279 -22.331701 0.000000
-343.257996 -11.240997 -22.331701 0.000000
-329.774689 -11.240997 -22.331701 0.000000
-316.291382 -11.240997 -22.331701 0.004601
-302.808105 -11.240997 -22.331701 0.004063
-289.324799 -11.240997 -22.331701 0.005378
-275.841492 -11.240997 -22.331701 0.010972
-262.358185 -11.240997 -22.331701 0.013249
-248.874893 -11.240997 -22.331701 0.010684
-235.391602 -11.240997 -22.331701 0.002268
-221.908295 -11.240997 -22.331701 0.005790
-208.424988 -11.240997 -22.331701 0.007674
-194.941696 -11.240997 -22.331701 -0.019313
-181.458389 -11.240997 -22.331701 0.011341
-167.975098 -11.240997 -22.331701 0.054189
-154.491791 -11.240997 -22.331701 0.064988
-141.008499 -11.240997 -22.331701 0.076207
-127.525192 -11.240997 -22.331701 0.074294
-114.041885 -11.240997 -22.331701 0.081267
-100.558594 -11.240997 -22.331701 0.060057
-87.075287 -11.240997 -22.331701 0.051225
-73.591980 -11.240997 -22.331701 0.080409
-60.108704 -11.240997 -22.331701 0.084675
-46.625397 -11.240997 -22.331701 0.072976
-33.142090 -11.240997 -22.331701 0.079783
-19.658783 -11.240997 -22.331701 0.112859
-6.175476 -11.240997 -22.331701 0.143751
7.307800 -11.240997 -22.331701 0.174008
20.791107 -11.240997 -22.331701 0.176933
34.274414 -11.240997 -22.331701 0.167144
47.757721 -11.240997 -22.331701 0.139565
61.240997 -11.240997 -22.331701 0.106393
74.724304 -11.240997 -22.331701 0.061607
88.207611 -11.240997 -22.331701 0.037246
101.690918 -11.240997 -22.331701 0.021543
115.174225 -11.240997 -22.331701 0.016545
128.657501 -11.240997 -22.331701 0.006478
142.140808 -11.240997 -22.331701 0.003844
155.624115 -11.240997 -22.331701 -0.000894
169.107422 -11.240997 -22.331701 -0.005136
182.590698 -11.240997 -22.331701 -0.001961
196.074036 -11.240997 -22.331701 0.001592
209.557312 -11.240997 -22.331701 0.005788
223.040588 -11.240997 -22.331701 0.006155
236.523926 -11.240997 -22.331701 0.004974
250.007202 -11.240997 -22.331701 0.003571
263.490540 -11.240997 -22.331701 0.002454
276.973816 -11.240997 -22.331701 0.001384
290.457092 -11.240997 -22.331701 0.000796
303.940430 -11.240997 -22.331701 0.000777
317.423706 -11.240997 -22.331701 0.000795
330.907043 -11.240997 -22.331701 0.000000
344.390320 -11.240997 -22.331701 0.000000
-343.257996 -24.724304 -22.331701 0.000000
-329.774689 -24.724304 -22.331701 0.000000
-316.291382 -24.724304 -22.331701 0.004274
-302.808105 -24.724304 -22.331701 0.006244
-289.324799 -24.724304 -22.331701 0.007881
-275.841492 -24.724304 -22.331701 0.011968
-262.358185 -24.724304 -22.331701 0.014974
-248.874893 -24.724304 -22.331701 0.018951
-235.391602 -24.724304 -22.331701 0.025252
-221.908295 -24.724304 -22.331701 0.022208
-208.424988 -24.724304 -22.331701 0.010274
-194.941696 -24.724304 -22.331701 0.002532
-181.458389 -24.724304 -22.331701 0.037835
-167.975098 -24.724304 -22.331701 0.091868
-154.491791 -24.724304 -22.331701 0.100797
-141.008499 -24.724304 -22.331701 0.105049
-127.525192 -24.724304 -22.331701 0.083537
-114.041885 -24.724304 -22.331701 0.069487
-100.558594 -24.724304 -22.331701 0.060785
-87.075287 -24.724304 -22.331701 0.076576
-73.591980 -24.724304 -22.331701 0.109091
-60.108704 -24.724304 -22.331701 0.113977
-46.625397 -24.724304 -22.331701 0.000000
-33.142090 -24.724304 -22.331701 0.151946
-19.658783 -24.724304 -22.331701 0.185027
-6.175476 -24.724304 -22.331701 0.211459
7.307800 -24.724304 -22.331701 0.250370
20.791107 -24.724304 -22.331701 0.234704
34.274414 -24.724304 -22.331701 0.220472
47.757721 -24.724304 -22.331701 0.167146
61.240997 -24.724304 -22.331701 0.118895
74.724304 -24.724304 -22.331701 0.080107
88.207611 -24.724304 -22.331701 0.055587
101.690918 -24.724304 -22.331701 0.029936
115.174225 -24.724304 -22.331701 0.021126
128.657501 -24.724304 -22.331701 0.019948
142.140808 -24.724304 -22.331701 0.009250
155.624115 -24.724304 -22.331701 0.001731
169.107422 -24.724304 -22.331701 -0.003892
182.590698 -24.724304 -22.331701 -0.002132
196.074036 -24.724304 -22.331701 0.001449
209.557312 -24.724304 -22.331701 0.003946
223.040588 -24.724304 -22.331701 0.005632
236.523926 -24.724304 -22.331701 0.005070
250.007202 -24.724304 -22.331701 0.003409
263.490540 -24.724304 -22.331701 0.002935
276.973816 -24.724304 -22.331701 0.001699
290.457092 -24.724304 -22.331701 0.001306
303.940430 -24.724304 -22.331701 0.001620
317.423706 -24.724304 -22.331701 0.001516
330.907043 -24.724304 -22.331701 0.000000
344.390320 -24.724304 -22.331701 0.000000
-343.257996 -38.207611 -22.331701 0.000000
-329.774689 -38.207611 -22.331701 0.000000
-316.291382 -38.207611 -22.331701 0.002298
-302.808105 -38.207611 -22.331701 0.006012
-289.324799 -38.207611 -22.331701 0.009457
-275.841492 -38.207611 -22.331701 0.017422
-262.358185 -38.207611 -22.331701 0.008204
-248.874893 -38.207611 -22.331701 0.012631
-235.391602 -38.207611 -22.331701 0.028653
-221.908295 -38.207611 -22.331701 0.032118
-208.424988 -38.207611 -22.331701 0.045685
-194.941696 -38.207611 -22.331701 0.036279
-181.458389 -38.207611 -22.331701 0.078816
-167.975098 -38.207611 -22.331701 0.110739
-154.491791 -38.207611 -22.331701 0.125275
-141.008499 -38.207611 -22.331701 0.123797
-127.525192 -38.207611 -22.331701 0.086321
-114.041885 -38.207611 -22.331701 0.093199
-100.558594 -38.207611 -22.331701 0.082877
-87.075287 -38.207611 -22.331701 0.114963
-73.591980 -38.207611 -22.331701 0.139028
-60.108704 -38.207611 -22.331701 0.182071
-46.625397 -38.207611 -22.331701 0.200512
-33.142090 -38.207611 -22.331701 0.203112
-19.658783 -38.207611 -22.331701 0.260040
-6.175476 -38.207611 -22.331701 0.293535
7.307800 -38.207611 -22.331701 0.313285
20.791107 -38.207611 -22.331701 0.297916
34.274414 -38.207611 -22.331701 0.248845
47.757721 -38.207611 -22.331701 0.165290
61.240997 -38.207611 -22.331701 0.108432
74.724304 -38.207611 -22.331701 0.081245
88.207611 -38.207611 -22.331701 0.056698
101.690918 -38.207611 -22.331701 0.031211
115.174225 -38.207611 -22.331701 0.023784
128.657501 -38.207611 -22.331701 0.019949
142.140808 -38.207611 -22.331701 0.009219
155.624115 -38.207611 -22.331701 -0.000941
169.107422 -38.207611 -22.331701 -0.002538
182.590698 -38.207611 -22.331701 -0.001670
196.074036 -38.207611 -22.331701 -0.001132
209.557312 -38.207611 -22.331701 0.002113
223.040588 -38.207611 -22.331701 0.003984
236.523926 -38.207611 -22.331701 0.003982
250.007202 -38.207611 -22.331701 0.003135
263.490540 -38.207611 -22.331701 0.002484
276.973816 -38.207611 -22.331701 0.002296
290.457092 -38.207611 -22.331701 0.001635
303.940430 -38.207611 -22.331701 0.001836
317.423706 -38.207611 -22.331701 0.001941
330.907043 -38.207611 -22.331701 0.000000
344.390320 -38.207611 -22.331701 0.000000
-343.257996 -51.690918 -22.331701 0.000000
-329.774689 -51.690918 -22.331701 0.000000
-316.291382 -51.690918 -22.331701 0.000000
-302.808105 -51.690918 -22.331701 0.004826
-289.324799 -51.690918 -22.331701 0.008883
-275.841492 -51.690918 -22.331701 0.011651
-262.358185 -51.690918 -22.331701 0.011256
-248.874893 -51.690918 -22.331701 0.025993
-235.391602 -51.690918 -22.331701 0.036133
-221.908295 -51.690918 -22.331701 0.040061
-208.424988 -51.690918 -22.331701 0.093974
-194.941696 -51.690918 -22.331701 0.088368
-181.458389 -51.690918 -22.331701 0.088748
-167.975098 -51.690918 -22.331701 0.096876
-154.491791 -51.690918 -22.331701 0.129738
-141.008499 -51.690918 -22.331701 0.108063
-127.525192 -51.690918 -22.331701 0.102586
-114.041885 -51.690918 -22.331701 0.107169
-100.558594 -51.690918 -22.331701 0.131825
-87.075287 -51.690918 -22.331701 0.152634
-73.591980 -51.690918 -22.331701 0.209516
-60.108704 -51.690918 -22.331701 0.248671
-46.625397 -51.690918 -22.331701 0.245367
-33.142090 -51.690918 -22.331701 0.244801
-19.658783 -51.690918 -22.331701 0.293939
-6.175476 -51.690918 -22.331701 0.333742
7.307800 -51.690918 -22.331701 0.324162
20.791107 -51.690918 -22.331701 0.289352
34.274414 -51.690918 -22.331701 0.236229
47.757721 -51.690918 -22.331701 0.152623
61.240997 -51.690918 -22.331701 0.097630
74.724304 -51.690918 -22.331701 0.070697
88.207611 -51.690918 -22.331701 0.046063
101.690918 -51.690918 -22.331701 0.031527
115.174225 -51.690918 -22.331701 0.026823
128.657501 -51.690918 -22.331701 0.020907
142.140808 -51.690918 -22.331701 0.009846
155.624115 -51.690918 -22.331701 0.001639
169.107422 -51.690918 -22.331701 -0.000385
182.590698 -51.690918 -22.331701 -0.003099
196.074036 -51.690918 -22.331701 -0.002053
209.557312 -51.690918 -22.331701 0.000383
223.040588 -51.690918 -22.331701 0.002204
236.523926 -51.690918 -22.331701 0.001825
250.007202 -51.690918 -22.331701 0.002404
263.490540 -51.690918 -22.331701 0.002420
276.973816 -51.690918 -22.331701 0.002010
290.457092 -51.690918 -22.331701 0.001630
303.940430 -51.690918 -22.331701 0.001936
317.423706 -51.690918 -22.331701 0.002541
330.907043 -51.690918 -22.331701 0.000000
344.390320 -51.690918 -22.331701 0.000000
-343.257996 -65.174225 -22.331701 0.000000
-329.774689 -65.174225 -22.331701 0.000000
-316.291382 -65.174225 -22.331701 0.000000
-302.808105 -65.174225 -22.331701 0.000000
-289.324799 -65.174225 -22.331701 0.006603
-275.841492 -65.174225 -22.331701 0.000000
-262.358185 -65.174225 -22.331701 0.000000
-248.874893 -65.174225 -22.331701 0.000000
-235.391602 -65.174225 -22.331701 0.000000
-221.908295 -65.174225 -22.331701 0.039035
-208.424988 -65.174225 -22.331701 0.072163
-194.941696 -65.174225 -22.331701 0.057617
-181.458389 -65.174225 -22.331701 0.066002
-167.975098 -65.174225 -22.331701 0.059861
-154.491791 -65.174225 -22.331701 0.097247
-141.008499 -65.174225 -22.331701 0.128140
-127.525192 -65.174225 -22.331701 0.132508
-114.041885 -65.174225 -22.331701 0.160140
-100.558594 -65.174225 -22.331701 0.174032
-87.075287 -65.174225 -22.331701 0.220584
-73.591980 -65.174225 -22.331701 0.249898
-60.108704 -65.174225 -22.331701 0.274064
-46.625397 -65.174225 -22.331701 0.284716
-33.142090 -65.174225 -22.331701 0.290826
-19.658783 -65.174225 -22.331701 0.300937
-6.175476 -65.174225 -22.331701 0.324282
7.307800 -65.174225 -22.331701 0.305108
20.791107 -65.174225 -22.331701 0.260922
34.274414 -65.174225 -22.331701 0.180671
47.757721 -65.174225 -22.331701 0.124001
61.240997 -65.174225 -22.331701 0.084768
74.724304 -65.174225 -22.331701 0.059511
88.207611 -65.174225 -22.331701 0.029970
101.690918 -65.174225 -22.331701 0.018848
115.174225 -65.174225 -22.331701 0.016131
128.657501 -65.174225 -22.331701 0.010233
142.140808 -65.174225 -22.331701 0.005194
155.624115 -65.174225 -22.331701 0.000379
169.107422 -65.174225 -22.331701 -0.001081
182.590698 -65.174225 -22.331701 -0.000418
196.074036 -65.174225 -22.331701 -0.000503
209.557312 -65.174225 -22.331701 0.000003
223.040588 -65.174225 -22.331701 -0.000197
236.523926 -65.174225 -22.331701 0.000755
250.007202 -65.174225 -22.331701 0.001304
263.490540 -65.174225 -22.331701 0.001670
276.973816 -65.174225 -22.331701 0.001449
290.457092 -65.174225 -22.331701 0.001603
303.940430 -65.174225 -22.331701 0.002073
317.423706 -65.174225 -22.331701 0.002697
330.907043 -65.174225 -22.331701 0.000000
344.390320 -65.174225 -22.331701 0.000000
-343.257996 -78.657501 -22.331701 0.000000
-329.774689 -78.657501 -22.331701 0.000000
-316.291382 -78.657501 -22.331701 0.000000
-302.808105 -78.657501 -22.331701 0.000000
-289.324799 -78.657501 -22.331701 0.000000
-275.841492 -78.657501 -22.331701 0.000000
-262.358185 -78.657501 -22.331701 0.000000
-248.874893 -78.657501 -22.331701 0.000000
-235.391602 -78.657501 -22.331701 0.000000
-221.908295 -78.657501 -22.331701 0.000000
-208.424988 -78.657501 -22.331701 0.024832
-194.941696 -78.657501 -22.331701 0.040377
-181.458389 -78.657501 -22.331701 0.042035
-167.975098 -78.657501 -22.331701 0.046804
-154.491791 -78.657501 -22.331701 0.079127
-141.008499 -78.657501 -22.331701 0.113871
-127.525192 -78.657501 -22.331701 0.000000
-114.041885 -78.657501 -22.331701 0.176786
-100.558594 -78.657501 -22.331701 0.197090
-87.075287 -78.657501 -22.331701 0.222119
-73.591980 -78.657501 -22.331701 0.265010
-60.108704 -78.657501 -22.331701 0.274480
-46.625397 -78.657501 -22.331701 0.304606
-33.142090 -78.657501 -22.331701 0.297719
-19.658783 -78.657501 -22.331701 0.274830
-6.175476 -78.657501 -22.331701 0.288989
7.307800 -78.657501 -22.331701 0.254819
20.791107 -78.657501 -22.331701 0.225961
34.274414 -78.657501 -22.331701 0.154498
47.757721 -78.657501 -22.331701 0.109548
61.240997 -78.657501 -22.331701 0.078123
74.724304 -78.657501 -22.331701 0.044245
88.207611 -78.657501 -22.331701 0.022737
101.690918 -78.657501 -22.331701 0.014045
115.174225 -78.657501 -22.331701 0.008608
128.657501 -78.657501 -22.331701 0.001629
142.140808 -78.657501 -22.331701 0.000773
155.624115 -78.657501 -22.331701 -0.001200
169.107422 -78.657501 -22.331701 0.002234
182.590698 -78.657501 -22.331701 0.001263
196.074036 -78.657501 -22.331701 0.002250
209.557312 -78.657501 -22.331701 -0.000712
223.040588 -78.657501 -22.331701 -0.002277
236.523926 -78.657501 -22.331701 -0.001287
250.007202 -78.657501 -22.331701 -0.000258
263.490540 -78.657501 -22.331701 0.000599
276.973816 -78.657501 -22.331701 0.000560
290.457092 -78.657501 -22.331701 0.001356
303.940430 -78.657501 -22.331701 0.001489
317.423706 -78.657501 -22.331701 0.001674
330.907043 -78.657501 -22.331701 0.000000
344.390320 -78.657501 -22.331701 0.000000
-343.257996 -92.140808 -22.331701 0.000000
-329.774689 -92.140808 -22.331701 0.000000
-316.291382 -92.140808 -22.331701 0.000000
-302.808105 -92.140808 -22.331701 0.000000
-289.324799 -92.140808 -22.331701 0.000000
-275.841492 -92.140808 -22.331701 0.000000
-262.358185 -92.140808 -22.331701 0.000000
-248.874893 -92.140808 -22.331701 0.000000
-235.391602 -92.140808 -22.331701 0.000000
-221.908295 -92.140808 -22.331701 0.000000
-208.424988 -92.140808 -22.331701 0.000000
-194.941696 -92.140808 -22.331701 0.051879
-181.458389 -92.140808 -22.331701 0.000000
-167.975098 -92.140808 -22.331701 0.000000
-154.491791 -92.140808 -22.331701 0.000000
-141.008499 -92.140808 -22.331701 0.119733
-127.525192 -92.140808 -22.331701 0.000000
-114.041885 -92.140808 -22.331701 0.161205
-100.558594 -92.140808 -22.331701 0.191277
-87.075287 -92.140808 -22.331701 0.227798
-73.591980 -92.140808 -22.331701 0.240047
-60.108704 -92.140808 -22.331701 0.278089
-46.625397 -92.140808 -22.331701 0.295041
-33.142090 -92.140808 -22.331701 0.300133
-19.658783 -92.140808 -22.331701 0.255992
-6.175476 -92.140808 -22.331701 0.237616
7.307800 -92.140808 -22.331701 0.221076
20.791107 -92.140808 -22.331701 0.173692
34.274414 -92.140808 -22.331701 0.135368
47.757721 -92.140808 -22.331701 0.092745
61.240997 -92.140808 -22.331701 0.055266
74.724304 -92.140808 -22.331701 0.034384
88.207611 -92.140808 -22.331701 0.013550
101.690918 -92.140808 -22.331701 0.011062
115.174225 -92.140808 -22.331701 0.006754
128.657501 -92.140808 -22.331701 -0.000674
142.140808 -92.140808 -22.331701 -0.000978
155.624115 -92.140808 -22.331701 0.001960
169.107422 -92.140808 -22.331701 0.003785
182.590698 -92.140808 -22.331701 0.005653
196.074036 -92.140808 -22.331701 0.005879
209.557312 -92.140808 -22.331701 -0.000160
223.040588 -92.140808 -22.331701 -0.003754
236.523926 -92.140808 -22.331701 -0.003633
250.007202 -92.140808 -22.331701 -0.002384
263.490540 -92.140808 -22.331701 -0.000501
276.973816 -92.140808 -22.331701 0.000307
290.457092 -92.140808 -22.331701 0.001068
303.940430 -92.140808 -22.331701 0.002170
317.423706 -92.140808 -22.331701 0.002420
330.907043 -92.140808 -22.331701 0.000000
344.390320 -92.140808 -22.331701 0.000000
-343.257996 -105.624115 -22.331701 0.000000
-329.774689 -105.624115 -22.331701 0.000000
-316.291382 -105.624115 -22.331701 0.000000
-302.808105 -105.624115 -22.331701 0.000000
-289.324799 -105.624115 -22.331701 0.000000
-275.841492 -105.624115 -22.331701 0.000000
-262.358185 -105.624115 -22.331701 0.000000
-248.874893 -105.624115 -22.331701 0.000000
-235.391602 -105.624115 -22.331701 0.000000
-221.908295 -105.624115 -22.331701 0.000000
-208.424988 -105.624115 -22.331701 0.000000
-194.941696 -105.624115 -22.331701 0.050940
-181.458389 -105.624115 -22.331701 0.000000
-167.975098 -105.624115 -22.331701 0.000000
-154.491791 -105.624115 -22.331701 0.000000
-141.008499 -105.624115 -22.331701 0.113989
-127.525192 -105.624115 -22.331701 0.000000
-114.041885 -105.624115 -22.331701 0.000000
-100.558594 -105.624115 -22.331701 0.173284
-87.075287 -105.624115 -22.331701 0.000000
-73.591980 -105.624115 -22.331701 0.000000
-60.108704 -105.624115 -22.331701 0.000000
-46.625397 -105.624115 -22.331701 0.237245
-33.142090 -105.624115 -22.331701 0.259199
-19.658783 -105.624115 -22.331701 0.228024
-6.175476 -105.624115 -22.331701 0.184189
7.307800 -105.624115 -22.331701 0.181001
20.791107 -105.624115 -22.331701 0.135203
34.274414 -105.624115 -22.331701 0.097596
47.757721 -105.624115 -22.331701 0.055537
61.240997 -105.624115 -22.331701 0.038956
74.724304 -105.624115 -22.331701 0.020749
88.207611 -105.624115 -22.331701 0.011831
101.690918 -105.624115 -22.331701 0.007800
115.174225 -105.624115 -22.331701 -0.001234
128.657501 -105.624115 -22.331701 -0.004298
142.140808 -105.624115 -22.331701 -0.000414
155.624115 -105.624115 -22.331701 0.000864
169.107422 -105.624115 -22.331701 0.004665
182.590698 -105.624115 -22.331701 0.007311
196.074036 -105.624115 -22.331701 0.004539
209.557312 -105.624115 -22.331701 0.001785
223.040588 -105.624115 -22.331701 -0.003996
236.523926 -105.624115 -22.331701 -0.005150
250.007202 -105.624115 -22.331701 -0.004367
263.490540 -105.624115 -22.331701 -0.001327
276.973816 -105.624115 -22.331701 -0.000016
290.457092 -105.624115 -22.331701 0.001298
303.940430 -105.624115 -22.331701 0.001851
317.423706 -105.624115 -22.331701 0.002045
330.907043 -105.624115 -22.331701 0.000000
344.390320 -105.624115 -22.331701 0.000000
-343.257996 -119.107422 -22.331701 0.000000
-329.774689 -119.107422 -22.331701 0.000000
-316.291382 -119.107422 -22.331701 0.000000
-302.808105 -119.107422 -22.331701 0.000000
-289.324799 -119.107422 -22.331701 0.000000
-275.841492 -119.107422 -22.331701 0.000000
-262.358185 -119.107422 -22.331701 0.000000
-248.874893 -119.107422 -22.331701 0.000000
-235.391602 -119.107422 -22.331701 0.000000
-221.908295 -119.107422 -22.331701 0.000000
-208.424988 -119.107422 -22.331701 0.000000
-194.941696 -119.107422 -22.331701 0.000000
-181.458389 -119.107422 -22.331701 0.000000
-167.975098 -119.107422 -22.331701 0.000000
-154.491791 -119.107422 -22.331701 0.098852
-141.008499 -119.107422 -22.331701 0.121582
-127.525192 -119.107422 -22.331701 0.000000
-114.041885 -119.107422 -22.331701 0.000000
-100.558594 -119.107422 -22.331701 0.144625
-87.075287 -119.107422 -22.331701 0.000000
-73.591980 -119.107422 -22.331701 0.168240
-60.108704 -119.107422 -22.331701 0.000000
-46.625397 -119.107422 -22.331701 0.179127
-33.142090 -119.107422 -22.331701 0.188013
-19.658783 -119.107422 -22.331701 0.170911
-6.175476 -119.107422 -22.331701 0.151115
7.307800 -119.107422 -22.331701 0.137124
20.791107 -119.107422 -22.331701 0.087969
34.274414 -119.107422 -22.331701 0.076193
47.757721 -119.107422 -22.331701 0.052830
61.240997 -119.107422 -22.331701 0.026015
74.724304 -119.107422 -22.331701 0.014902
88.207611 -119.107422 -22.331701 0.005227
101.690918 -119.107422 -22.331701 -0.000813
115.174225 -119.107422 -22.331701 -0.003709
128.657501 -119.107422 -22.331701 -0.008096
142.140808 -119.107422 -22.331701 -0.005771
155.624115 -119.107422 -22.331701 -0.003593
169.107422 -119.107422 -22.331701 0.000923
182.590698 -119.107422 -22.331701 0.005381
196.074036 -119.107422 -22.331701 0.006844
209.557312 -119.107422 -22.331701 0.002627
223.040588 -119.107422 -22.331701 -0.003807
236.523926 -119.107422 -22.331701 -0.007239
250.007202 -119.107422 -22.331701 -0.006864
263.490540 -119.107422 -22.331701 -0.004378
276.973816 -119.107422 -22.331701 -0.001215
290.457092 -119.107422 -22.331701 -0.000261
303.940430 -119.107422 -22.331701 0.000787
317.423706 -119.107422 -22.331701 0.000810
330.907043 -119.107422 -22.331701 0.000000
344.390320 -119.107422 -22.331701 0.000000
-343.257996 -132.590698 -22.331701 0.000000
-329.774689 -132.590698 -22.331701 0.000000
-316.291382 -132.590698 -22.331701 0.000000
-302.808105 -132.590698 -22.331701 0.000000
-289.324799 -132.590698 -22.331701 0.000000
-275.841492 -132.590698 -22.331701 0.000000
-262.358185 -132.590698 -22.331701 0.000000
-248.874893 -132.590698 -22.331701 0.000000
-235.391602 -132.590698 -22.331701 0.000000
-221.908295 -132.590698 -22.331701 0.000000
-208.424988 -132.590698 -22.331701 0.000000
-194.941696 -132.590698 -22.331701 0.000000
-181.458389 -132.590698 -22.331701 0.050761
-167.975098 -132.590698 -22.331701 0.071111
-154.491791 -132.590698 -22.331701 0.080115
-141.008499 -132.590698 -22.331701 0.077464
-127.525192 -132.590698 -22.331701 0.088343
-114.041885 -132.590698 -22.331701 0.110686
-100.558594 -132.590698 -22.331701 0.145778
-87.075287 -132.590698 -22.331701 0.123621
-73.591980 -132.590698 -22.331701 0.135313
-60.108704 -132.590698 -22.331701 0.000000
-46.625397 -132.590698 -22.331701 0.000000
-33.142090 -132.590698 -22.331701 0.000000
-19.658783 -132.590698 -22.331701 0.135026
-6.175476 -132.590698 -22.331701 0.000000
7.307800 -132.590698 -22.331701 0.000000
20.791107 -132.590698 -22.331701 0.077723
34.274414 -132.590698 -22.331701 0.000000
47.757721 -132.590698 -22.331701 0.032261
61.240997 -132.590698 -22.331701 0.013659
74.724304 -132.590698 -22.331701 0.005001
88.207611 -132.590698 -22.331701 -0.003022
101.690918 -132.590698 -22.331701 0.001377
115.174225 -132.590698 -22.331701 -0.006937
128.657501 -132.590698 -22.331701 -0.008216
142.140808 -132.590698 -22.331701 -0.006189
155.624115 -132.590698 -22.331701 -0.000614
169.107422 -132.590698 -22.331701 0.002643
182.590698 -132.590698 -22.331701 0.010742
196.074036 -132.590698 -22.331701 0.013119
209.557312 -132.590698 -22.331701 0.004143
223.040588 -132.590698 -22.331701 -0.001826
236.523926 -132.590698 -22.331701 -0.005979
250.007202 -132.590698 -22.331701 -0.007942
263.490540 -132.590698 -22.331701 -0.007776
276.973816 -132.590698 -22.331701 -0.005048
290.457092 -132.590698 -22.331701 -0.001608
303.940430 -132.590698 -22.331701 0.000000
317.423706 -132.590698 -22.331701 0.000000
330.907043 -132.590698 -22.331701 0.000000
344.390320 -132.590698 -22.331701 0.000000
-343.257996 -146.074036 -22.331701 0.000000
-329.774689 -146.074036 -22.331701 0.000000
-316.291382 -146.074036 -22.331701 0.000000
-302.808105 -146.074036 -22.331701 0.000000
-289.324799 -146.074036 -22.331701 0.000000
-275.841492 -146.074036 -22.331701 0.000000
-262.358185 -146.074036 -22.331701 0.000000
-248.874893 -146.074036 -22.331701 0.000000
-235.391602 -146.074036 -22.331701 0.000000
-221.908295 -146.074036 -22.331701 0.000000
-208.424988 -146.074036 -22.331701 0.000000
-194.941696 -146.074036 -22.331701 0.000000
-181.458389 -146.074036 -22.331701 0.000000
-167.975098 -146.074036 -22.331701 0.000000
-154.491791 -146.074036 -22.331701 0.000000
-141.008499 -146.074036 -22.331701 0.000000
-127.525192 -146.074036 -22.331701 0.000000
-114.041885 -146.074036 -22.331701 0.000000
-100.558594 -146.074036 -22.331701 0.000000
-87.075287 -146.074036 -22.331701 0.000000
-73.591980 -146.074036 -22.331701 0.000000
-60.108704 -146.074036 -22.331701 0.000000
-46.625397 -146.074036 -22.331701 0.000000
-33.142090 -146.074036 -22.331701 0.000000
-19.658783 -146.074036 -22.331701 0.000000
-6.175476 -146.074036 -22.331701 0.000000
7.307800 -146.074036 -22.331701 0.000000
20.791107 -146.074036 -22.331701 0.000000
34.274414 -146.074036 -22.331701 0.000000
47.757721 -146.074036 -22.331701 0.000000
61.240997 -146.074036 -22.331701 0.000000
74.724304 -146.074036 -22.331701 0.000000
88.207611 -146.074036 -22.331701 0.000000
101.690918 -146.074036 -22.331701 0.000000
115.174225 -146.074036 -22.331701 0.000000
128.657501 -146.074036 -22.331701 -0.011140
142.140808 -146.074036 -22.331701 -0.003265
155.624115 -146.074036 -22.331701 0.000418
169.107422 -146.074036 -22.331701 0.003302
182.590698 -146.074036 -22.331701 0.016836
196.074036 -146.074036 -22.331701 0.018253
209.557312 -146.074036 -22.331701 0.014551
223.040588 -146.074036 -22.331701 0.005762
236.523926 -146.074036 -22.331701 0.000000
250.007202 -146.074036 -22.331701 -0.005713
263.490540 -146.074036 -22.331701 -0.009837
276.973816 -146.074036 -22.331701 0.000000
290.457092 -146.074036 -22.331701 0.000000
303.940430 -146.074036 -22.331701 0.000000
317.423706 -146.074036 -22.331701 0.000000
330.907043 -146.074036 -22.331701 0.000000
344.390320 -146.074036 -22.331701 0.000000
-343.257996 -159.557312 -22.331701 0.000000
-329.774689 -159.557312 -22.331701 0.000000
-316.291382 -159.557312 -22.331701 0.000000
-302.808105 -159.557312 -22.331701 0.000000
-289.324799 -159.557312 -22.331701 0.000000
-275.841492 -159.557312 -22.331701 0.000000
-262.358185 -159.557312 -22.331701 0.000000
-248.874893 -159.557312 -22.331701 0.000000
-235.391602 -159.557312 -22.331701 0.000000
-221.908295 -159.557312 -22.331701 0.000000
-208.424988 -159.557312 -22.331701 0.000000
-194.941696 -159.557312 -22.331701 0.000000
-181.458389 -159.557312 -22.331701 0.000000
-167.975098 -159.557312 -22.331701 0.000000
-154.491791 -159.557312 -22.331701 0.000000
-141.008499 -159.557312 -22.331701 0.000000
-127.525192 -159.557312 -22.331701 0.000000
-114.041885 -159.557312 -22.331701 0.000000
-100.558594 -159.557312 -22.331701 0.000000
-87.075287 -159.557312 -22.331701 0.000000
-73.591980 -159.557312 -22.331701 0.000000
-60.108704 -159.557312 -22.331701 0.000000
-46.625397 -159.557312 -22.331701 0.000000
-33.142090 -159.557312 -22.331701 0.000000
-19.658783 -159.557312 -22.331701 0.000000
-6.175476 -159.557312 -22.331701 0.000000
7.307800 -159.557312 -22.331701 0.000000
20.791107 -159.557312 -22.331701 0.000000
34.274414 -159.557312 -22.331701 0.000000
47.757721 -159.557312 -22.331701 0.000000
61.240997 -159.557312 -22.331701 0.000000
74.724304 -159.557312 -22.331701 0.000000
88.207611 -159.557312 -22.331701 0.000000
101.690918 -159.557312 -22.331701 0.000000
115.174225 -159.557312 -22.331701 0.000000
128.657501 -159.557312 -22.331701 0.000000
142.140808 -159.557312 -22.331701 0.000000
155.624115 -159.557312 -22.331701 0.000000
169.107422 -159.557312 -22.331701 0.000000
182.590698 -159.557312 -22.331701 0.000000
196.074036 -159.557312 -22.331701 0.000000
209.557312 -159.557312 -22.331701 0.000000
223.040588 -159.557312 -22.331701 0.000000
236.523926 -159.557312 -22.331701 0.000000
250.007202 -159.557312 -22.331701 0.000000
263.490540 -159.557312 -22.331701 0.000000
276.973816 -159.557312 -22.331701 0.000000
290.457092 -159.557312 -22.331701 0.000000
303.940430 -159.557312 -22.331701 0.000000
317.423706 -159.557312 -22.331701 0.000000
330.907043 -159.557312 -22.331701 0.000000
344.390320 -159.557312 -22.331701 0.000000
-343.257996 -173.040588 -22.331701 0.000000
-329.774689 -173.040588 -22.331701 0.000000
-316.291382 -173.040588 -22.331701 0.000000
-302.808105 -173.040588 -22.331701 0.000000
-289.324799 -173.040588 -22.331701 0.000000
-275.841492 -173.040588 -22.331701 0.000000
-262.358185 -173.040588 -22.331701 0.000000
-248.874893 -173.040588 -22.331701 0.000000
-235.391602 -173.040588 -22.331701 0.000000
-221.908295 -173.040588 -22.331701 0.000000
-208.424988 -173.040588 -22.331701 0.000000
-194.941696 -173.040588 -22.331701 0.000000
-181.458389 -173.040588 -22.331701 0.000000
-167.975098 -173.040588 -22.331701 0.000000
-154.491791 -173.040588 -22.331701 0.000000
-141.008499 -173.040588 -22.331701 0.000000
-127.525192 -173.040588 -22.331701 0.000000
-114.041885 -173.040588 -22.331701 0.000000
-100.558594 -173.040588 -22.331701 0.000000
-87.075287 -173.040588 -22.331701 0.000000
-73.591980 -173.040588 -22.331701 0.000000
-60.108704 -173.040588 -22.331701 0.000000
-46.625397 -173.040588 -22.331701 0.000000
-33.142090 -173.040588 -22.331701 0.000000
-19.658783 -173.040588 -22.331701 0.000000
-6.175476 -173.040588 -22.331701 0.000000
7.307800 -173.040588 -22.331701 0.000000
20.791107 -173.040588 -22.331701 0.000000
34.274414 -173.040588 -22.331701 0.000000
47.757721 -173.040588 -22.331701 0.000000
61.240997 -173.040588 -22.331701 0.000000
74.724304 -173.040588 -22.331701 0.000000
88.207611 -173.040588 -22.331701 0.000000
101.690918 -173.040588 -22.331701 0.000000
115.174225 -173.040588 -22.331701 0.000000
128.657501 -173.040588 -22.331701 0.000000
142.140808 -173.040588 -22.331701 0.000000
155.624115 -173.040588 -22.331701 0.000000
169.107422 -173.040588 -22.331701 0.000000
182.590698 -173.040588 -22.331701 0.000000
196.074036 -173.040588 -22.331701 0.000000
209.557312 -173.040588 -22.331701 0.000000
223.040588 -173.040588 -22.331701 0.000000
236.523926 -173.040588 -22.331701 0.000000
250.007202 -173.040588 -22.331701 0.000000
263.490540 -173.040588 -22.331701 0.000000
276.973816 -173.040588 -22.331701 0.000000
290.457092 -173.040588 -22.331701 0.000000
303.940430 -173.040588 -22.331701 0.000000
317.423706 -173.040588 -22.331701 0.000000
330.907043 -173.040588 -22.331701 0.000000
344.390320 -173.040588 -22.331701 0.000000
-343.257996 -186.523926 -22.331701 0.000000
-329.774689 -186.523926 -22.331701 0.000000
-316.291382 -186.523926 -22.331701 0.000000
-302.808105 -186.523926 -22.331701 0.000000
-289.324799 -186.523926 -22.331701 0.000000
-275.841492 -186.523926 -22.331701 0.000000
-262.358185 -186.523926 -22.331701 0.000000
-248.874893 -186.523926 -22.331701 0.000000
-235.391602 -186.523926 -22.331701 0.000000
-221.908295 -186.523926 -22.331701 0.000000
-208.424988 -186.523926 -22.331701 0.000000
-194.941696 -186.523926 -22.331701 0.000000
-181.458389 -186.523926 -22.331701 0.000000
-167.975098 -186.523926 -22.331701 0.000000
-154.491791 -186.523926 -22.331701 0.000000
-141.008499 -186.523926 -22.331701 0.000000
-127.525192 -186.523926 -22.331701 0.000000
-114.041885 -186.523926 -22.331701 0.000000
-100.558594 -186.523926 -22.331701 0.000000
-87.075287 -186.523926 -22.331701 0.000000
-73.591980 -186.523926 -22.331701 0.000000
-60.108704 -186.523926 -22.331701 0.000000
-46.625397 -186.523926 -22.331701 0.000000
-33.142090 -186.523926 -22.331701 0.000000
-19.658783 -186.523926 -22.331701 0.000000
-6.175476 -186.523926 -22.331701 0.000000
7.307800 -186.523926 -22.331701 0.000000
20.791107 -186.523926 -22.331701 0.000000
34.274414 -186.523926 -22.331701 0.000000
47.757721 -186.523926 -22.331701 0.000000
61.240997 -186.523926 -22.331701 0.000000
74.724304 -186.523926 -22.331701 0.000000
88.207611 -186.523926 -22.331701 0.000000
101.690918 -186.523926 -22.331701 0.000000
115.174225 -186.523926 -22.331701 0.000000
128.657501 -186.523926 -22.331701 0.000000
142.140808 -186.523926 -22.331701 0.000000
155.624115 -186.523926 -22.331701 0.000000
169.107422 -186.523926 -22.331701 0.000000
182.590698 -186.523926 -22.331701 0.000000
196.074036 -186.523926 -22.331701 0.000000
209.557312 -186.523926 -22.331701 0.000000
223.040588 -186.523926 -22.331701 0.000000
236.523926 -186.523926 -22.331701 0.000000
250.007202 -186.523926 -22.331701 0.000000
263.490540 -186.523926 -22.331701 0.000000
276.973816 -186.523926 -22.331701 0.000000
290.457092 -186.523926 -22.331701 0.000000
303.940430 -186.523926 -22.331701 0.000000
317.423706 -186.523926 -22.331701 0.000000
330.907043 -186.523926 -22.331701 0.000000
344.390320 -186.523926 -22.331701 0.000000
-343.257996 -200.007202 -22.331701 0.000000
-329.774689 -200.007202 -22.331701 0.000000
-316.291382 -200.007202 -22.331701 0.000000
-302.808105 -200.007202 -22.331701 0.000000
-289.324799 -200.007202 -22.331701 0.000000
-275.841492 -200.007202 -22.331701 0.000000
-262.358185 -200.007202 -22.331701 0.000000
-248.874893 -200.007202 -22.331701 0.000000
-235.391602 -200.007202 -22.331701 0.000000
-221.908295 -200.007202 -22.331701 0.000000
-208.424988 -200.007202 -22.331701 0.000000
-194.941696 -200.007202 -22.331701 0.000000
-181.458389 -200.007202 -22.331701 0.000000
-167.975098 -200.007202 -22.331701 0.000000
-154.491791 -200.007202 -22.331701 0.000000
-141.008499 -200.007202 -22.331701 0.000000
-127.525192 -200.007202 -22.331701 0.000000
-114.041885 -200.007202 -22.331701 0.000000
-100.558594 -200.007202 -22.331701 0.000000
-87.075287 -200.007202 -22.331701 0.000000
-73.591980 -200.007202 -22.331701 0.000000
-60.108704 -200.007202 -22.331701 0.000000
-46.625397 -200.007202 -22.331701 0.000000
-33.142090 -200.007202 -22.331701 0.000000
-19.658783 -200.007202 -22.331701 0.000000
-6.175476 -200.007202 -22.331701 0.000000
7.307800 -200.007202 -22.331701 0.000000
20.791107 -200.007202 -22.331701 0.000000
34.274414 -200.007202 -22.331701 0.000000
47.757721 -200.007202 -22.331701 0.000000
61.240997 -200.007202 -22.331701 0.000000
74.724304 -200.007202 -22.331701 0.000000
88.207611 -200.007202 -22.331701 0.000000
101.690918 -200.007202 -22.331701 0.000000
115.174225 -200.007202 -22.331701 0.000000
128.657501 -200.007202 -22.331701 0.000000
142.140808 -200.007202 -22.331701 0.000000
155.624115 -200.007202 -22.331701 0.000000
169.107422 -200.007202 -22.331701 0.000000
182.590698 -200.007202 -22.331701 0.000000
196.074036 -200.007202 -22.331701 0.000000
209.557312 -200.007202 -22.331701 0.000000
223.040588 -200.007202 -22.331701 0.000000
236.523926 -200.007202 -22.331701 0.000000
250.007202 -200.007202 -22.331701 0.000000
263.490540 -200.007202 -22.331701 0.000000
276.973816 -200.007202 -22.331701 0.000000
290.457092 -200.007202 -22.331701 0.000000
303.940430 -200.007202 -22.331701 0.000000
317.423706 -200.007202 -22.331701 0.000000
330.907043 -200.007202 -22.331701 0.000000
344.390320 -200.007202 -22.331701 0.000000
-343.257996 393.257996 -8.848400 0.000000
-329.774689 393.257996 -8.848400 0.000000
-316.291382 393.257996 -8.848400 0.000000
-302.808105 393.257996 -8.848400 0.000000
-289.324799 393.257996 -8.848400 0.000000
-275.841492 393.257996 -8.848400 0.000000
-262.358185 393.257996 -8.848400 0.000000
-248.874893 393.257996 -8.848400 0.000000
-235.391602 393.257996 -8.848400 0.000000
-221.908295 393.257996 -8.848400 0.000000
-208.424988 393.257996 -8.848400 0.000000
-194.941696 393.257996 -8.848400 0.000000
-181.458389 393.257996 -8.848400 0.000000
-167.975098 393.257996 -8.848400 0.000000
-154.491791 393.257996 -8.848400 0.000000
-141.008499 393.257996 -8.848400 0.000000
-127.525192 393.257996 -8.848400 0.000000
-114.041885 393.257996 -8.848400 0.000000
-100.558594 393.257996 -8.848400 0.000000
-87.075287 393.257996 -8.848400 0.000000
-73.591980 393.257996 -8.848400 0.000000
-60.108704 393.257996 -8.848400 0.000000
-46.625397 393.257996 -8.848400 0.000000
-33.142090 393.257996 -8.848400 0.000000
-19.658783 393.257996 -8.848400 0.000000
-6.175476 393.257996 -8.848400 0.000000
7.307800 393.257996 -8.848400 0.000000
20.791107 393.257996 -8.848400 0.000000
34.274414 393.257996 -8.848400 0.000000
47.757721 393.257996 -8.848400 0.000000
61.240997 393.257996 -8.848400 0.000000
74.724304 393.257996 -8.848400 0.000000
88.207611 393.257996 -8.848400 0.000000
101.690918 393.257996 -8.848400 0.000000
115.174225 393.257996 -8.848400 0.000000
128.657501 393.257996 -8.848400 0.000000
142.140808 393.257996 -8.848400 0.000000
155.624115 393.257996 -8.848400 0.000000
169.107422 393.257996 -8.848400 0.000000
182.590698 393.257996 -8.848400 0.000000
196.074036 393.257996 -8.848400 0.000000
209.557312 393.257996 -8.848400 0.000000
223.040588 393.257996 -8.848400 0.000000
236.523926 393.257996 -8.848400 0.000000
250.007202 393.257996 -8.848400 0.000000
263.490540 393.257996 -8.848400 0.000000
276.973816 393.257996 -8.848400 0.000000
290.457092 393.257996 -8.848400 0.000000
303.940430 393.257996 -8.848400 0.000000
317.423706 393.257996 -8.848400 0.000000
330.907043 393.257996 -8.848400 0.000000
344.390320 393.257996 -8.848400 0.000000
-343.257996 379.774689 -8.848400 0.000000
-329.774689 379.774689 -8.848400 0.000000
-316.291382 379.774689 -8.848400 0.000000
-302.808105 379.774689 -8.848400 0.000000
-289.324799 379.774689 -8.848400 0.000000
-275.841492 379.774689 -8.848400 0.000000
-262.358185 379.774689 -8.848400 0.000000
-248.874893 379.774689 -8.848400 0.000000
-235.391602 379.774689 -8.848400 0.000000
-221.908295 379.774689 -8.848400 0.000000
-208.424988 379.774689 -8.848400 0.000000
-194.941696 379.774689 -8.848400 0.000000
-181.458389 379.774689 -8.848400 0.000000
-167.975098 379.774689 -8.848400 0.000000
-154.491791 379.774689 -8.848400 0.000000
-141.008499 379.774689 -8.848400 0.000000
-127.525192 379.774689 -8.848400 0.000000
-114.041885 379.774689 -8.848400 0.000000
-100.558594 379.774689 -8.848400 0.000000
-87.075287 379.774689 -8.848400 0.000000
-73.591980 379.774689 -8.848400 0.000000
-60.108704 379.774689 -8.848400 0.000000
-46.625397 379.774689 -8.848400 0.000000
-33.142090 379.774689 -8.848400 0.000000
-19.658783 379.774689 -8.848400 0.000000
-6.175476 379.774689 -8.848400 0.000000
7.307800 379.774689 -8.848400 0.000000
20.791107 379.774689 -8.848400 0.000000
34.274414 379.774689 -8.848400 0.000000
47.757721 379.774689 -8.848400 0.000000
61.240997 379.774689 -8.848400 0.000000
74.724304 379.774689 -8.848400 0.000000
88.207611 379.774689 -8.848400 0.000000
101.690918 379.774689 -8.848400 0.000000
115.174225 379.774689 -8.848400 0.000000
128.657501 379.774689 -8.848400 0.000000
142.140808 379.774689 -8.848400 0.000000
155.624115 379.774689 -8.848400 0.000000
169.107422 379.774689 -8.848400 0.000000
182.590698 379.774689 -8.848400 0.000000
196.074036 379.774689 -8.848400 0.000000
209.557312 379.774689 -8.848400 0.000000
223.040588 379.774689 -8.848400 0.000000
236.523926 379.774689 -8.848400 0.000000
250.007202 379.774689 -8.848400 0.000000
263.490540 379.774689 -8.848400 0.000000
276.973816 379.774689 -8.848400 0.000000
290.457092 379.774689 -8.848400 0.000000
303.940430 379.774689 -8.848400 0.000000
317.423706 379.774689 -8.848400 0.000000
330.907043 379.774689 -8.848400 0.000000
344.390320 379.774689 -8.848400 0.000000
-343.257996 366.291382 -8.848400 0.000000
-329.774689 366.291382 -8.848400 0.000000
-316.291382 366.291382 -8.848400 0.000000
-302.808105 366.291382 -8.848400 0.000000
-289.324799 366.291382 -8.848400 0.000000
-275.841492 366.291382 -8.848400 0.000000
-262.358185 366.291382 -8.848400 0.000000
-248.874893 366.291382 -8.848400 0.000000
-235.391602 366.291382 -8.848400 0.000000
-221.908295 366.291382 -8.848400 0.000000
-208.424988 366.291382 -8.848400 0.000000
-194.941696 366.291382 -8.848400 0.000000
-181.458389 366.291382 -8.848400 0.000000
-167.975098 366.291382 -8.848400 0.000000
-154.491791 366.291382 -8.848400 0.000000
-141.008499 366.291382 -8.848400 0.000000
-127.525192 366.291382 -8.848400 0.000000
-114.041885 366.291382 -8.848400 0.000000
-100.558594 366.291382 -8.848400 0.000000
-87.075287 366.291382 -8.848400 0.000000
-73.591980 366.291382 -8.848400 0.000000
-60.108704 366.291382 -8.848400 0.000000
-46.625397 366.291382 -8.848400 0.000000
-33.142090 366.291382 -8.848400 0.000000
-19.658783 366.291382 -8.848400 0.000000
-6.175476 366.291382 -8.848400 0.000000
7.307800 366.291382 -8.848400 0.000000
20.791107 366.291382 -8.848400 0.000000
34.274414 366.291382 -8.848400 0.000000
47.757721 366.291382 -8.848400 0.000000
61.240997 366.291382 -8.848400 0.000000
74.724304 366.291382 -8.848400 0.000000
88.207611 366.291382 -8.848400 0.000000
101.690918 366.291382 -8.848400 0.000000
115.174225 366.291382 -8.848400 0.000000
128.657501 366.291382 -8.848400 0.000000
142.140808 366.291382 -8.848400 0.000000
155.624115 366.291382 -8.848400 0.000000
169.107422 366.291382 -8.848400 0.000000
182.590698 366.291382 -8.848400 0.000000
196.074036 366.291382 -8.848400 0.000000
209.557312 366.291382 -8.848400 0.000000
223.040588 366.291382 -8.848400 0.000000
236.523926 366.291382 -8.848400 0.000000
250.007202 366.291382 -8.848400 0.000000
263.490540 366.291382 -8.848400 0.000000
276.973816 366.291382 -8.848400 0.000000
290.457092 366.291382 -8.848400 0.000000
303.940430 366.291382 -8.848400 0.000000
317.423706 366.291382 -8.848400 0.000000
330.907043 366.291382 -8.848400 0.000000
344.390320 366.291382 -8.848400 0.000000
-343.257996 352.808105 -8.848400 0.000000
-329.774689 352.808105 -8.848400 0.000000
-316.291382 352.808105 -8.848400 0.000000
-302.808105 352.808105 -8.848400 0.000000
-289.324799 352.808105 -8.848400 0.000000
-275.841492 352.808105 -8.848400 0.000000
-262.358185 352.808105 -8.848400 0.000000
-248.874893 352.808105 -8.848400 0.000000
-235.391602 352.808105 -8.848400 0.000000
-221.908295 352.808105 -8.848400 0.000000
-208.424988 352.808105 -8.848400 0.000000
-194.941696 352.808105 -8.848400 0.000000
-181.458389 352.808105 -8.848400 0.000000
-167.975098 352.808105 -8.848400 0.000000
-154.491791 352.808105 -8.848400 0.000000
-141.008499 352.808105 -8.848400 0.000000
-127.525192 352.808105 -8.848400 0.000000
-114.041885 352.808105 -8.848400 0.000000
-100.558594 352.808105 -8.848400 0.000000
-87.075287 352.808105 -8.848400 0.000000
-73.591980 352.808105 -8.848400 0.000000
-60.108704 352.808105 -8.848400 0.000000
-46.625397 352.808105 -8.848400 0.000000
-33.142090 352.808105 -8.848400 0.000000
-19.658783 352.808105 -8.848400 0.000000
-6.175476 352.808105 -8.848400 0.000000
7.307800 352.808105 -8.848400 0.000000
20.791107 352.808105 -8.848400 0.000000
34.274414 352.808105 -8.848400 0.000000
47.757721 352.808105 -8.848400 0.000000
61.240997 352.808105 -8.848400 0.000000
74.724304 352.808105 -8.848400 0.000000
88.207611 352.808105 -8.848400 0.000000
101.690918 352.808105 -8.848400 0.000000
115.174225 352.808105 -8.848400 0.000000
128.657501 352.808105 -8.848400 0.000000
142.140808 352.808105 -8.848400 0.000000
155.624115 352.808105 -8.848400 0.000000
169.107422 352.808105 -8.848400 0.000000
182.590698 352.808105 -8.848400 0.000000
196.074036 352.808105 -8.848400 0.000000
209.557312 352.808105 -8.848400 0.000000
223.040588 352.808105 -8.848400 0.000000
236.523926 352.808105 -8.848400 0.000000
250.007202 352.808105 -8.848400 0.000000
263.490540 352.808105 -8.848400 0.000000
276.973816 352.808105 -8.848400 0.000000
290.457092 352.808105 -8.848400 0.000000
303.940430 352.808105 -8.848400 0.000000
317.423706 352.808105 -8.848400 0.000000
330.907043 352.808105 -8.848400 0.000000
344.390320 352.808105 -8.848400 0.000000
-343.257996 339.324799 -8.848400 0.000000
-329.774689 339.324799 -8.848400 0.000000
-316.291382 339.324799 -8.848400 0.000000
-302.808105 339.324799 -8.848400 0.000000
-289.324799 339.324799 -8.848400 0.000000
-275.841492 339.324799 -8.848400 0.000000
-262.358185 339.324799 -8.848400 0.000000
-248.874893 339.324799 -8.848400 0.000000
-235.391602 339.324799 -8.848400 0.000000
-221.908295 339.324799 -8.848400 0.000000
-208.424988 339.324799 -8.848400 0.000000
-194.941696 339.324799 -8.848400 0.000000
-181.458389 339.324799 -8.848400 0.000000
-167.975098 339.324799 -8.848400 0.000000
-154.491791 339.324799 -8.848400 0.000000
-141.008499 339.324799 -8.848400 0.000000
-127.525192 339.324799 -8.848400 0.000000
-114.041885 339.324799 -8.848400 0.000000
-100.558594 339.324799 -8.848400 0.000000
-87.075287 339.324799 -8.848400 0.000000
-73.591980 339.324799 -8.848400 0.000000
-60.108704 339.324799 -8.848400 0.000000
-46.625397 339.324799 -8.848400 -0.160455
-33.142090 339.324799 -8.848400 -0.160554
-19.658783 339.324799 -8.848400 -0.121318
-6.175476 339.324799 -8.848400 -0.091254
7.307800 339.324799 -8.848400 -0.074738
20.791107 339.324799 -8.848400 0.000000
34.274414 339.324799 -8.848400 0.000000
47.757721 339.324799 -8.848400 0.000000
61.240997 339.324799 -8.848400 0.000000
74.724304 339.324799 -8.848400 0.000000
88.207611 339.324799 -8.848400 0.000000
101.690918 339.324799 -8.848400 0.000000
115.174225 339.324799 -8.848400 0.000000
128.657501 339.324799 -8.848400 0.000000
142.140808 339.324799 -8.848400 0.000000
155.624115 339.324799 -8.848400 0.000000
169.107422 339.324799 -8.848400 0.000000
182.590698 339.324799 -8.848400 0.000000
196.074036 339.324799 -8.848400 0.000000
209.557312 339.324799 -8.848400 0.000000
223.040588 339.324799 -8.848400 0.000000
236.523926 339.324799 -8.848400 0.000000
250.007202 339.324799 -8.848400 0.000000
263.490540 339.324799 -8.848400 0.000000
276.973816 339.324799 -8.848400 0.000000
290.457092 339.324799 -8.848400 0.000000
303.940430 339.324799 -8.848400 0.000000
317.423706 339.324799 -8.848400 0.000000
330.907043 339.324799 -8.848400 0.000000
344.390320 339.324799 -8.848400 0.000000
-343.257996 325.841492 -8.848400 0.000000
-329.774689 325.841492 -8.848400 0.000000
-316.291382 325.841492 -8.848400 0.000000
-302.808105 325.841492 -8.848400 0.000000
-289.324799 325.841492 -8.848400 0.000000
-275.841492 325.841492 -8.848400 0.000000
-262.358185 325.841492 -8.848400 0.000000
-248.874893 325.841492 -8.848400 0.000000
-235.391602 325.841492 -8.848400 0.000000
-221.908295 325.841492 -8.848400 0.000000
-208.424988 325.841492 -8.848400 0.000000
-194.941696 325.841492 -8.848400 0.000000
-181.458389 325.841492 -8.848400 0.000000
-167.975098 325.841492 -8.848400 0.000000
-154.491791 325.841492 -8.848400 0.000000
-141.008499 325.841492 -8.848400 0.000000
-127.525192 325.841492 -8.848400 0.000000
-114.041885 325.841492 -8.848400 0.000000
-100.558594 325.841492 -8.848400 -0.101062
-87.075287 325.841492 -8.848400 -0.124673
-73.591980 325.841492 -8.848400 -0.126151
-60.108704 325.841492 -8.848400 -0.128569
-46.625397 325.841492 -8.848400 -0.136980
-33.142090 325.841492 -8.848400 -0.150287
-19.658783 325.841492 -8.848400 -0.128980
-6.175476 325.841492 -8.848400 -0.102654
7.307800 325.841492 -8.848400 -0.084149
20.791107 325.841492 -8.848400 -0.057955
34.274414 325.841492 -8.848400 0.000000
47.757721 325.841492 -8.848400 0.000000
61.240997 325.841492 -8.848400 0.000000
74.724304 325.841492 -8.848400 0.000000
88.207611 325.841492 -8.848400 0.000000
101.690918 325.841492 -8.848400 0.000000
115.174225 325.841492 -8.848400 0.000000
128.657501 325.841492 -8.848400 0.000000
142.140808 325.841492 -8.848400 0.000000
155.624115 325.841492 -8.848400 0.000000
169.107422 325.841492 -8.848400 0.000000
182.590698 325.841492 -8.848400 0.000000
196.074036 325.841492 -8.848400 0.000000
209.557312 325.841492 -8.848400 0.000000
223.040588 325.841492 -8.848400 0.000000
236.523926 325.841492 -8.848400 0.000000
250.007202 325.841492 -8.848400 0.000000
263.490540 325.841492 -8.848400 0.000000
276.973816 325.841492 -8.848400 0.000000
290.457092 325.841492 -8.848400 0.000000
303.940430 325.841492 -8.848400 0.000000
317.423706 325.841492 -8.848400 0.000000
330.907043 325.841492 -8.848400 0.000000
344.390320 325.841492 -8.848400 0.000000
-343.257996 312.358185 -8.848400 0.000000
-329.774689 312.358185 -8.848400 0.000000
-316.291382 312.358185 -8.848400 0.000000
-302.808105 312.358185 -8.848400 0.000000
-289.324799 312.358185 -8.848400 0.000000
-275.841492 312.358185 -8.848400 0.000000
-262.358185 312.358185 -8.848400 0.000000
-248.874893 312.358185 -8.848400 0.000000
-235.391602 312.358185 -8.848400 0.000000
-221.908295 312.358185 -8.848400 0.000000
-208.424988 312.358185 -8.848400 0.000000
-194.941696 312.358185 -8.848400 0.000000
-181.458389 312.358185 -8.848400 0.000000
-167.975098 312.358185 -8.848400 0.000000
-154.491791 312.358185 -8.848400 0.000000
-141.008499 312.358185 -8.848400 0.000000
-127.525192 312.358185 -8.848400 0.000000
-114.041885 312.358185 -8.848400 -0.071678
-100.558594 312.358185 -8.848400 -0.093979
-87.075287 312.358185 -8.848400 -0.112016
-73.591980 312.358185 -8.848400 -0.116795
-60.108704 312.358185 -8.848400 -0.106834
-46.625397 312.358185 -8.848400 -0.119936
-33.142090 312.358185 -8.848400 -0.111796
-19.658783 312.358185 -8.848400 -0.108445
-6.175476 312.358185 -8.848400 -0.104030
7.307800 312.358185 -8.848400 -0.091843
20.791107 312.358185 -8.848400 -0.069551
34.274414 312.358185 -8.848400 -0.043302
47.757721 312.358185 -8.848400 0.000000
61.240997 312.358185 -8.848400 0.000000
74.724304 312.358185 -8.848400 0.000000
88.207611 312.358185 -8.848400 0.000000
101.690918 312.358185 -8.848400 0.000000
115.174225 312.358185 -8.848400 0.000000
128.657501 312.358185 -8.848400 0.000000
142.140808 312.358185 -8.848400 0.000000
155.624115 312.358185 -8.848400 0.000000
169.107422 312.358185 -8.848400 0.000000
182.590698 312.358185 -8.848400 0.000000
196.074036 312.358185 -8.848400 0.000000
209.557312 312.358185 -8.848400 0.000000
223.040588 312.358185 -8.848400 0.000000
236.523926 312.358185 -8.848400 0.000000
250.007202 312.358185 -8.848400 0.000000
263.490540 312.358185 -8.848400 0.000000
276.973816 312.358185 -8.848400 0.000000
290.457092 312.358185 -8.848400 0.000000
303.940430 312.358185 -8.848400 0.000000
317.423706 312.358185 -8.848400 0.000000
330.907043 312.358185 -8.848400 0.000000
344.390320 312.358185 -8.848400 0.000000
-343.257996 298.874878 -8.848400 0.000000
-329.774689 298.874878 -8.848400 0.000000
-316.291382 298.874878 -8.848400 0.000000
-302.808105 298.874878 -8.848400 0.000000
-289.324799 298.874878 -8.848400 0.000000
-275.841492 298.874878 -8.848400 0.000000
-262.358185 298.874878 -8.848400 0.000000
-248.874893 298.874878 -8.848400 0.000000
-235.391602 298.874878 -8.848400 0.000000
-221.908295 298.874878 -8.848400 0.000000
-208.424988 298.874878 -8.848400 0.000000
-194.941696 298.874878 -8.848400 0.000000
-181.458389 298.874878 -8.848400 0.000000
-167.975098 298.874878 -8.848400 0.000000
-154.491791 298.874878 -8.848400 0.000000
-141.008499 298.874878 -8.848400 0.000000
-127.525192 298.874878 -8.848400 0.000000
-114.041885 298.874878 -8.848400 -0.080245
-100.558594 298.874878 -8.848400 -0.098241
-87.075287 298.874878 -8.848400 -0.099474
-73.591980 298.874878 -8.848400 -0.110175
-60.108704 298.874878 -8.848400 -0.100889
-46.625397 298.874878 -8.848400 -0.093852
-33.142090 298.874878 -8.848400 -0.095388
-19.658783 298.874878 -8.848400 -0.096980
-6.175476 298.874878 -8.848400 -0.097038
7.307800 298.874878 -8.848400 -0.095148
20.791107 298.874878 -8.848400 -0.082203
34.274414 298.874878 -8.848400 -0.062781
47.757721 298.874878 -8.848400 -0.054956
61.240997 298.874878 -8.848400 0.000000
74.724304 298.874878 -8.848400 0.000000
88.207611 298.874878 -8.848400 0.000000
101.690918 298.874878 -8.848400 0.000000
115.174225 298.874878 -8.848400 0.000000
128.657501 298.874878 -8.848400 0.000000
142.140808 298.874878 -8.848400 0.000000
155.624115 298.874878 -8.848400 0.000000
169.107422 298.874878 -8.848400 0.000000
182.590698 298.874878 -8.848400 0.000000
196.074036 298.874878 -8.848400 0.000000
209.557312 298.874878 -8.848400 0.000000
223.040588 298.874878 -8.848400 0.000000
236.523926 298.874878 -8.848400 0.000000
250.007202 298.874878 -8.848400 0.000000
263.490540 298.874878 -8.848400 0.000000
276.973816 298.874878 -8.848400 0.000000
290.457092 298.874878 -8.848400 0.000000
303.940430 298.874878 -8.848400 0.000000
317.423706 298.874878 -8.848400 0.000000
330.907043 298.874878 -8.848400 0.000000
344.390320 298.874878 -8.848400 0.000000
-343.257996 285.391602 -8.848400 0.000000
-329.774689 285.391602 -8.848400 0.000000
-316.291382 285.391602 -8.848400 0.000000
-302.808105 285.391602 -8.848400 0.000000
-289.324799 285.391602 -8.848400 0.000000
-275.841492 285.391602 -8.848400 0.000000
-262.358185 285.391602 -8.848400 0.000000
-248.874893 285.391602 -8.848400 0.000000
-235.391602 285.391602 -8.848400 0.000000
-221.908295 285.391602 -8.848400 0.000000
-208.424988 285.391602 -8.848400 0.000000
-194.941696 285.391602 -8.848400 0.000000
-181.458389 285.391602 -8.848400 0.000000
-167.975098 285.391602 -8.848400 0.000000
-154.491791 285.391602 -8.848400 0.000000
-141.008499 285.391602 -8.848400 0.000000
-127.525192 285.391602 -8.848400 0.000000
-114.041885 285.391602 -8.848400 -0.078389
-100.558594 285.391602 -8.848400 -0.098050
-87.075287 285.391602 -8.848400 -0.101058
-73.591980 285.391602 -8.848400 -0.109011
-60.108704 285.391602 -8.848400 -0.086421
-46.625397 285.391602 -8.848400 -0.081228
-33.142090 285.391602 -8.848400 -0.079459
-19.658783 285.391602 -8.848400 -0.083126
-6.175476 285.391602 -8.848400 -0.085695
7.307800 285.391602 -8.848400 -0.091889
20.791107 285.391602 -8.848400 -0.088445
34.274414 285.391602 -8.848400 -0.078550
47.757721 285.391602 -8.848400 -0.074610
61.240997 285.391602 -8.848400 0.000000
74.724304 285.391602 -8.848400 0.000000
88.207611 285.391602 -8.848400 0.000000
101.690918 285.391602 -8.848400 -0.171383
115.174225 285.391602 -8.848400 -0.179170
128.657501 285.391602 -8.848400 -0.156972
142.140808 285.391602 -8.848400 -0.143550
155.624115 285.391602 -8.848400 -0.116810
169.107422 285.391602 -8.848400 -0.100153
182.590698 285.391602 -8.848400 0.000000
196.074036 285.391602 -8.848400 0.000000
209.557312 285.391602 -8.848400 0.000000
223.040588 285.391602 -8.848400 0.000000
236.523926 285.391602 -8.848400 0.000000
250.007202 285.391602 -8.848400 0.000000
263.490540 285.391602 -8.848400 0.000000
276.973816 285.391602 -8.848400 0.000000
290.457092 285.391602 -8.848400 0.000000
303.940430 285.391602 -8.848400 0.000000
317.423706 285.391602 -8.848400 0.000000
330.907043 285.391602 -8.848400 0.000000
344.390320 285.391602 -8.848400 0.000000
-343.257996 271.908295 -8.848400 0.000000
-329.774689 271.908295 -8.848400 0.000000
-316.291382 271.908295 -8.848400 0.000000
-302.808105 271.908295 -8.848400 0.000000
-289.324799 271.908295 -8.848400 0.000000
-275.841492 271.908295 -8.848400 0.000000
-262.358185 271.908295 -8.848400 0.000000
-248.874893 271.908295 -8.848400 0.000000
-235.391602 271.908295 -8.848400 0.000000
-221.908295 271.908295 -8.848400 0.000000
-208.424988 271.908295 -8.848400 0.000000
-194.941696 271.908295 -8.848400 0.000000
-181.458389 271.908295 -8.848400 0.000000
-167.975098 271.908295 -8.848400 0.000000
-154.491791 271.908295 -8.848400 0.000000
-141.008499 271.908295 -8.848400 0.000000
-127.525192 271.908295 -8.848400 0.000000
-114.041885 271.908295 -8.848400 -0.060695
-100.558594 271.908295 -8.848400 -0.087766
-87.075287 271.908295 -8.848400 -0.092280
-73.591980 271.908295 -8.848400 -0.094966
-60.108704 271.908295 -8.848400 -0.083298
-46.625397 271.908295 -8.848400 -0.067597
-33.142090 271.908295 -8.848400 -0.061140
-19.658783 271.908295 -8.848400 -0.063703
-6.175476 271.908295 -8.848400 -0.071815
7.307800 271.908295 -8.848400 -0.081277
20.791107 271.908295 -8.848400 -0.093659
34.274414 271.908295 -8.848400 -0.094269
47.757721 271.908295 -8.848400 -0.089848
61.240997 271.908295 -8.848400 0.000000
74.724304 271.908295 -8.848400 0.000000
88.207611 271.908295 -8.848400 -0.156741
101.690918 271.908295 -8.848400 -0.180668
115.174225 271.908295 -8.848400 -0.183941
128.657501 271.908295 -8.848400 -0.155256
142.140808 271.908295 -8.848400 0.000000
155.624115 271.908295 -8.848400 -0.087515
169.107422 271.908295 -8.848400 -0.072779
182.590698 271.908295 -8.848400 0.000000
196.074036 271.908295 -8.848400 0.000000
209.557312 271.908295 -8.848400 0.000000
223.040588 271.908295 -8.848400 0.000000
236.523926 271.908295 -8.848400 0.000000
250.007202 271.908295 -8.848400 0.000000
263.490540 271.908295 -8.848400 0.000000
276.973816 271.908295 -8.848400 0.000000
290.457092 271.908295 -8.848400 0.000000
303.940430 271.908295 -8.848400 0.000000
317.423706 271.908295 -8.848400 0.000000
330.907043 271.908295 -8.848400 0.000000
344.390320 271.908295 -8.848400 0.000000
-343.257996 258.424988 -8.848400 0.000000
-329.774689 258.424988 -8.848400 0.000000
-316.291382 258.424988 -8.848400 0.000000
-302.808105 258.424988 -8.848400 0.000000
-289.324799 258.424988 -8.848400 0.000000
-275.841492 258.424988 -8.848400 0.000000
-262.358185 258.424988 -8.848400 0.000000
-248.874893 258.424988 -8.848400 0.000000
-235.391602 258.424988 -8.848400 0.000000
-221.908295 258.424988 -8.848400 0.000000
-208.424988 258.424988 -8.848400 0.000000
-194.941696 258.424988 -8.848400 0.000000
-181.458389 258.424988 -8.848400 0.000000
-167.975098 258.424988 -8.848400 0.000000
-154.491791 258.424988 -8.848400 0.000000
-141.008499 258.424988 -8.848400 0.000000
-127.525192 258.424988 -8.848400 -0.055503
-114.041885 258.424988 -8.848400 -0.061560
-100.558594 258.424988 -8.848400 -0.078781
-87.075287 258.424988 -8.848400 -0.084261
-73.591980 258.424988 -8.848400 -0.085323
-60.108704 258.424988 -8.848400 -0.070557
-46.625397 258.424988 -8.848400 -0.066469
-33.142090 258.424988 -8.848400 -0.062608
-19.658783 258.424988 -8.848400 -0.065214
-6.175476 258.424988 -8.848400 -0.072358
7.307800 258.424988 -8.848400 -0.082913
20.791107 258.424988 -8.848400 -0.094380
34.274414 258.424988 -8.848400 0.000000
47.757721 258.424988 -8.848400 0.000000
61.240997 258.424988 -8.848400 0.000000
74.724304 258.424988 -8.848400 0.000000
88.207611 258.424988 -8.848400 -0.154388
101.690918 258.424988 -8.848400 -0.159265
115.174225 258.424988 -8.848400 -0.129330
128.657501 258.424988 -8.848400 -0.087617
142.140808 258.424988 -8.848400 -0.069080
155.624115 258.424988 -8.848400 -0.060330
169.107422 258.424988 -8.848400 -0.060247
182.590698 258.424988 -8.848400 -0.064016
196.074036 258.424988 -8.848400 0.000000
209.557312 258.424988 -8.848400 0.000000
223.040588 258.424988 -8.848400 0.000000
236.523926 258.424988 -8.848400 0.000000
250.007202 258.424988 -8.848400 0.000000
263.490540 258.424988 -8.848400 0.000000
276.973816 258.424988 -8.848400 0.000000
290.457092 258.424988 -8.848400 0.000000
303.940430 258.424988 -8.848400 0.000000
317.423706 258.424988 -8.848400 0.000000
330.907043 258.424988 -8.848400 0.000000
344.390320 258.424988 -8.848400 0.000000
-343.257996 244.941696 -8.848400 0.000000
-329.774689 244.941696 -8.848400 0.000000
-316.291382 244.941696 -8.848400 0.000000
-302.808105 244.941696 -8.848400 0.000000
-289.324799 244.941696 -8.848400 0.000000
-275.841492 244.941696 -8.848400 0.000000
-262.358185 244.941696 -8.848400 0.000000
-248.874893 244.941696 -8.848400 0.000000
-235.391602 244.941696 -8.848400 0.000000
-221.908295 244.941696 -8.848400 0.000000
-208.424988 244.941696 -8.848400 0.000000
-194.941696 244.941696 -8.848400 0.000000
-181.458389 244.941696 -8.848400 0.000000
-167.975098 244.941696 -8.848400 0.000000
-154.491791 244.941696 -8.848400 0.000000
-141.008499 244.941696 -8.848400 0.000000
-127.525192 244.941696 -8.848400 -0.061370
-114.041885 244.941696 -8.848400 -0.066410
-100.558594 244.941696 -8.848400 -0.087127
-87.075287 244.941696 -8.848400 -0.088311
-73.591980 244.941696 -8.848400 -0.076042
-60.108704 244.941696 -8.848400 -0.059960
-46.625397 244.941696 -8.848400 -0.058267
-33.142090 244.941696 -8.848400 -0.058776
-19.658783 244.941696 -8.848400 -0.058199
-6.175476 244.941696 -8.848400 -0.064621
7.307800 244.941696 -8.848400 -0.085138
20.791107 244.941696 -8.848400 -0.084495
34.274414 244.941696 -8.848400 -0.099560
47.757721 244.941696 -8.848400 0.000000
61.240997 244.941696 -8.848400 0.000000
74.724304 244.941696 -8.848400 0.000000
88.207611 244.941696 -8.848400 -0.131631
101.690918 244.941696 -8.848400 -0.120718
115.174225 244.941696 -8.848400 0.000000
128.657501 244.941696 -8.848400 0.000000
142.140808 244.941696 -8.848400 0.000000
155.624115 244.941696 -8.848400 0.000000
169.107422 244.941696 -8.848400 -0.037852
182.590698 244.941696 -8.848400 -0.033742
196.074036 244.941696 -8.848400 -0.025963
209.557312 244.941696 -8.848400 0.000000
223.040588 244.941696 -8.848400 0.000000
236.523926 244.941696 -8.848400 0.000000
250.007202 244.941696 -8.848400 0.000000
263.490540 244.941696 -8.848400 0.000000
276.973816 244.941696 -8.848400 0.000000
290.457092 244.941696 -8.848400 0.000000
303.940430 244.941696 -8.848400 0.000000
317.423706 244.941696 -8.848400 0.000000
330.907043 244.941696 -8.848400 0.000000
344.390320 244.941696 -8.848400 0.000000
-343.257996 231.458389 -8.848400 0.000000
-329.774689 231.458389 -8.848400 0.000000
-316.291382 231.458389 -8.848400 0.000000
-302.808105 231.458389 -8.848400 0.000000
-289.324799 231.458389 -8.848400 0.000000
-275.841492 231.458389 -8.848400 0.000000
-262.358185 231.458389 -8.848400 0.000000
-248.874893 231.458389 -8.848400 0.000000
-235.391602 231.458389 -8.848400 0.000000
-221.908295 231.458389 -8.848400 0.000000
-208.424988 231.458389 -8.848400 0.000000
-194.941696 231.458389 -8.848400 0.000000
-181.458389 231.458389 -8.848400 0.000000
-167.975098 231.458389 -8.848400 0.000000
-154.491791 231.458389 -8.848400 0.000000
-141.008499 231.458389 -8.848400 0.000000
-127.525192 231.458389 -8.848400 -0.057008
-114.041885 231.458389 -8.848400 -0.077184
-100.558594 231.458389 -8.848400 -0.075818
-87.075287 231.458389 -8.848400 -0.075201
-73.591980 231.458389 -8.848400 -0.067341
-60.108704 231.458389 -8.848400 -0.052143
-46.625397 231.458389 -8.848400 -0.052095
-33.142090 231.458389 -8.848400 -0.043937
-19.658783 231.458389 -8.848400 -0.047912
-6.175476 231.458389 -8.848400 -0.061715
7.307800 231.458389 -8.848400 -0.077748
20.791107 231.458389 -8.848400 -0.082906
34.274414 231.458389 -8.848400 -0.088132
47.757721 231.458389 -8.848400 0.000000
61.240997 231.458389 -8.848400 0.000000
74.724304 231.458389 -8.848400 -0.091864
88.207611 231.458389 -8.848400 -0.081891
101.690918 231.458389 -8.848400 -0.060702
115.174225 231.458389 -8.848400 0.000000
128.657501 231.458389 -8.848400 0.000000
142.140808 231.458389 -8.848400 -0.000333
155.624115 231.458389 -8.848400 -0.011936
169.107422 231.458389 -8.848400 0.001019
182.590698 231.458389 -8.848400 -0.002244
196.074036 231.458389 -8.848400 -0.004431
209.557312 231.458389 -8.848400 0.000000
223.040588 231.458389 -8.848400 0.000000
236.523926 231.458389 -8.848400 0.000000
250.007202 231.458389 -8.848400 0.000000
263.490540 231.458389 -8.848400 0.000000
276.973816 231.458389 -8.848400 0.000000
290.457092 231.458389 -8.848400 0.000000
303.940430 231.458389 -8.848400 0.000000
317.423706 231.458389 -8.848400 0.000000
330.907043 231.458389 -8.848400 0.000000
344.390320 231.458389 -8.848400 0.000000
-343.257996 217.975098 -8.848400 0.000000
-329.774689 217.975098 -8.848400 0.000000
-316.291382 217.975098 -8.848400 0.000000
-302.808105 217.975098 -8.848400 0.000000
-289.324799 217.975098 -8.848400 0.000000
-275.841492 217.975098 -8.848400 0.000000
-262.358185 217.975098 -8.848400 0.000000
-248.874893 217.975098 -8.848400 0.000000
-235.391602 217.975098 -8.848400 0.000000
-221.908295 217.975098 -8.848400 0.000000
-208.424988 217.975098 -8.848400 0.000000
-194.941696 217.975098 -8.848400 0.000000
-181.458389 217.975098 -8.848400 0.000000
-167.975098 217.975098 -8.848400 0.000000
-154.491791 217.975098 -8.848400 0.000000
-141.008499 217.975098 -8.848400 -0.052114
-127.525192 217.975098 -8.848400 -0.062855
-114.041885 217.975098 -8.848400 -0.072069
-100.558594 217.975098 -8.848400 -0.076337
-87.075287 217.975098 -8.848400 -0.071264
-73.591980 217.975098 -8.848400 -0.044166
-60.108704 217.975098 -8.848400 -0.037147
-46.625397 217.975098 -8.848400 -0.035807
-33.142090 217.975098 -8.848400 -0.032580
-19.658783 217.975098 -8.848400 -0.031205
-6.175476 217.975098 -8.848400 -0.046036
7.307800 217.975098 -8.848400 -0.062448
20.791107 217.975098 -8.848400 -0.057629
34.274414 217.975098 -8.848400 -0.076888
47.757721 217.975098 -8.848400 0.000000
61.240997 217.975098 -8.848400 -0.073703
74.724304 217.975098 -8.848400 -0.053346
88.207611 217.975098 -8.848400 -0.022779
101.690918 217.975098 -8.848400 -0.012905
115.174225 217.975098 -8.848400 0.000000
128.657501 217.975098 -8.848400 0.041185
142.140808 217.975098 -8.848400 0.024523
155.624115 217.975098 -8.848400 0.025743
169.107422 217.975098 -8.848400 0.013223
182.590698 217.975098 -8.848400 0.011191
196.074036 217.975098 -8.848400 0.000000
209.557312 217.975098 -8.848400 0.000000
223.040588 217.975098 -8.848400 0.000000
236.523926 217.975098 -8.848400 0.000000
250.007202 217.975098 -8.848400 0.000000
263.490540 217.975098 -8.848400 0.000000
276.973816 217.975098 -8.848400 0.000000
290.457092 217.975098 -8.848400 0.000000
303.940430 217.975098 -8.848400 0.000000
317.423706 217.975098 -8.848400 0.000000
330.907043 217.975098 -8.848400 0.000000
344.390320 217.975098 -8.848400 0.000000
-343.257996 204.491791 -8.848400 0.000000
-329.774689 204.491791 -8.848400 0.000000
-316.291382 204.491791 -8.848400 0.000000
-302.808105 204.491791 -8.848400 0.000000
-289.324799 204.491791 -8.848400 0.000000
-275.841492 204.491791 -8.848400 0.000000
-262.358185 204.491791 -8.848400 0.000000
-248.874893 204.491791 -8.848400 0.000000
-235.391602 204.491791 -8.848400 0.000000
-221.908295 204.491791 -8.848400 0.000000
-208.424988 204.491791 -8.848400 0.000000
-194.941696 204.491791 -8.848400 0.000000
-181.458389 204.491791 -8.848400 0.000000
-167.975098 204.491791 -8.848400 0.000000
-154.491791 204.491791 -8.848400 0.000000
-141.008499 204.491791 -8.848400 -0.054817
-127.525192 204.491791 -8.848400 -0.065187
-114.041885 204.491791 -8.848400 -0.082187
-100.558594 204.491791 -8.848400 -0.064418
-87.075287 204.491791 -8.848400 -0.066019
-73.591980 204.491791 -8.848400 -0.037051
-60.108704 204.491791 -8.848400 -0.031457
-46.625397 204.491791 -8.848400 -0.025830
-33.142090 204.491791 -8.848400 -0.031794
-19.658783 204.491791 -8.848400 -0.033105
-6.175476 204.491791 -8.848400 -0.044374
7.307800 204.491791 -8.848400 -0.042978
20.791107 204.491791 -8.848400 -0.041326
34.274414 204.491791 -8.848400 -0.051287
47.757721 204.491791 -8.848400 -0.049830
61.240997 204.491791 -8.848400 -0.029121
74.724304 204.491791 -8.848400 -0.014877
88.207611 204.491791 -8.848400 0.009503
101.690918 204.491791 -8.848400 0.033294
115.174225 204.491791 -8.848400 0.060255
128.657501 204.491791 -8.848400 0.068204
142.140808 204.491791 -8.848400 0.049995
155.624115 204.491791 -8.848400 0.037806
169.107422 204.491791 -8.848400 0.032516
182.590698 204.491791 -8.848400 0.000000
196.074036 204.491791 -8.848400 0.000000
209.557312 204.491791 -8.848400 0.000000
223.040588 204.491791 -8.848400 0.000000
236.523926 204.491791 -8.848400 0.000000
250.007202 204.491791 -8.848400 0.000000
263.490540 204.491791 -8.848400 0.000000
276.973816 204.491791 -8.848400 0.000000
290.457092 204.491791 -8.848400 0.000000
303.940430 204.491791 -8.848400 0.000000
317.423706 204.491791 -8.848400 0.000000
330.907043 204.491791 -8.848400 0.000000
344.390320 204.491791 -8.848400 0.000000
-343.257996 191.008499 -8.848400 0.000000
-329.774689 191.008499 -8.848400 0.000000
-316.291382 191.008499 -8.848400 0.000000
-302.808105 191.008499 -8.848400 0.000000
-289.324799 191.008499 -8.848400 0.000000
-275.841492 191.008499 -8.848400 0.000000
-262.358185 191.008499 -8.848400 0.000000
-248.874893 191.008499 -8.848400 0.000000
-235.391602 191.008499 -8.848400 0.000000
-221.908295 191.008499 -8.848400 0.000000
-208.424988 191.008499 -8.848400 0.000000
-194.941696 191.008499 -8.848400 0.000000
-181.458389 191.008499 -8.848400 0.000000
-167.975098 191.008499 -8.848400 0.000000
-154.491791 191.008499 -8.848400 0.000000
-141.008499 191.008499 -8.848400 -0.056932
-127.525192 191.008499 -8.848400 -0.074892
-114.041885 191.008499 -8.848400 -0.073014
-100.558594 191.008499 -8.848400 -0.073781
-87.075287 191.008499 -8.848400 -0.051638
-73.591980 191.008499 -8.848400 -0.039750
-60.108704 191.008499 -8.848400 -0.032408
-46.625397 191.008499 -8.848400 -0.026461
-33.142090 191.008499 -8.848400 -0.029100
-19.658783 191.008499 -8.848400 -0.025902
-6.175476 191.008499 -8.848400 -0.035841
7.307800 191.008499 -8.848400 -0.025695
20.791107 191.008499 -8.848400 -0.033516
34.274414 191.008499 -8.848400 -0.032182
47.757721 191.008499 -8.848400 -0.013107
61.240997 191.008499 -8.848400 0.002701
74.724304 191.008499 -8.848400 0.022053
88.207611 191.008499 -8.848400 0.049845
101.690918 191.008499 -8.848400 0.064772
115.174225 191.008499 -8.848400 0.084680
128.657501 191.008499 -8.848400 0.080825
142.140808 191.008499 -8.848400 0.070587
155.624115 191.008499 -8.848400 0.054011
169.107422 191.008499 -8.848400 0.039931
182.590698 191.008499 -8.848400 0.000000
196.074036 191.008499 -8.848400 0.000000
209.557312 191.008499 -8.848400 0.000000
223.040588 191.008499 -8.848400 0.000000
236.523926 191.008499 -8.848400 0.000000
250.007202 191.008499 -8.848400 0.000000
263.490540 191.008499 -8.848400 0.000000
276.973816 191.008499 -8.848400 0.000000
290.457092 191.008499 -8.848400 0.000000
303.940430 191.008499 -8.848400 0.000000
317.423706 191.008499 -8.848400 0.000000
330.907043 191.008499 -8.848400 0.000000
344.390320 191.008499 -8.848400 0.000000
-343.257996 177.525192 -8.848400 0.000000
-329.774689 177.525192 -8.848400 0.000000
-316.291382 177.525192 -8.848400 0.000000
-302.808105 177.525192 -8.848400 0.000000
-289.324799 177.525192 -8.848400 0.000000
-275.841492 177.525192 -8.848400 0.000000
-262.358185 177.525192 -8.848400 0.000000
-248.874893 177.525192 -8.848400 0.000000
-235.391602 177.525192 -8.848400 0.000000
-221.908295 177.525192 -8.848400 0.000000
-208.424988 177.525192 -8.848400 0.000000
-194.941696 177.525192 -8.848400 0.000000
-181.458389 177.525192 -8.848400 0.000000
-167.975098 177.525192 -8.848400 0.000000
-154.491791 177.525192 -8.848400 0.000000
-141.008499 177.525192 -8.848400 -0.071495
-127.525192 177.525192 -8.848400 -0.102183
-114.041885 177.525192 -8.848400 -0.094765
-100.558594 177.525192 -8.848400 -0.071478
-87.075287 177.525192 -8.848400 -0.057308
-73.591980 177.525192 -8.848400 -0.036555
-60.108704 177.525192 -8.848400 -0.030722
-46.625397 177.525192 -8.848400 -0.018676
-33.142090 177.525192 -8.848400 -0.025510
-19.658783 177.525192 -8.848400 -0.022777
-6.175476 177.525192 -8.848400 -0.022081
7.307800 177.525192 -8.848400 -0.016675
20.791107 177.525192 -8.848400 -0.010101
34.274414 177.525192 -8.848400 0.003491
47.757721 177.525192 -8.848400 0.028008
61.240997 177.525192 -8.848400 0.037822
74.724304 177.525192 -8.848400 0.045677
88.207611 177.525192 -8.848400 0.068786
101.690918 177.525192 -8.848400 0.074675
115.174225 177.525192 -8.848400 0.079950
128.657501 177.525192 -8.848400 0.081005
142.140808 177.525192 -8.848400 0.068138
155.624115 177.525192 -8.848400 0.062869
169.107422 177.525192 -8.848400 0.000000
182.590698 177.525192 -8.848400 0.000000
196.074036 177.525192 -8.848400 0.000000
209.557312 177.525192 -8.848400 0.000000
223.040588 177.525192 -8.848400 0.000000
236.523926 177.525192 -8.848400 0.000000
250.007202 177.525192 -8.848400 0.000000
263.490540 177.525192 -8.848400 0.000000
276.973816 177.525192 -8.848400 0.000000
290.457092 177.525192 -8.848400 0.000000
303.940430 177.525192 -8.848400 0.000000
317.423706 177.525192 -8.848400 0.000000
330.907043 177.525192 -8.848400 0.000000
344.390320 177.525192 -8.848400 0.000000
-343.257996 164.041885 -8.848400 0.000000
-329.774689 164.041885 -8.848400 0.000000
-316.291382 164.041885 -8.848400 0.000000
-302.808105 164.041885 -8.848400 0.000000
-289.324799 164.041885 -8.848400 0.000000
-275.841492 164.041885 -8.848400 0.000000
-262.358185 164.041885 -8.848400 0.000000
-248.874893 164.041885 -8.848400 0.000000
-235.391602 164.041885 -8.848400 0.000000
-221.908295 164.041885 -8.848400 0.000000
-208.424988 164.041885 -8.848400 0.000000
-194.941696 164.041885 -8.848400 0.000000
-181.458389 164.041885 -8.848400 0.000000
-167.975098 164.041885 -8.848400 0.000000
-154.491791 164.041885 -8.848400 0.000000
-141.008499 164.041885 -8.848400 -0.069351
-127.525192 164.041885 -8.848400 -0.103045
-114.041885 164.041885 -8.848400 -0.076223
-100.558594 164.041885 -8.848400 -0.042223
-87.075287 164.041885 -8.848400 -0.048420
-73.591980 164.041885 -8.848400 -0.034916
-60.108704 164.041885 -8.848400 -0.022881
-46.625397 164.041885 -8.848400 -0.014274
-33.142090 164.041885 -8.848400 -0.015548
-19.658783 164.041885 -8.848400 -0.009559
-6.175476 164.041885 -8.848400 -0.019430
7.307800 164.041885 -8.848400 -0.004467
20.791107 164.041885 -8.848400 0.018948
34.274414 164.041885 -8.848400 0.033670
47.757721 164.041885 -8.848400 0.048327
61.240997 164.041885 -8.848400 0.068975
74.724304 164.041885 -8.848400 0.072200
88.207611 164.041885 -8.848400 0.082560
101.690918 164.041885 -8.848400 0.080395
115.174225 164.041885 -8.848400 0.078916
128.657501 164.041885 -8.848400 0.072341
142.140808 164.041885 -8.848400 0.000000
155.624115 164.041885 -8.848400 0.000000
169.107422 164.041885 -8.848400 0.000000
182.590698 164.041885 -8.848400 0.000000
196.074036 164.041885 -8.848400 0.000000
209.557312 164.041885 -8.848400 0.000000
223.040588 164.041885 -8.848400 0.000000
236.523926 164.041885 -8.848400 0.000000
250.007202 164.041885 -8.848400 0.000000
263.490540 164.041885 -8.848400 0.000000
276.973816 164.041885 -8.848400 0.000000
290.457092 164.041885 -8.848400 0.000000
303.940430 164.041885 -8.848400 0.000000
317.423706 164.041885 -8.848400 0.000000
330.907043 164.041885 -8.848400 0.000000
344.390320 164.041885 -8.848400 0.000000
-343.257996 150.558594 -8.848400 0.000000
-329.774689 150.558594 -8.848400 0.000000
-316.291382 150.558594 -8.848400 0.000000
-302.808105 150.558594 -8.848400 0.000000
-289.324799 150.558594 -8.848400 0.000000
-275.841492 150.558594 -8.848400 0.000000
-262.358185 150.558594 -8.848400 0.000000
-248.874893 150.558594 -8.848400 0.000000
-235.391602 150.558594 -8.848400 0.000000
-221.908295 150.558594 -8.848400 0.000000
-208.424988 150.558594 -8.848400 0.000000
-194.941696 150.558594 -8.848400 0.000000
-181.458389 150.558594 -8.848400 0.000000
-167.975098 150.558594 -8.848400 0.000000
-154.491791 150.558594 -8.848400 0.000000
-141.008499 150.558594 -8.848400 -0.068074
-127.525192 150.558594 -8.848400 -0.071926
-114.041885 150.558594 -8.848400 -0.067980
-100.558594 150.558594 -8.848400 -0.037959
-87.075287 150.558594 -8.848400 -0.046158
-73.591980 150.558594 -8.848400 -0.048742
-60.108704 150.558594 -8.848400 -0.020469
-46.625397 150.558594 -8.848400 -0.019525
-33.142090 150.558594 -8.848400 -0.006401
-19.658783 150.558594 -8.848400 -0.002868
-6.175476 150.558594 -8.848400 0.006022
7.307800 150.558594 -8.848400 0.019987
20.791107 150.558594 -8.848400 0.052531
34.274414 150.558594 -8.848400 0.069987
47.757721 150.558594 -8.848400 0.068639
61.240997 150.558594 -8.848400 0.100110
74.724304 150.558594 -8.848400 0.109242
88.207611 150.558594 -8.848400 0.101724
101.690918 150.558594 -8.848400 0.085726
115.174225 150.558594 -8.848400 0.064163
128.657501 150.558594 -8.848400 0.000000
142.140808 150.558594 -8.848400 0.000000
155.624115 150.558594 -8.848400 0.000000
169.107422 150.558594 -8.848400 0.000000
182.590698 150.558594 -8.848400 0.000000
196.074036 150.558594 -8.848400 0.000000
209.557312 150.558594 -8.848400 0.000000
223.040588 150.558594 -8.848400 0.000000
236.523926 150.558594 -8.848400 0.000000
250.007202 150.558594 -8.848400 0.000000
263.490540 150.558594 -8.848400 0.000000
276.973816 150.558594 -8.848400 0.000000
290.457092 150.558594 -8.848400 0.000000
303.940430 150.558594 -8.848400 0.000000
317.423706 150.558594 -8.848400 0.000000
330.907043 150.558594 -8.848400 0.000000
344.390320 150.558594 -8.848400 0.000000
-343.257996 137.075287 -8.848400 0.000000
-329.774689 137.075287 -8.848400 0.000000
-316.291382 137.075287 -8.848400 0.000000
-302.808105 137.075287 -8.848400 0.000000
-289.324799 137.075287 -8.848400 0.000000
-275.841492 137.075287 -8.848400 0.000000
-262.358185 137.075287 -8.848400 0.000000
-248.874893 137.075287 -8.848400 0.000000
-235.391602 137.075287 -8.848400 0.000000
-221.908295 137.075287 -8.848400 0.000000
-208.424988 137.075287 -8.848400 0.000000
-194.941696 137.075287 -8.848400 0.000000
-181.458389 137.075287 -8.848400 0.000000
-167.975098 137.075287 -8.848400 0.000000
-154.491791 137.075287 -8.848400 0.000000
-141.008499 137.075287 -8.848400 -0.069771
-127.525192 137.075287 -8.848400 -0.055312
-114.041885 137.075287 -8.848400 -0.046910
-100.558594 137.075287 -8.848400 -0.034914
-87.075287 137.075287 -8.848400 -0.048528
-73.591980 137.075287 -8.848400 -0.022206
-60.108704 137.075287 -8.848400 -0.017213
-46.625397 137.075287 -8.848400 -0.019617
-33.142090 137.075287 -8.848400 -0.004588
-19.658783 137.075287 -8.848400 0.008966
-6.175476 137.075287 -8.848400 0.016281
7.307800 137.075287 -8.848400 0.048820
20.791107 137.075287 -8.848400 0.070277
34.274414 137.075287 -8.848400 0.094813
47.757721 137.075287 -8.848400 0.103742
61.240997 137.075287 -8.848400 0.132862
74.724304 137.075287 -8.848400 0.129878
88.207611 137.075287 -8.848400 0.122138
101.690918 137.075287 -8.848400 0.000000
115.174225 137.075287 -8.848400 0.000000
128.657501 137.075287 -8.848400 0.000000
142.140808 137.075287 -8.848400 0.000000
155.624115 137.075287 -8.848400 0.000000
169.107422 137.075287 -8.848400 0.000000
182.590698 137.075287 -8.848400 0.000000
196.074036 137.075287 -8.848400 0.000000
209.557312 137.075287 -8.848400 0.000000
223.040588 137.075287 -8.848400 0.000000
236.523926 137.075287 -8.848400 0.000000
250.007202 137.075287 -8.848400 0.000000
263.490540 137.075287 -8.848400 0.000000
276.973816 137.075287 -8.848400 0.000000
290.457092 137.075287 -8.848400 0.000000
303.940430 137.075287 -8.848400 0.000000
317.423706 137.075287 -8.848400 0.000000
330.907043 137.075287 -8.848400 0.000000
344.390320 137.075287 -8.848400 0.000000
-343.257996 123.591980 -8.848400 0.000000
-329.774689 123.591980 -8.848400 0.000000
-316.291382 123.591980 -8.848400 0.000000
-302.808105 123.591980 -8.848400 0.000000
-289.324799 123.591980 -8.848400 0.000000
-275.841492 123.591980 -8.848400 0.000000
-262.358185 123.591980 -8.848400 0.000000
-248.874893 123.591980 -8.848400 0.000000
-235.391602 123.591980 -8.848400 0.000000
-221.908295 123.591980 -8.848400 0.000000
-208.424988 123.591980 -8.848400 0.000000
-194.941696 123.591980 -8.848400 0.000000
-181.458389 123.591980 -8.848400 0.000000
-167.975098 123.591980 -8.848400 0.000000
-154.491791 123.591980 -8.848400 0.000000
-141.008499 123.591980 -8.848400 -0.045807
-127.525192 123.591980 -8.848400 -0.039549
-114.041885 123.591980 -8.848400 -0.022873
-100.558594 123.591980 -8.848400 -0.004569
-87.075287 123.591980 -8.848400 -0.017469
-73.591980 123.591980 -8.848400 -0.021778
-60.108704 123.591980 -8.848400 -0.018218
-46.625397 123.591980 -8.848400 -0.009716
-33.142090 123.591980 -8.848400 0.000298
-19.658783 123.591980 -8.848400 0.010007
-6.175476 123.591980 -8.848400 0.019617
7.307800 123.591980 -8.848400 0.057183
20.791107 123.591980 -8.848400 0.079728
34.274414 123.591980 -8.848400 0.112074
47.757721 123.591980 -8.848400 0.137959
61.240997 123.591980 -8.848400 0.143449
74.724304 123.591980 -8.848400 0.134670
88.207611 123.591980 -8.848400 0.000000
101.690918 123.591980 -8.848400 0.000000
115.174225 123.591980 -8.848400 0.000000
128.657501 123.591980 -8.848400 0.000000
142.140808 123.591980 -8.848400 0.000000
155.624115 123.591980 -8.848400 0.000000
169.107422 123.591980 -8.848400 0.000000
182.590698 123.591980 -8.848400 0.000000
196.074036 123.591980 -8.848400 0.000000
209.557312 123.591980 -8.848400 0.000000
223.040588 123.591980 -8.848400 0.000000
236.523926 123.591980 -8.848400 0.000000
250.007202 123.591980 -8.848400 0.000000
263.490540 123.591980 -8.848400 0.000000
276.973816 123.591980 -8.848400 0.000000
290.457092 123.591980 -8.848400 0.000000
303.940430 123.591980 -8.848400 0.000000
317.423706 123.591980 -8.848400 0.000000
330.907043 123.591980 -8.848400 0.000000
344.390320 123.591980 -8.848400 0.000000
-343.257996 110.108704 -8.848400 0.000000
-329.774689 110.108704 -8.848400 0.000000
-316.291382 110.108704 -8.848400 0.000000
-302.808105 110.108704 -8.848400 0.000000
-289.324799 110.108704 -8.848400 0.000000
-275.841492 110.108704 -8.848400 0.000000
-262.358185 110.108704 -8.848400 0.000000
-248.874893 110.108704 -8.848400 0.000000
-235.391602 110.108704 -8.848400 0.000000
-221.908295 110.108704 -8.848400 0.000000
-208.424988 110.108704 -8.848400 0.000000
-194.941696 110.108704 -8.848400 0.000000
-181.458389 110.108704 -8.848400 0.000000
-167.975098 110.108704 -8.848400 0.000000
-154.491791 110.108704 -8.848400 0.000000
-141.008499 110.108704 -8.848400 -0.060864
-127.525192 110.108704 -8.848400 -0.044308
-114.041885 110.108704 -8.848400 -0.048341
-100.558594 110.108704 -8.848400 -0.016940
-87.075287 110.108704 -8.848400 -0.018722
-73.591980 110.108704 -8.848400 -0.009026
-60.108704 110.108704 -8.848400 -0.010243
-46.625397 110.108704 -8.848400 -0.005865
-33.142090 110.108704 -8.848400 -0.002970
-19.658783 110.108704 -8.848400 0.014603
-6.175476 110.108704 -8.848400 0.034904
7.307800 110.108704 -8.848400 0.055664
20.791107 110.108704 -8.848400 0.089216
34.274414 110.108704 -8.848400 0.127713
47.757721 110.108704 -8.848400 0.141049
61.240997 110.108704 -8.848400 0.131015
74.724304 110.108704 -8.848400 0.000000
88.207611 110.108704 -8.848400 0.000000
101.690918 110.108704 -8.848400 0.000000
115.174225 110.108704 -8.848400 0.000000
128.657501 110.108704 -8.848400 0.000000
142.140808 110.108704 -8.848400 0.000000
155.624115 110.108704 -8.848400 0.000000
169.107422 110.108704 -8.848400 0.000000
182.590698 110.108704 -8.848400 0.000000
196.074036 110.108704 -8.848400 0.000000
209.557312 110.108704 -8.848400 0.000000
223.040588 110.108704 -8.848400 0.000000
236.523926 110.108704 -8.848400 0.000000
250.007202 110.108704 -8.848400 0.000000
263.490540 110.108704 -8.848400 0.000000
276.973816 110.108704 -8.848400 0.000000
290.457092 110.108704 -8.848400 0.000000
303.940430 110.108704 -8.848400 0.000000
317.423706 110.108704 -8.848400 0.000000
330.907043 110.108704 -8.848400 0.000000
344.390320 110.108704 -8.848400 0.000000
-343.257996 96.625397 -8.848400 0.000000
-329.774689 96.625397 -8.848400 0.000000
-316.291382 96.625397 -8.848400 0.000000
-302.808105 96.625397 -8.848400 0.000000
-289.324799 96.625397 -8.848400 0.000000
-275.841492 96.625397 -8.848400 0.000000
-262.358185 96.625397 -8.848400 0.000000
-248.874893 96.625397 -8.848400 0.000000
-235.391602 96.625397 -8.848400 0.000000
-221.908295 96.625397 -8.848400 0.000000
-208.424988 96.625397 -8.848400 0.000000
-194.941696 96.625397 -8.848400 0.000000
-181.458389 96.625397 -8.848400 0.000000
-167.975098 96.625397 -8.848400 0.000000
-154.491791 96.625397 -8.848400 0.000000
-141.008499 96.625397 -8.848400 -0.069018
-127.525192 96.625397 -8.848400 -0.058055
-114.041885 96.625397 -8.848400 -0.034558
-100.558594 96.625397 -8.848400 -0.009658
-87.075287 96.625397 -8.848400 -0.014580
-73.591980 96.625397 -8.848400 -0.007728
-60.108704 96.625397 -8.848400 -0.009253
-46.625397 96.625397 -8.848400 -0.004002
-33.142090 96.625397 -8.848400 0.011909
-19.658783 96.625397 -8.848400 0.020467
-6.175476 96.625397 -8.848400 0.034117
7.307800 96.625397 -8.848400 0.057383
20.791107 96.625397 -8.848400 0.087224
34.274414 96.625397 -8.848400 0.108734
47.757721 96.625397 -8.848400 0.118575
61.240997 96.625397 -8.848400 0.097356
74.724304 96.625397 -8.848400 0.000000
88.207611 96.625397 -8.848400 0.000000
101.690918 96.625397 -8.848400 0.000000
115.174225 96.625397 -8.848400 0.000000
128.657501 96.625397 -8.848400 0.000000
142.140808 96.625397 -8.848400 0.000000
155.624115 96.625397 -8.848400 0.000000
169.107422 96.625397 -8.848400 0.000000
182.590698 96.625397 -8.848400 0.000000
196.074036 96.625397 -8.848400 0.000000
209.557312 96.625397 -8.848400 0.000000
223.040588 96.625397 -8.848400 0.000000
236.523926 96.625397 -8.848400 0.000000
250.007202 96.625397 -8.848400 0.000000
263.490540 96.625397 -8.848400 0.000000
276.973816 96.625397 -8.848400 0.000000
290.457092 96.625397 -8.848400 0.000000
303.940430 96.625397 -8.848400 0.000000
317.423706 96.625397 -8.848400 0.000000
330.907043 96.625397 -8.848400 0.000000
344.390320 96.625397 -8.848400 0.000000
-343.257996 83.142090 -8.848400 0.000000
-329.774689 83.142090 -8.848400 0.000000
-316.291382 83.142090 -8.848400 0.000000
-302.808105 83.142090 -8.848400 0.000000
-289.324799 83.142090 -8.848400 0.000000
-275.841492 83.142090 -8.848400 0.000000
-262.358185 83.142090 -8.848400 0.000000
-248.874893 83.142090 -8.848400 0.000000
-235.391602 83.142090 -8.848400 0.000000
-221.908295 83.142090 -8.848400 0.000000
-208.424988 83.142090 -8.848400 0.000000
-194.941696 83.142090 -8.848400 0.000000
-181.458389 83.142090 -8.848400 0.000000
-167.975098 83.142090 -8.848400 0.000000
-154.491791 83.142090 -8.848400 0.000000
-141.008499 83.142090 -8.848400 -0.048559
-127.525192 83.142090 -8.848400 -0.042459
-114.041885 83.142090 -8.848400 -0.014881
-100.558594 83.142090 -8.848400 -0.004229
-87.075287 83.142090 -8.848400 0.008500
-73.591980 83.142090 -8.848400 0.001551
-60.108704 83.142090 -8.848400 -0.000323
-46.625397 83.142090 -8.848400 0.013120
-33.142090 83.142090 -8.848400 0.022857
-19.658783 83.142090 -8.848400 0.021638
-6.175476 83.142090 -8.848400 0.036795
7.307800 83.142090 -8.848400 0.066047
20.791107 83.142090 -8.848400 0.088847
34.274414 83.142090 -8.848400 0.097207
47.757721 83.142090 -8.848400 0.081148
61.240997 83.142090 -8.848400 0.000000
74.724304 83.142090 -8.848400 0.000000
88.207611 83.142090 -8.848400 0.000000
101.690918 83.142090 -8.848400 0.000000
115.174225 83.142090 -8.848400 0.000000
128.657501 83.142090 -8.848400 0.000000
142.140808 83.142090 -8.848400 0.000000
155.624115 83.142090 -8.848400 0.000000
169.107422 83.142090 -8.848400 0.000000
182.590698 83.142090 -8.848400 0.000000
196.074036 83.142090 -8.848400 0.000000
209.557312 83.142090 -8.848400 0.000000
223.040588 83.142090 -8.848400 0.000000
236.523926 83.142090 -8.848400 0.000000
250.007202 83.142090 -8.848400 0.000000
263.490540 83.142090 -8.848400 0.000000
276.973816 83.142090 -8.848400 0.000000
290.457092 83.142090 -8.848400 0.000000
303.940430 83.142090 -8.848400 0.000000
317.423706 83.142090 -8.848400 0.000000
330.907043 83.142090 -8.848400 0.000000
344.390320 83.142090 -8.848400 0.000000
-343.257996 69.658783 -8.848400 0.000000
-329.774689 69.658783 -8.848400 0.000000
-316.291382 69.658783 -8.848400 0.000000
-302.808105 69.658783 -8.848400 0.000000
-289.324799 69.658783 -8.848400 0.000000
-275.841492 69.658783 -8.848400 0.000000
-262.358185 69.658783 -8.848400 0.000000
-248.874893 69.658783 -8.848400 0.000000
-235.391602 69.658783 -8.848400 0.000000
-221.908295 69.658783 -8.848400 0.000000
-208.424988 69.658783 -8.848400 0.000000
-194.941696 69.658783 -8.848400 0.000000
-181.458389 69.658783 -8.848400 0.000000
-167.975098 69.658783 -8.848400 0.000000
-154.491791 69.658783 -8.848400 0.000000
-141.008499 69.658783 -8.848400 -0.034400
-127.525192 69.658783 -8.848400 -0.002801
-114.041885 69.658783 -8.848400 0.004196
-100.558594 69.658783 -8.848400 0.004850
-87.075287 69.658783 -8.848400 0.013187
-73.591980 69.658783 -8.848400 0.006450
-60.108704 69.658783 -8.848400 0.008896
-46.625397 69.658783 -8.848400 0.017557
-33.142090 69.658783 -8.848400 0.018099
-19.658783 69.658783 -8.848400 0.024608
-6.175476 69.658783 -8.848400 0.039754
7.307800 69.658783 -8.848400 0.077027
20.791107 69.658783 -8.848400 0.082498
34.274414 69.658783 -8.848400 0.067448
47.757721 69.658783 -8.848400 0.042067
61.240997 69.658783 -8.848400 0.000000
74.724304 69.658783 -8.848400 0.000000
88.207611 69.658783 -8.848400 0.000000
101.690918 69.658783 -8.848400 0.000000
115.174225 69.658783 -8.848400 0.000000
128.657501 69.658783 -8.848400 0.000000
142.140808 69.658783 -8.848400 0.000000
155.624115 69.658783 -8.848400 0.000000
169.107422 69.658783 -8.848400 0.000000
182.590698 69.658783 -8.848400 0.000000
196.074036 69.658783 -8.848400 0.000000
209.557312 69.658783 -8.848400 0.000000
223.040588 69.658783 -8.848400 0.000000
236.523926 69.658783 -8.848400 0.000000
250.007202 69.658783 -8.848400 0.000000
263.490540 69.658783 -8.848400 0.000000
276.973816 69.658783 -8.848400 0.000000
290.457092 69.658783 -8.848400 0.000000
303.940430 69.658783 -8.848400 0.000000
317.423706 69.658783 -8.848400 0.000000
330.907043 69.658783 -8.848400 0.000000
344.390320 69.658783 -8.848400 0.000000
-343.257996 56.175476 -8.848400 0.000000
-329.774689 56.175476 -8.848400 0.000000
-316.291382 56.175476 -8.848400 0.000000
-302.808105 56.175476 -8.848400 0.000000
-289.324799 56.175476 -8.848400 0.000000
-275.841492 56.175476 -8.848400 0.000000
-262.358185 56.175476 -8.848400 0.000000
-248.874893 56.175476 -8.848400 0.000000
-235.391602 56.175476 -8.848400 0.000000
-221.908295 56.175476 -8.848400 0.000000
-208.424988 56.175476 -8.848400 0.000000
-194.941696 56.175476 -8.848400 0.000000
-181.458389 56.175476 -8.848400 0.000000
-167.975098 56.175476 -8.848400 0.000000
-154.491791 56.175476 -8.848400 0.000000
-141.008499 56.175476 -8.848400 -0.017172
-127.525192 56.175476 -8.848400 0.008813
-114.041885 56.175476 -8.848400 0.005444
-100.558594 56.175476 -8.848400 0.015032
-87.075287 56.175476 -8.848400 0.015105
-73.591980 56.175476 -8.848400 0.007130
-60.108704 56.175476 -8.848400 0.017888
-46.625397 56.175476 -8.848400 0.025389
-33.142090 56.175476 -8.848400 0.022841
-19.658783 56.175476 -8.848400 0.030124
-6.175476 56.175476 -8.848400 0.045303
7.307800 56.175476 -8.848400 0.072022
20.791107 56.175476 -8.848400 0.076985
34.274414 56.175476 -8.848400 0.044871
47.757721 56.175476 -8.848400 0.019511
61.240997 56.175476 -8.848400 0.000000
74.724304 56.175476 -8.848400 0.000000
88.207611 56.175476 -8.848400 0.000000
101.690918 56.175476 -8.848400 0.000000
115.174225 56.175476 -8.848400 0.000000
128.657501 56.175476 -8.848400 0.000000
142.140808 56.175476 -8.848400 0.000000
155.624115 56.175476 -8.848400 0.000000
169.107422 56.175476 -8.848400 0.000000
182.590698 56.175476 -8.848400 0.000000
196.074036 56.175476 -8.848400 0.000000
209.557312 56.175476 -8.848400 0.000000
223.040588 56.175476 -8.848400 0.000000
236.523926 56.175476 -8.848400 0.000000
250.007202 56.175476 -8.848400 0.000000
263.490540 56.175476 -8.848400 0.000000
276.973816 56.175476 -8.848400 0.000000
290.457092 56.175476 -8.848400 0.000000
303.940430 56.175476 -8.848400 0.000000
317.423706 56.175476 -8.848400 0.000000
330.907043 56.175476 -8.848400 0.000000
344.390320 56.175476 -8.848400 0.000000
-343.257996 42.692200 -8.848400 0.000000
-329.774689 42.692200 -8.848400 0.000000
-316.291382 42.692200 -8.848400 0.000000
-302.808105 42.692200 -8.848400 0.000000
-289.324799 42.692200 -8.848400 0.000000
-275.841492 42.692200 -8.848400 0.000000
-262.358185 42.692200 -8.848400 0.000000
-248.874893 42.692200 -8.848400 0.000000
-235.391602 42.692200 -8.848400 0.000000
-221.908295 42.692200 -8.848400 0.000000
-208.424988 42.692200 -8.848400 0.000000
-194.941696 42.692200 -8.848400 0.000000
-181.458389 42.692200 -8.848400 0.000000
-167.975098 42.692200 -8.848400 0.000000
-154.491791 42.692200 -8.848400 0.000000
-141.008499 42.692200 -8.848400 -0.020604
-127.525192 42.692200 -8.848400 -0.007505
-114.041885 42.692200 -8.848400 0.002819
-100.558594 42.692200 -8.848400 0.010720
-87.075287 42.692200 -8.848400 0.016403
-73.591980 42.692200 -8.848400 0.010254
-60.108704 42.692200 -8.848400 0.009828
-46.625397 42.692200 -8.848400 0.020785
-33.142090 42.692200 -8.848400 0.026270
-19.658783 42.692200 -8.848400 0.025813
-6.175476 42.692200 -8.848400 0.044108
7.307800 42.692200 -8.848400 0.049741
20.791107 42.692200 -8.848400 0.058730
34.274414 42.692200 -8.848400 0.048248
47.757721 42.692200 -8.848400 0.006786
61.240997 42.692200 -8.848400 0.000000
74.724304 42.692200 -8.848400 0.000000
88.207611 42.692200 -8.848400 0.000000
101.690918 42.692200 -8.848400 0.000000
115.174225 42.692200 -8.848400 0.000000
128.657501 42.692200 -8.848400 0.000000
142.140808 42.692200 -8.848400 0.000000
155.624115 42.692200 -8.848400 0.000000
169.107422 42.692200 -8.848400 0.000000
182.590698 42.692200 -8.848400 0.000000
196.074036 42.692200 -8.848400 0.000000
209.557312 42.692200 -8.848400 0.000000
223.040588 42.692200 -8.848400 0.000000
236.523926 42.692200 -8.848400 0.000000
250.007202 42.692200 -8.848400 0.000000
263.490540 42.692200 -8.848400 0.000000
276.973816 42.692200 -8.848400 0.000000
290.457092 42.692200 -8.848400 0.000000
303.940430 42.692200 -8.848400 0.000000
317.423706 42.692200 -8.848400 0.000000
330.907043 42.692200 -8.848400 0.000000
344.390320 42.692200 -8.848400 0.000000
-343.257996 29.208893 -8.848400 0.000000
-329.774689 29.208893 -8.848400 0.000000
-316.291382 29.208893 -8.848400 0.000000
-302.808105 29.208893 -8.848400 0.000000
-289.324799 29.208893 -8.848400 0.000000
-275.841492 29.208893 -8.848400 0.000000
-262.358185 29.208893 -8.848400 0.000000
-248.874893 29.208893 -8.848400 0.000000
-235.391602 29.208893 -8.848400 0.000000
-221.908295 29.208893 -8.848400 0.000000
-208.424988 29.208893 -8.848400 0.000000
-194.941696 29.208893 -8.848400 0.000000
-181.458389 29.208893 -8.848400 0.000000
-167.975098 29.208893 -8.848400 0.000000
-154.491791 29.208893 -8.848400 -0.021686
-141.008499 29.208893 -8.848400 -0.011258
-127.525192 29.208893 -8.848400 0.010362
-114.041885 29.208893 -8.848400 0.007815
-100.558594 29.208893 -8.848400 0.010298
-87.075287 29.208893 -8.848400 0.013862
-73.591980 29.208893 -8.848400 0.011577
-60.108704 29.208893 -8.848400 0.017149
-46.625397 29.208893 -8.848400 0.018503
-33.142090 29.208893 -8.848400 0.022911
-19.658783 29.208893 -8.848400 0.034129
-6.175476 29.208893 -8.848400 0.041518
7.307800 29.208893 -8.848400 0.047334
20.791107 29.208893 -8.848400 0.047492
34.274414 29.208893 -8.848400 0.040793
47.757721 29.208893 -8.848400 0.020649
61.240997 29.208893 -8.848400 0.000000
74.724304 29.208893 -8.848400 0.000000
88.207611 29.208893 -8.848400 0.000000
101.690918 29.208893 -8.848400 0.000000
115.174225 29.208893 -8.848400 0.000000
128.657501 29.208893 -8.848400 0.000000
142.140808 29.208893 -8.848400 0.000000
155.624115 29.208893 -8.848400 0.000000
169.107422 29.208893 -8.848400 0.000000
182.590698 29.208893 -8.848400 0.000000
196.074036 29.208893 -8.848400 0.000000
209.557312 29.208893 -8.848400 0.000000
223.040588 29.208893 -8.848400 0.000000
236.523926 29.208893 -8.848400 0.000000
250.007202 29.208893 -8.848400 0.000000
263.490540 29.208893 -8.848400 0.000000
276.973816 29.208893 -8.848400 0.000000
290.457092 29.208893 -8.848400 0.000000
303.940430 29.208893 -8.848400 0.000000
317.423706 29.208893 -8.848400 0.000000
330.907043 29.208893 -8.848400 0.000000
344.390320 29.208893 -8.848400 0.000000
-343.257996 15.725586 -8.848400 0.000000
-329.774689 15.725586 -8.848400 0.000000
-316.291382 15.725586 -8.848400 0.000000
-302.808105 15.725586 -8.848400 0.000000
-289.324799 15.725586 -8.848400 0.000000
-275.841492 15.725586 -8.848400 0.000000
-262.358185 15.725586 -8.848400 0.000000
-248.874893 15.725586 -8.848400 0.000000
-235.391602 15.725586 -8.848400 0.000000
-221.908295 15.725586 -8.848400 0.000000
-208.424988 15.725586 -8.848400 0.000000
-194.941696 15.725586 -8.848400 0.000000
-181.458389 15.725586 -8.848400 0.000000
-167.975098 15.725586 -8.848400 0.000000
-154.491791 15.725586 -8.848400 0.018000
-141.008499 15.725586 -8.848400 0.024657
-127.525192 15.725586 -8.848400 0.026277
-114.041885 15.725586 -8.848400 0.011457
-100.558594 15.725586 -8.848400 0.023687
-87.075287 15.725586 -8.848400 0.028136
-73.591980 15.725586 -8.848400 0.017087
-60.108704 15.725586 -8.848400 0.023135
-46.625397 15.725586 -8.848400 0.021844
-33.142090 15.725586 -8.848400 0.024119
-19.658783 15.725586 -8.848400 0.037619
-6.175476 15.725586 -8.848400 0.038280
7.307800 15.725586 -8.848400 0.064014
20.791107 15.725586 -8.848400 0.067567
34.274414 15.725586 -8.848400 0.057209
47.757721 15.725586 -8.848400 0.036722
61.240997 15.725586 -8.848400 0.016645
74.724304 15.725586 -8.848400 0.000000
88.207611 15.725586 -8.848400 0.000000
101.690918 15.725586 -8.848400 0.000000
115.174225 15.725586 -8.848400 0.000000
128.657501 15.725586 -8.848400 0.000000
142.140808 15.725586 -8.848400 0.000000
155.624115 15.725586 -8.848400 0.000000
169.107422 15.725586 -8.848400 0.000000
182.590698 15.725586 -8.848400 0.000000
196.074036 15.725586 -8.848400 0.000000
209.557312 15.725586 -8.848400 0.000000
223.040588 15.725586 -8.848400 0.000000
236.523926 15.725586 -8.848400 0.000000
250.007202 15.725586 -8.848400 0.000000
263.490540 15.725586 -8.848400 0.000000
276.973816 15.725586 -8.848400 0.000000
290.457092 15.725586 -8.848400 0.000000
303.940430 15.725586 -8.848400 0.000000
317.423706 15.725586 -8.848400 0.000000
330.907043 15.725586 -8.848400 0.000000
344.390320 15.725586 -8.848400 0.000000
-343.257996 2.242279 -8.848400 0.000000
-329.774689 2.242279 -8.848400 0.000000
-316.291382 2.242279 -8.848400 0.000000
-302.808105 2.242279 -8.848400 0.000000
-289.324799 2.242279 -8.848400 0.000000
-275.841492 2.242279 -8.848400 0.000000
-262.358185 2.242279 -8.848400 0.000000
-248.874893 2.242279 -8.848400 0.000000
-235.391602 2.242279 -8.848400 0.000000
-221.908295 2.242279 -8.848400 0.000000
-208.424988 2.242279 -8.848400 0.000000
-194.941696 2.242279 -8.848400 0.000000
-181.458389 2.242279 -8.848400 0.000000
-167.975098 2.242279 -8.848400 0.000000
-154.491791 2.242279 -8.848400 0.046696
-141.008499 2.242279 -8.848400 0.039962
-127.525192 2.242279 -8.848400 0.036883
-114.041885 2.242279 -8.848400 0.044400
-100.558594 2.242279 -8.848400 0.042707
-87.075287 2.242279 -8.848400 0.043425
-73.591980 2.242279 -8.848400 0.046211
-60.108704 2.242279 -8.848400 0.050387
-46.625397 2.242279 -8.848400 0.037848
-33.142090 2.242279 -8.848400 0.049453
-19.658783 2.242279 -8.848400 0.053316
-6.175476 2.242279 -8.848400 0.081039
7.307800 2.242279 -8.848400 0.112101
20.791107 2.242279 -8.848400 0.114562
34.274414 2.242279 -8.848400 0.111803
47.757721 2.242279 -8.848400 0.062177
61.240997 2.242279 -8.848400 0.000000
74.724304 2.242279 -8.848400 0.000000
88.207611 2.242279 -8.848400 0.000000
101.690918 2.242279 -8.848400 0.000000
115.174225 2.242279 -8.848400 0.000000
128.657501 2.242279 -8.848400 0.000000
142.140808 2.242279 -8.848400 0.000000
155.624115 2.242279 -8.848400 0.000000
169.107422 2.242279 -8.848400 0.000000
182.590698 2.242279 -8.848400 0.000000
196.074036 2.242279 -8.848400 0.000000
209.557312 2.242279 -8.848400 0.000000
223.040588 2.242279 -8.848400 0.000000
236.523926 2.242279 -8.848400 0.000000
250.007202 2.242279 -8.848400 0.000000
263.490540 2.242279 -8.848400 0.000000
276.973816 2.242279 -8.848400 0.000000
290.457092 2.242279 -8.848400 0.000000
303.940430 2.242279 -8.848400 0.000000
317.423706 2.242279 -8.848400 0.000000
330.907043 2.242279 -8.848400 0.000000
344.390320 2.242279 -8.848400 0.000000
-343.257996 -11.240997 -8.848400 0.000000
-329.774689 -11.240997 -8.848400 0.000000
-316.291382 -11.240997 -8.848400 0.000000
-302.808105 -11.240997 -8.848400 0.000000
-289.324799 -11.240997 -8.848400 0.000000
-275.841492 -11.240997 -8.848400 0.000000
-262.358185 -11.240997 -8.848400 0.000000
-248.874893 -11.240997 -8.848400 0.000000
-235.391602 -11.240997 -8.848400 0.000000
-221.908295 -11.240997 -8.848400 0.000000
-208.424988 -11.240997 -8.848400 0.000000
-194.941696 -11.240997 -8.848400 0.000000
-181.458389 -11.240997 -8.848400 0.000000
-167.975098 -11.240997 -8.848400 0.038236
-154.491791 -11.240997 -8.848400 0.075561
-141.008499 -11.240997 -8.848400 0.075947
-127.525192 -11.240997 -8.848400 0.070746
-114.041885 -11.240997 -8.848400 0.080863
-100.558594 -11.240997 -8.848400 0.056732
-87.075287 -11.240997 -8.848400 0.049986
-73.591980 -11.240997 -8.848400 0.077544
-60.108704 -11.240997 -8.848400 0.090428
-46.625397 -11.240997 -8.848400 0.000000
-33.142090 -11.240997 -8.848400 0.000000
-19.658783 -11.240997 -8.848400 0.000000
-6.175476 -11.240997 -8.848400 0.000000
7.307800 -11.240997 -8.848400 0.169561
20.791107 -11.240997 -8.848400 0.182638
34.274414 -11.240997 -8.848400 0.165406
47.757721 -11.240997 -8.848400 0.000000
61.240997 -11.240997 -8.848400 0.000000
74.724304 -11.240997 -8.848400 0.000000
88.207611 -11.240997 -8.848400 0.000000
101.690918 -11.240997 -8.848400 0.000000
115.174225 -11.240997 -8.848400 0.000000
128.657501 -11.240997 -8.848400 0.000000
142.140808 -11.240997 -8.848400 0.000000
155.624115 -11.240997 -8.848400 0.000000
169.107422 -11.240997 -8.848400 0.000000
182.590698 -11.240997 -8.848400 0.000000
196.074036 -11.240997 -8.848400 0.000000
209.557312 -11.240997 -8.848400 0.000000
223.040588 -11.240997 -8.848400 0.000000
236.523926 -11.240997 -8.848400 0.000000
250.007202 -11.240997 -8.848400 0.000000
263.490540 -11.240997 -8.848400 0.000000
276.973816 -11.240997 -8.848400 0.000000
290.457092 -11.240997 -8.848400 0.000000
303.940430 -11.240997 -8.848400 0.000000
317.423706 -11.240997 -8.848400 0.000000
330.907043 -11.240997 -8.848400 0.000000
344.390320 -11.240997 -8.848400 0.000000
-343.257996 -24.724304 -8.848400 0.000000
-329.774689 -24.724304 -8.848400 0.000000
-316.291382 -24.724304 -8.848400 0.000000
-302.808105 -24.724304 -8.848400 0.000000
-289.324799 -24.724304 -8.848400 0.000000
-275.841492 -24.724304 -8.848400 0.000000
-262.358185 -24.724304 -8.848400 0.000000
-248.874893 -24.724304 -8.848400 0.000000
-235.391602 -24.724304 -8.848400 0.000000
-221.908295 -24.724304 -8.848400 0.000000
-208.424988 -24.724304 -8.848400 0.000000
-194.941696 -24.724304 -8.848400 0.000000
-181.458389 -24.724304 -8.848400 0.000000
-167.975098 -24.724304 -8.848400 0.000000
-154.491791 -24.724304 -8.848400 0.081999
-141.008499 -24.724304 -8.848400 0.091937
-127.525192 -24.724304 -8.848400 0.076987
-114.041885 -24.724304 -8.848400 0.066806
-100.558594 -24.724304 -8.848400 0.068812
-87.075287 -24.724304 -8.848400 0.082725
-73.591980 -24.724304 -8.848400 0.110753
-60.108704 -24.724304 -8.848400 0.000000
-46.625397 -24.724304 -8.848400 0.000000
-33.142090 -24.724304 -8.848400 0.000000
-19.658783 -24.724304 -8.848400 0.000000
-6.175476 -24.724304 -8.848400 0.000000
7.307800 -24.724304 -8.848400 0.000000
20.791107 -24.724304 -8.848400 0.244031
34.274414 -24.724304 -8.848400 0.213195
47.757721 -24.724304 -8.848400 0.000000
61.240997 -24.724304 -8.848400 0.000000
74.724304 -24.724304 -8.848400 0.000000
88.207611 -24.724304 -8.848400 0.000000
101.690918 -24.724304 -8.848400 0.000000
115.174225 -24.724304 -8.848400 0.000000
128.657501 -24.724304 -8.848400 0.000000
142.140808 -24.724304 -8.848400 0.000000
155.624115 -24.724304 -8.848400 0.000000
169.107422 -24.724304 -8.848400 0.000000
182.590698 -24.724304 -8.848400 0.000000
196.074036 -24.724304 -8.848400 0.000000
209.557312 -24.724304 -8.848400 0.000000
223.040588 -24.724304 -8.848400 0.000000
236.523926 -24.724304 -8.848400 0.000000
250.007202 -24.724304 -8.848400 0.000000
263.490540 -24.724304 -8.848400 0.000000
276.973816 -24.724304 -8.848400 0.000000
290.457092 -24.724304 -8.848400 0.000000
303.940430 -24.724304 -8.848400 0.000000
317.423706 -24.724304 -8.848400 0.000000
330.907043 -24.724304 -8.848400 0.000000
344.390320 -24.724304 -8.848400 0.000000
-343.257996 -38.207611 -8.848400 0.000000
-329.774689 -38.207611 -8.848400 0.000000
-316.291382 -38.207611 -8.848400 0.000000
-302.808105 -38.207611 -8.848400 0.000000
-289.324799 -38.207611 -8.848400 0.000000
-275.841492 -38.207611 -8.848400 0.000000
-262.358185 -38.207611 -8.848400 0.000000
-248.874893 -38.207611 -8.848400 0.000000
-235.391602 -38.207611 -8.848400 0.000000
-221.908295 -38.207611 -8.848400 0.000000
-208.424988 -38.207611 -8.848400 0.000000
-194.941696 -38.207611 -8.848400 0.000000
-181.458389 -38.207611 -8.848400 0.000000
-167.975098 -38.207611 -8.848400 0.093195
-154.491791 -38.207611 -8.848400 0.125096
-141.008499 -38.207611 -8.848400 0.123790
-127.525192 -38.207611 -8.848400 0.086530
-114.041885 -38.207611 -8.848400 0.089025
-100.558594 -38.207611 -8.848400 0.079922
-87.075287 -38.207611 -8.848400 0.103193
-73.591980 -38.207611 -8.848400 0.141041
-60.108704 -38.207611 -8.848400 0.184854
-46.625397 -38.207611 -8.848400 0.196777
-33.142090 -38.207611 -8.848400 0.000000
-19.658783 -38.207611 -8.848400 0.000000
-6.175476 -38.207611 -8.848400 0.282912
7.307800 -38.207611 -8.848400 0.313975
20.791107 -38.207611 -8.848400 0.283296
34.274414 -38.207611 -8.848400 0.000000
47.757721 -38.207611 -8.848400 0.000000
61.240997 -38.207611 -8.848400 0.000000
74.724304 -38.207611 -8.848400 0.000000
88.207611 -38.207611 -8.848400 0.000000
101.690918 -38.207611 -8.848400 0.000000
115.174225 -38.207611 -8.848400 0.000000
128.657501 -38.207611 -8.848400 0.000000
142.140808 -38.207611 -8.848400 0.000000
155.624115 -38.207611 -8.848400 0.000000
169.107422 -38.207611 -8.848400 0.000000
182.590698 -38.207611 -8.848400 0.000000
196.074036 -38.207611 -8.848400 0.000000
209.557312 -38.207611 -8.848400 0.000000
223.040588 -38.207611 -8.848400 0.000000
236.523926 -38.207611 -8.848400 0.000000
250.007202 -38.207611 -8.848400 0.000000
263.490540 -38.207611 -8.848400 0.000000
276.973816 -38.207611 -8.848400 0.000000
290.457092 -38.207611 -8.848400 0.000000
303.940430 -38.207611 -8.848400 0.000000
317.423706 -38.207611 -8.848400 0.000000
330.907043 -38.207611 -8.848400 0.000000
344.390320 -38.207611 -8.848400 0.000000
-343.257996 -51.690918 -8.848400 0.000000
-329.774689 -51.690918 -8.848400 0.000000
-316.291382 -51.690918 -8.848400 0.000000
-302.808105 -51.690918 -8.848400 0.000000
-289.324799 -51.690918 -8.848400 0.000000
-275.841492 -51.690918 -8.848400 0.000000
-262.358185 -51.690918 -8.848400 0.000000
-248.874893 -51.690918 -8.848400 0.000000
-235.391602 -51.690918 -8.848400 0.000000
-221.908295 -51.690918 -8.848400 0.000000
-208.424988 -51.690918 -8.848400 0.000000
-194.941696 -51.690918 -8.848400 0.000000
-181.458389 -51.690918 -8.848400 0.000000
-167.975098 -51.690918 -8.848400 0.000000
-154.491791 -51.690918 -8.848400 0.122025
-141.008499 -51.690918 -8.848400 0.109540
-127.525192 -51.690918 -8.848400 0.000000
-114.041885 -51.690918 -8.848400 0.113610
-100.558594 -51.690918 -8.848400 0.131143
-87.075287 -51.690918 -8.848400 0.000000
-73.591980 -51.690918 -8.848400 0.206821
-60.108704 -51.690918 -8.848400 0.236627
-46.625397 -51.690918 -8.848400 0.223694
-33.142090 -51.690918 -8.848400 0.240483
-19.658783 -51.690918 -8.848400 0.296950
-6.175476 -51.690918 -8.848400 0.328993
7.307800 -51.690918 -8.848400 0.324197
20.791107 -51.690918 -8.848400 0.267916
34.274414 -51.690918 -8.848400 0.000000
47.757721 -51.690918 -8.848400 0.000000
61.240997 -51.690918 -8.848400 0.000000
74.724304 -51.690918 -8.848400 0.000000
88.207611 -51.690918 -8.848400 0.000000
101.690918 -51.690918 -8.848400 0.000000
115.174225 -51.690918 -8.848400 0.000000
128.657501 -51.690918 -8.848400 0.000000
142.140808 -51.690918 -8.848400 0.000000
155.624115 -51.690918 -8.848400 0.000000
169.107422 -51.690918 -8.848400 0.000000
182.590698 -51.690918 -8.848400 0.000000
196.074036 -51.690918 -8.848400 0.000000
209.557312 -51.690918 -8.848400 0.000000
223.040588 -51.690918 -8.848400 0.000000
236.523926 -51.690918 -8.848400 0.000000
250.007202 -51.690918 -8.848400 0.000000
263.490540 -51.690918 -8.848400 0.000000
276.973816 -51.690918 -8.848400 0.000000
290.457092 -51.690918 -8.848400 0.000000
303.940430 -51.690918 -8.848400 0.000000
317.423706 -51.690918 -8.848400 0.000000
330.907043 -51.690918 -8.848400 0.000000
344.390320 -51.690918 -8.848400 0.000000
-343.257996 -65.174225 -8.848400 0.000000
-329.774689 -65.174225 -8.848400 0.000000
-316.291382 -65.174225 -8.848400 0.000000
-302.808105 -65.174225 -8.848400 0.000000
-289.324799 -65.174225 -8.848400 0.000000
-275.841492 -65.174225 -8.848400 0.000000
-262.358185 -65.174225 -8.848400 0.000000
-248.874893 -65.174225 -8.848400 0.000000
-235.391602 -65.174225 -8.848400 0.000000
-221.908295 -65.174225 -8.848400 0.000000
-208.424988 -65.174225 -8.848400 0.000000
-194.941696 -65.174225 -8.848400 0.000000
-181.458389 -65.174225 -8.848400 0.000000
-167.975098 -65.174225 -8.848400 0.000000
-154.491791 -65.174225 -8.848400 0.093640
-141.008499 -65.174225 -8.848400 0.120611
-127.525192 -65.174225 -8.848400 0.137507
-114.041885 -65.174225 -8.848400 0.147509
-100.558594 -65.174225 -8.848400 0.173835
-87.075287 -65.174225 -8.848400 0.225343
-73.591980 -65.174225 -8.848400 0.250875
-60.108704 -65.174225 -8.848400 0.274235
-46.625397 -65.174225 -8.848400 0.292207
-33.142090 -65.174225 -8.848400 0.282582
-19.658783 -65.174225 -8.848400 0.311943
-6.175476 -65.174225 -8.848400 0.321494
7.307800 -65.174225 -8.848400 0.293625
20.791107 -65.174225 -8.848400 0.243065
34.274414 -65.174225 -8.848400 0.000000
47.757721 -65.174225 -8.848400 0.000000
61.240997 -65.174225 -8.848400 0.000000
74.724304 -65.174225 -8.848400 0.000000
88.207611 -65.174225 -8.848400 0.000000
101.690918 -65.174225 -8.848400 0.000000
115.174225 -65.174225 -8.848400 0.000000
128.657501 -65.174225 -8.848400 0.000000
142.140808 -65.174225 -8.848400 0.000000
155.624115 -65.174225 -8.848400 0.000000
169.107422 -65.174225 -8.848400 0.000000
182.590698 -65.174225 -8.848400 0.000000
196.074036 -65.174225 -8.848400 0.000000
209.557312 -65.174225 -8.848400 0.000000
223.040588 -65.174225 -8.848400 0.000000
236.523926 -65.174225 -8.848400 0.000000
250.007202 -65.174225 -8.848400 0.000000
263.490540 -65.174225 -8.848400 0.000000
276.973816 -65.174225 -8.848400 0.000000
290.457092 -65.174225 -8.848400 0.000000
303.940430 -65.174225 -8.848400 0.000000
317.423706 -65.174225 -8.848400 0.000000
330.907043 -65.174225 -8.848400 0.000000
344.390320 -65.174225 -8.848400 0.000000
-343.257996 -78.657501 -8.848400 0.000000
-329.774689 -78.657501 -8.848400 0.000000
-316.291382 -78.657501 -8.848400 0.000000
-302.808105 -78.657501 -8.848400 0.000000
-289.324799 -78.657501 -8.848400 0.000000
-275.841492 -78.657501 -8.848400 0.000000
-262.358185 -78.657501 -8.848400 0.000000
-248.874893 -78.657501 -8.848400 0.000000
-235.391602 -78.657501 -8.848400 0.000000
-221.908295 -78.657501 -8.848400 0.000000
-208.424988 -78.657501 -8.848400 0.000000
-194.941696 -78.657501 -8.848400 0.000000
-181.458389 -78.657501 -8.848400 0.000000
-167.975098 -78.657501 -8.848400 0.000000
-154.491791 -78.657501 -8.848400 0.000000
-141.008499 -78.657501 -8.848400 0.111599
-127.525192 -78.657501 -8.848400 0.000000
-114.041885 -78.657501 -8.848400 0.000000
-100.558594 -78.657501 -8.848400 0.195171
-87.075287 -78.657501 -8.848400 0.223230
-73.591980 -78.657501 -8.848400 0.268841
-60.108704 -78.657501 -8.848400 0.280968
-46.625397 -78.657501 -8.848400 0.303661
-33.142090 -78.657501 -8.848400 0.291034
-19.658783 -78.657501 -8.848400 0.271724
-6.175476 -78.657501 -8.848400 0.273615
7.307800 -78.657501 -8.848400 0.242184
20.791107 -78.657501 -8.848400 0.000000
34.274414 -78.657501 -8.848400 0.000000
47.757721 -78.657501 -8.848400 0.000000
61.240997 -78.657501 -8.848400 0.000000
74.724304 -78.657501 -8.848400 0.000000
88.207611 -78.657501 -8.848400 0.000000
101.690918 -78.657501 -8.848400 0.000000
115.174225 -78.657501 -8.848400 0.000000
128.657501 -78.657501 -8.848400 0.000000
142.140808 -78.657501 -8.848400 0.000000
155.624115 -78.657501 -8.848400 0.000000
169.107422 -78.657501 -8.848400 0.000000
182.590698 -78.657501 -8.848400 0.000000
196.074036 -78.657501 -8.848400 0.000000
209.557312 -78.657501 -8.848400 0.000000
223.040588 -78.657501 -8.848400 0.000000
236.523926 -78.657501 -8.848400 0.000000
250.007202 -78.657501 -8.848400 0.000000
263.490540 -78.657501 -8.848400 0.000000
276.973816 -78.657501 -8.848400 0.000000
290.457092 -78.657501 -8.848400 0.000000
303.940430 -78.657501 -8.848400 0.000000
317.423706 -78.657501 -8.848400 0.000000
330.907043 -78.657501 -8.848400 0.000000
344.390320 -78.657501 -8.848400 0.000000
-343.257996 -92.140808 -8.848400 0.000000
-329.774689 -92.140808 -8.848400 0.000000
-316.291382 -92.140808 -8.848400 0.000000
-302.808105 -92.140808 -8.848400 0.000000
-289.324799 -92.140808 -8.848400 0.000000
-275.841492 -92.140808 -8.848400 0.000000
-262.358185 -92.140808 -8.848400 0.000000
-248.874893 -92.140808 -8.848400 0.000000
-235.391602 -92.140808 -8.848400 0.000000
-221.908295 -92.140808 -8.848400 0.000000
-208.424988 -92.140808 -8.848400 0.000000
-194.941696 -92.140808 -8.848400 0.000000
-181.458389 -92.140808 -8.848400 0.000000
-167.975098 -92.140808 -8.848400 0.000000
-154.491791 -92.140808 -8.848400 0.000000
-141.008499 -92.140808 -8.848400 0.000000
-127.525192 -92.140808 -8.848400 0.000000
-114.041885 -92.140808 -8.848400 0.000000
-100.558594 -92.140808 -8.848400 0.000000
-87.075287 -92.140808 -8.848400 0.228519
-73.591980 -92.140808 -8.848400 0.000000
-60.108704 -92.140808 -8.848400 0.000000
-46.625397 -92.140808 -8.848400 0.000000
-33.142090 -92.140808 -8.848400 0.287790
-19.658783 -92.140808 -8.848400 0.244567
-6.175476 -92.140808 -8.848400 0.000000
7.307800 -92.140808 -8.848400 0.000000
20.791107 -92.140808 -8.848400 0.000000
34.274414 -92.140808 -8.848400 0.000000
47.757721 -92.140808 -8.848400 0.000000
61.240997 -92.140808 -8.848400 0.000000
74.724304 -92.140808 -8.848400 0.000000
88.207611 -92.140808 -8.848400 0.000000
101.690918 -92.140808 -8.848400 0.000000
115.174225 -92.140808 -8.848400 0.000000
128.657501 -92.140808 -8.848400 0.000000
142.140808 -92.140808 -8.848400 0.000000
155.624115 -92.140808 -8.848400 0.000000
169.107422 -92.140808 -8.848400 0.000000
182.590698 -92.140808 -8.848400 0.000000
196.074036 -92.140808 -8.848400 0.000000
209.557312 -92.140808 -8.848400 0.000000
223.040588 -92.140808 -8.848400 0.000000
236.523926 -92.140808 -8.848400 0.000000
250.007202 -92.140808 -8.848400 0.000000
263.490540 -92.140808 -8.848400 0.000000
276.973816 -92.140808 -8.848400 0.000000
290.457092 -92.140808 -8.848400 0.000000
303.940430 -92.140808 -8.848400 0.000000
317.423706 -92.140808 -8.848400 0.000000
330.907043 -92.140808 -8.848400 0.000000
344.390320 -92.140808 -8.848400 0.000000
-343.257996 -105.624115 -8.848400 0.000000
-329.774689 -105.624115 -8.848400 0.000000
-316.291382 -105.624115 -8.848400 0.000000
-302.808105 -105.624115 -8.848400 0.000000
-289.324799 -105.624115 -8.848400 0.000000
-275.841492 -105.624115 -8.848400 0.000000
-262.358185 -105.624115 -8.848400 0.000000
-248.874893 -105.624115 -8.848400 0.000000
-235.391602 -105.624115 -8.848400 0.000000
-221.908295 -105.624115 -8.848400 0.000000
-208.424988 -105.624115 -8.848400 0.000000
-194.941696 -105.624115 -8.848400 0.000000
-181.458389 -105.624115 -8.848400 0.000000
-167.975098 -105.624115 -8.848400 0.000000
-154.491791 -105.624115 -8.848400 0.000000
-141.008499 -105.624115 -8.848400 0.000000
-127.525192 -105.624115 -8.848400 0.000000
-114.041885 -105.624115 -8.848400 0.000000
-100.558594 -105.624115 -8.848400 0.000000
-87.075287 -105.624115 -8.848400 0.000000
-73.591980 -105.624115 -8.848400 0.000000
-60.108704 -105.624115 -8.848400 0.000000
-46.625397 -105.624115 -8.848400 0.000000
-33.142090 -105.624115 -8.848400 0.000000
-19.658783 -105.624115 -8.848400 0.000000
-6.175476 -105.624115 -8.848400 0.000000
7.307800 -105.624115 -8.848400 0.000000
20.791107 -105.624115 -8.848400 0.000000
34.274414 -105.624115 -8.848400 0.000000
47.757721 -105.624115 -8.848400 0.000000
61.240997 -105.624115 -8.848400 0.000000
74.724304 -105.624115 -8.848400 0.000000
88.207611 -105.624115 -8.848400 0.000000
101.690918 -105.624115 -8.848400 0.000000
115.174225 -105.624115 -8.848400 0.000000
128.657501 -105.624115 -8.848400 0.000000
142.140808 -105.624115 -8.848400 0.000000
155.624115 -105.624115 -8.848400 0.000000
169.107422 -105.624115 -8.848400 0.000000
182.590698 -105.624115 -8.848400 0.000000
196.074036 -105.624115 -8.848400 0.000000
209.557312 -105.624115 -8.848400 0.000000
223.040588 -105.624115 -8.848400 0.000000
236.523926 -105.624115 -8.848400 0.000000
250.007202 -105.624115 -8.848400 0.000000
263.490540 -105.624115 -8.848400 0.000000
276.973816 -105.624115 -8.848400 0.000000
290.457092 -105.624115 -8.848400 0.000000
303.940430 -105.624115 -8.848400 0.000000
317.423706 -105.624115 -8.848400 0.000000
330.907043 -105.624115 -8.848400 0.000000
344.390320 -105.624115 -8.848400 0.000000
-343.257996 -119.107422 -8.848400 0.000000
-329.774689 -119.107422 -8.848400 0.000000
-316.291382 -119.107422 -8.848400 0.000000
-302.808105 -119.107422 -8.848400 0.000000
-289.324799 -119.107422 -8.848400 0.000000
-275.841492 -119.107422 -8.848400 0.000000
-262.358185 -119.107422 -8.848400 0.000000
-248.874893 -119.107422 -8.848400 0.000000
-235.391602 -119.107422 -8.848400 0.000000
-221.908295 -119.107422 -8.848400 0.000000
-208.424988 -119.107422 -8.848400 0.000000
-194.941696 -119.107422 -8.848400 0.000000
-181.458389 -119.107422 -8.848400 0.000000
-167.975098 -119.107422 -8.848400 0.000000
-154.491791 -119.107422 -8.848400 0.000000
-141.008499 -119.107422 -8.848400 0.000000
-127.525192 -119.107422 -8.848400 0.000000
-114.041885 -119.107422 -8.848400 0.000000
-100.558594 -119.107422 -8.848400 0.000000
-87.075287 -119.107422 -8.848400 0.000000
-73.591980 -119.107422 -8.848400 0.000000
-60.108704 -119.107422 -8.848400 0.000000
-46.625397 -119.107422 -8.848400 0.000000
-33.142090 -119.107422 -8.848400 0.000000
-19.658783 -119.107422 -8.848400 0.000000
-6.175476 -119.107422 -8.848400 0.000000
7.307800 -119.107422 -8.848400 0.000000
20.791107 -119.107422 -8.848400 0.000000
34.274414 -119.107422 -8.848400 0.000000
47.757721 -119.107422 -8.848400 0.000000
61.240997 -119.107422 -8.848400 0.000000
74.724304 -119.107422 -8.848400 0.000000
88.207611 -119.107422 -8.848400 0.000000
101.690918 -119.107422 -8.848400 0.000000
115.174225 -119.107422 -8.848400 0.000000
128.657501 -119.107422 -8.848400 0.000000
142.140808 -119.107422 -8.848400 0.000000
155.624115 -119.107422 -8.848400 0.000000
169.107422 -119.107422 -8.848400 0.000000
182.590698 -119.107422 -8.848400 0.000000
196.074036 -119.107422 -8.848400 0.000000
209.557312 -119.107422 -8.848400 0.000000
223.040588 -119.107422 -8.848400 0.000000
236.523926 -119.107422 -8.848400 0.000000
250.007202 -119.107422 -8.848400 0.000000
263.490540 -119.107422 -8.848400 0.000000
276.973816 -119.107422 -8.848400 0.000000
290.457092 -119.107422 -8.848400 0.000000
303.940430 -119.107422 -8.848400 0.000000
317.423706 -119.107422 -8.848400 0.000000
330.907043 -119.107422 -8.848400 0.000000
344.390320 -119.107422 -8.848400 0.000000
-343.257996 -132.590698 -8.848400 0.000000
-329.774689 -132.590698 -8.848400 0.000000
-316.291382 -132.590698 -8.848400 0.000000
-302.808105 -132.590698 -8.848400 0.000000
-289.324799 -132.590698 -8.848400 0.000000
-275.841492 -132.590698 -8.848400 0.000000
-262.358185 -132.590698 -8.848400 0.000000
-248.874893 -132.590698 -8.848400 0.000000
-235.391602 -132.590698 -8.848400 0.000000
-221.908295 -132.590698 -8.848400 0.000000
-208.424988 -132.590698 -8.848400 0.000000
-194.941696 -132.590698 -8.848400 0.000000
-181.458389 -132.590698 -8.848400 0.000000
-167.975098 -132.590698 -8.848400 0.000000
-154.491791 -132.590698 -8.848400 0.000000
-141.008499 -132.590698 -8.848400 0.000000
-127.525192 -132.590698 -8.848400 0.000000
-114.041885 -132.590698 -8.848400 0.000000
-100.558594 -132.590698 -8.848400 0.000000
-87.075287 -132.590698 -8.848400 0.000000
-73.591980 -132.590698 -8.848400 0.000000
-60.108704 -132.590698 -8.848400 0.000000
-46.625397 -132.590698 -8.848400 0.000000
-33.142090 -132.590698 -8.848400 0.000000
-19.658783 -132.590698 -8.848400 0.000000
-6.175476 -132.590698 -8.848400 0.000000
7.307800 -132.590698 -8.848400 0.000000
20.791107 -132.590698 -8.848400 0.000000
34.274414 -132.590698 -8.848400 0.000000
47.757721 -132.590698 -8.848400 0.000000
61.240997 -132.590698 -8.848400 0.000000
74.724304 -132.590698 -8.848400 0.000000
88.207611 -132.590698 -8.848400 0.000000
101.690918 -132.590698 -8.848400 0.000000
115.174225 -132.590698 -8.848400 0.000000
128.657501 -132.590698 -8.848400 0.000000
142.140808 -132.590698 -8.848400 0.000000
155.624115 -132.590698 -8.848400 0.000000
169.107422 -132.590698 -8.848400 0.000000
182.590698 -132.590698 -8.848400 0.000000
196.074036 -132.590698 -8.848400 0.000000
209.557312 -132.590698 -8.848400 0.000000
223.040588 -132.590698 -8.848400 0.000000
236.523926 -132.590698 -8.848400 0.000000
250.007202 -132.590698 -8.848400 0.000000
263.490540 -132.590698 -8.848400 0.000000
276.973816 -132.590698 -8.848400 0.000000
290.457092 -132.590698 -8.848400 0.000000
303.940430 -132.590698 -8.848400 0.000000
317.423706 -132.590698 -8.848400 0.000000
330.907043 -132.590698 -8.848400 0.000000
344.390320 -132.590698 -8.848400 0.000000
-343.257996 -146.074036 -8.848400 0.000000
-329.774689 -146.074036 -8.848400 0.000000
-316.291382 -146.074036 -8.848400 0.000000
-302.808105 -146.074036 -8.848400 0.000000
-289.324799 -146.074036 -8.848400 0.000000
-275.841492 -146.074036 -8.848400 0.000000
-262.358185 -146.074036 -8.848400 0.000000
-248.874893 -146.074036 -8.848400 0.000000
-235.391602 -146.074036 -8.848400 0.000000
-221.908295 -146.074036 -8.848400 0.000000
-208.424988 -146.074036 -8.848400 0.000000
-194.941696 -146.074036 -8.848400 0.000000
-181.458389 -146.074036 -8.848400 0.000000
-167.975098 -146.074036 -8.848400 0.000000
-154.491791 -146.074036 -8.848400 0.000000
-141.008499 -146.074036 -8.848400 0.000000
-127.525192 -146.074036 -8.848400 0.000000
-114.041885 -146.074036 -8.848400 0.000000
-100.558594 -146.074036 -8.848400 0.000000
-87.075287 -146.074036 -8.848400 0.000000
-73.591980 -146.074036 -8.848400 0.000000
-60.108704 -146.074036 -8.848400 0.000000
-46.625397 -146.074036 -8.848400 0.000000
-33.142090 -146.074036 -8.848400 0.000000
-19.658783 -146.074036 -8.848400 0.000000
-6.175476 -146.074036 -8.848400 0.000000
7.307800 -146.074036 -8.848400 0.000000
20.791107 -146.074036 -8.848400 0.000000
34.274414 -146.074036 -8.848400 0.000000
47.757721 -146.074036 -8.848400 0.000000
61.240997 -146.074036 -8.848400 0.000000
74.724304 -146.074036 -8.848400 0.000000
88.207611 -146.074036 -8.848400 0.000000
101.690918 -146.074036 -8.848400 0.000000
115.174225 -146.074036 -8.848400 0.000000
128.657501 -146.074036 -8.848400 0.000000
142.140808 -146.074036 -8.848400 0.000000
155.624115 -146.074036 -8.848400 0.000000
169.107422 -146.074036 -8.848400 0.000000
182.590698 -146.074036 -8.848400 0.000000
196.074036 -146.074036 -8.848400 0.000000
209.557312 -146.074036 -8.848400 0.000000
223.040588 -146.074036 -8.848400 0.000000
236.523926 -146.074036 -8.848400 0.000000
250.007202 -146.074036 -8.848400 0.000000
263.490540 -146.074036 -8.848400 0.000000
276.973816 -146.074036 -8.848400 0.000000
290.457092 -146.074036 -8.848400 0.000000
303.940430 -146.074036 -8.848400 0.000000
317.423706 -146.074036 -8.848400 0.000000
330.907043 -146.074036 -8.848400 0.000000
344.390320 -146.074036 -8.848400 0.000000
-343.257996 -159.557312 -8.848400 0.000000
-329.774689 -159.557312 -8.848400 0.000000
-316.291382 -159.557312 -8.848400 0.000000
-302.808105 -159.557312 -8.848400 0.000000
-289.324799 -159.557312 -8.848400 0.000000
-275.841492 -159.557312 -8.848400 0.000000
-262.358185 -159.557312 -8.848400 0.000000
-248.874893 -159.557312 -8.848400 0.000000
-235.391602 -159.557312 -8.848400 0.000000
-221.908295 -159.557312 -8.848400 0.000000
-208.424988 -159.557312 -8.848400 0.000000
-194.941696 -159.557312 -8.848400 0.000000
-181.458389 -159.557312 -8.848400 0.000000
-167.975098 -159.557312 -8.848400 0.000000
-154.491791 -159.557312 -8.848400 0.000000
-141.008499 -159.557312 -8.848400 0.000000
-127.525192 -159.557312 -8.848400 0.000000
-114.041885 -159.557312 -8.848400 0.000000
-100.558594 -159.557312 -8.848400 0.000000
-87.075287 -159.557312 -8.848400 0.000000
-73.591980 -159.557312 -8.848400 0.000000
-60.108704 -159.557312 -8.848400 0.000000
-46.625397 -159.557312 -8.848400 0.000000
-33.142090 -159.557312 -8.848400 0.000000
-19.658783 -159.557312 -8.848400 0.000000
-6.175476 -159.557312 -8.848400 0.000000
7.307800 -159.557312 -8.848400 0.000000
20.791107 -159.557312 -8.848400 0.000000
34.274414 -159.557312 -8.848400 0.000000
47.757721 -159.557312 -8.848400 0.000000
61.240997 -159.557312 -8.848400 0.000000
74.724304 -159.557312 -8.848400 0.000000
88.207611 -159.557312 -8.848400 0.000000
101.690918 -159.557312 -8.848400 0.000000
115.174225 -159.557312 -8.848400 0.000000
128.657501 -159.557312 -8.848400 0.000000
142.140808 -159.557312 -8.848400 0.000000
155.624115 -159.557312 -8.848400 0.000000
169.107422 -159.557312 -8.848400 0.000000
182.590698 -159.557312 -8.848400 0.000000
196.074036 -159.557312 -8.848400 0.000000
209.557312 -159.557312 -8.848400 0.000000
223.040588 -159.557312 -8.848400 0.000000
236.523926 -159.557312 -8.848400 0.000000
250.007202 -159.557312 -8.848400 0.000000
263.490540 -159.557312 -8.848400 0.000000
276.973816 -159.557312 -8.848400 0.000000
290.457092 -159.557312 -8.848400 0.000000
303.940430 -159.557312 -8.848400 0.000000
317.423706 -159.557312 -8.848400 0.000000
330.907043 -159.557312 -8.848400 0.000000
344.390320 -159.557312 -8.848400 0.000000
-343.257996 -173.040588 -8.848400 0.000000
-329.774689 -173.040588 -8.848400 0.000000
-316.291382 -173.040588 -8.848400 0.000000
-302.808105 -173.040588 -8.848400 0.000000
-289.324799 -173.040588 -8.848400 0.000000
-275.841492 -173.040588 -8.848400 0.000000
-262.358185 -173.040588 -8.848400 0.000000
-248.874893 -173.040588 -8.848400 0.000000
-235.391602 -173.040588 -8.848400 0.000000
-221.908295 -173.040588 -8.848400 0.000000
-208.424988 -173.040588 -8.848400 0.000000
-194.941696 -173.040588 -8.848400 0.000000
-181.458389 -173.040588 -8.848400 0.000000
-167.975098 -173.040588 -8.848400 0.000000
-154.491791 -173.040588 -8.848400 0.000000
-141.008499 -173.040588 -8.848400 0.000000
-127.525192 -173.040588 -8.848400 0.000000
-114.041885 -173.040588 -8.848400 0.000000
-100.558594 -173.040588 -8.848400 0.000000
-87.075287 -173.040588 -8.848400 0.000000
-73.591980 -173.040588 -8.848400 0.000000
-60.108704 -173.040588 -8.848400 0.000000
-46.625397 -173.040588 -8.848400 0.000000
-33.142090 -173.040588 -8.848400 0.000000
-19.658783 -173.040588 -8.848400 0.000000
-6.175476 -173.040588 -8.848400 0.000000
7.307800 -173.040588 -8.848400 0.000000
20.791107 -173.040588 -8.848400 0.000000
34.274414 -173.040588 -8.848400 0.000000
47.757721 -173.040588 -8.848400 0.000000
61.240997 -173.040588 -8.848400 0.000000
74.724304 -173.040588 -8.848400 0.000000
88.207611 -173.040588 -8.848400 0.000000
101.690918 -173.040588 -8.848400 0.000000
115.174225 -173.040588 -8.848400 0.000000
128.657501 -173.040588 -8.848400 0.000000
142.140808 -173.040588 -8.848400 0.000000
155.624115 -173.040588 -8.848400 0.000000
169.107422 -173.040588 -8.848400 0.000000
182.590698 -173.040588 -8.848400 0.000000
196.074036 -173.040588 -8.848400 0.000000
209.557312 -173.040588 -8.848400 0.000000
223.040588 -173.040588 -8.848400 0.000000
236.523926 -173.040588 -8.848400 0.000000
250.007202 -173.040588 -8.848400 0.000000
263.490540 -173.040588 -8.848400 0.000000
276.973816 -173.040588 -8.848400 0.000000
290.457092 -173.040588 -8.848400 0.000000
303.940430 -173.040588 -8.848400 0.000000
317.423706 -173.040588 -8.848400 0.000000
330.907043 -173.040588 -8.848400 0.000000
344.390320 -173.040588 -8.848400 0.000000
-343.257996 -186.523926 -8.848400 0.000000
-329.774689 -186.523926 -8.848400 0.000000
-316.291382 -186.523926 -8.848400 0.000000
-302.808105 -186.523926 -8.848400 0.000000
-289.324799 -186.523926 -8.848400 0.000000
-275.841492 -186.523926 -8.848400 0.000000
-262.358185 -186.523926 -8.848400 0.000000
-248.874893 -186.523926 -8.848400 0.000000
-235.391602 -186.523926 -8.848400 0.000000
-221.908295 -186.523926 -8.848400 0.000000
-208.424988 -186.523926 -8.848400 0.000000
-194.941696 -186.523926 -8.848400 0.000000
-181.458389 -186.523926 -8.848400 0.000000
-167.975098 -186.523926 -8.848400 0.000000
-154.491791 -186.523926 -8.848400 0.000000
-141.008499 -186.523926 -8.848400 0.000000
-127.525192 -186.523926 -8.848400 0.000000
-114.041885 -186.523926 -8.848400 0.000000
-100.558594 -186.523926 -8.848400 0.000000
-87.075287 -186.523926 -8.848400 0.000000
-73.591980 -186.523926 -8.848400 0.000000
-60.108704 -186.523926 -8.848400 0.000000
-46.625397 -186.523926 -8.848400 0.000000
-33.142090 -186.523926 -8.848400 0.000000
-19.658783 -186.523926 -8.848400 0.000000
-6.175476 -186.523926 -8.848400 0.000000
7.307800 -186.523926 -8.848400 0.000000
20.791107 -186.523926 -8.848400 0.000000
34.274414 -186.523926 -8.848400 0.000000
47.757721 -186.523926 -8.848400 0.000000
61.240997 -186.523926 -8.848400 0.000000
74.724304 -186.523926 -8.848400 0.000000
88.207611 -186.523926 -8.848400 0.000000
101.690918 -186.523926 -8.848400 0.000000
115.174225 -186.523926 -8.848400 0.000000
128.657501 -186.523926 -8.848400 0.000000
142.140808 -186.523926 -8.848400 0.000000
155.624115 -186.523926 -8.848400 0.000000
169.107422 -186.523926 -8.848400 0.000000
182.590698 -186.523926 -8.848400 0.000000
196.074036 -186.523926 -8.848400 0.000000
209.557312 -186.523926 -8.848400 0.000000
223.040588 -186.523926 -8.848400 0.000000
236.523926 -186.523926 -8.848400 0.000000
250.007202 -186.523926 -8.848400 0.000000
263.490540 -186.523926 -8.848400 0.000000
276.973816 -186.523926 -8.848400 0.000000
290.457092 -186.523926 -8.848400 0.000000
303.940430 -186.523926 -8.848400 0.000000
317.423706 -186.523926 -8.848400 0.000000
330.907043 -186.523926 -8.848400 0.000000
344.390320 -186.523926 -8.848400 0.000000
-343.257996 -200.007202 -8.848400 0.000000
-329.774689 -200.007202 -8.848400 0.000000
-316.291382 -200.007202 -8.848400 0.000000
-302.808105 -200.007202 -8.848400 0.000000
-289.324799 -200.007202 -8.848400 0.000000
-275.841492 -200.007202 -8.848400 0.000000
-262.358185 -200.007202 -8.848400 0.000000
-248.874893 -200.007202 -8.848400 0.000000
-235.391602 -200.007202 -8.848400 0.000000
-221.908295 -200.007202 -8.848400 0.000000
-208.424988 -200.007202 -8.848400 0.000000
-194.941696 -200.007202 -8.848400 0.000000
-181.458389 -200.007202 -8.848400 0.000000
-167.975098 -200.007202 -8.848400 0.000000
-154.491791 -200.007202 -8.848400 0.000000
-141.008499 -200.007202 -8.848400 0.000000
-127.525192 -200.007202 -8.848400 0.000000
-114.041885 -200.007202 -8.848400 0.000000
-100.558594 -200.007202 -8.848400 0.000000
-87.075287 -200.007202 -8.848400 0.000000
-73.591980 -200.007202 -8.848400 0.000000
-60.108704 -200.007202 -8.848400 0.000000
-46.625397 -200.007202 -8.848400 0.000000
-33.142090 -200.007202 -8.848400 0.000000
-19.658783 -200.007202 -8.848400 0.000000
-6.175476 -200.007202 -8.848400 0.000000
7.307800 -200.007202 -8.848400 0.000000
20.791107 -200.007202 -8.848400 0.000000
34.274414 -200.007202 -8.848400 0.000000
47.757721 -200.007202 -8.848400 0.000000
61.240997 -200.007202 -8.848400 0.000000
74.724304 -200.007202 -8.848400 0.000000
88.207611 -200.007202 -8.848400 0.000000
101.690918 -200.007202 -8.848400 0.000000
115.174225 -200.007202 -8.848400 0.000000
128.657501 -200.007202 -8.848400 0.000000
142.140808 -200.007202 -8.848400 0.000000
155.624115 -200.007202 -8.848400 0.000000
169.107422 -200.007202 -8.848400 0.000000
182.590698 -200.007202 -8.848400 0.000000
196.074036 -200.007202 -8.848400 0.000000
209.557312 -200.007202 -8.848400 0.000000
223.040588 -200.007202 -8.848400 0.000000
236.523926 -200.007202 -8.848400 0.000000
250.007202 -200.007202 -8.848400 0.000000
263.490540 -200.007202 -8.848400 0.000000
276.973816 -200.007202 -8.848400 0.000000
290.457092 -200.007202 -8.848400 0.000000
303.940430 -200.007202 -8.848400 0.000000
317.423706 -200.007202 -8.848400 0.000000
330.907043 -200.007202 -8.848400 0.000000
344.390320 -200.007202 -8.848400 0.000000
