TITLE = "B00002"
VARIABLES = "X", "Y", "Z", "Reynold stress XZ"
ZONE T="Frame 1" I=52, J=45, K=4, F=POINT
-343.257996 393.257996 -49.298302 0.000000
-329.774689 393.257996 -49.298302 0.000000
-316.291382 393.257996 -49.298302 0.000000
-302.808105 393.257996 -49.298302 0.000000
-289.324799 393.257996 -49.298302 0.000000
-275.841492 393.257996 -49.298302 0.000000
-262.358185 393.257996 -49.298302 0.000000
-248.874893 393.257996 -49.298302 0.000000
-235.391602 393.257996 -49.298302 0.000000
-221.908295 393.257996 -49.298302 0.000000
-208.424988 393.257996 -49.298302 0.000000
-194.941696 393.257996 -49.298302 0.000000
-181.458389 393.257996 -49.298302 0.000000
-167.975098 393.257996 -49.298302 0.000000
-154.491791 393.257996 -49.298302 0.000000
-141.008499 393.257996 -49.298302 0.000000
-127.525192 393.257996 -49.298302 0.000000
-114.041885 393.257996 -49.298302 0.000000
-100.558594 393.257996 -49.298302 0.000000
-87.075287 393.257996 -49.298302 0.000000
-73.591980 393.257996 -49.298302 0.000000
-60.108704 393.257996 -49.298302 0.000000
-46.625397 393.257996 -49.298302 0.000000
-33.142090 393.257996 -49.298302 0.000000
-19.658783 393.257996 -49.298302 0.000000
-6.175476 393.257996 -49.298302 0.000000
7.307800 393.257996 -49.298302 0.000000
20.791107 393.257996 -49.298302 0.000000
34.274414 393.257996 -49.298302 0.000000
47.757721 393.257996 -49.298302 0.000000
61.240997 393.257996 -49.298302 0.000000
74.724304 393.257996 -49.298302 0.000000
88.207611 393.257996 -49.298302 0.000000
101.690918 393.257996 -49.298302 0.000000
115.174225 393.257996 -49.298302 0.000000
128.657501 393.257996 -49.298302 0.000000
142.140808 393.257996 -49.298302 0.000000
155.624115 393.257996 -49.298302 0.000000
169.107422 393.257996 -49.298302 0.000000
182.590698 393.257996 -49.298302 0.000000
196.074036 393.257996 -49.298302 0.000000
209.557312 393.257996 -49.298302 0.000000
223.040588 393.257996 -49.298302 0.000000
236.523926 393.257996 -49.298302 0.000000
250.007202 393.257996 -49.298302 0.000000
263.490540 393.257996 -49.298302 0.000000
276.973816 393.257996 -49.298302 0.000000
290.457092 393.257996 -49.298302 0.000000
303.940430 393.257996 -49.298302 0.000000
317.423706 393.257996 -49.298302 0.000000
330.907043 393.257996 -49.298302 0.000000
344.390320 393.257996 -49.298302 0.000000
-343.257996 379.774689 -49.298302 0.000000
-329.774689 379.774689 -49.298302 0.000000
-316.291382 379.774689 -49.298302 0.000000
-302.808105 379.774689 -49.298302 0.000000
-289.324799 379.774689 -49.298302 0.000000
-275.841492 379.774689 -49.298302 0.000000
-262.358185 379.774689 -49.298302 0.000000
-248.874893 379.774689 -49.298302 0.000000
-235.391602 379.774689 -49.298302 0.000000
-221.908295 379.774689 -49.298302 0.000000
-208.424988 379.774689 -49.298302 0.000000
-194.941696 379.774689 -49.298302 0.000000
-181.458389 379.774689 -49.298302 0.000000
-167.975098 379.774689 -49.298302 0.000000
-154.491791 379.774689 -49.298302 0.000000
-141.008499 379.774689 -49.298302 0.000000
-127.525192 379.774689 -49.298302 0.000000
-114.041885 379.774689 -49.298302 0.000000
-100.558594 379.774689 -49.298302 0.000000
-87.075287 379.774689 -49.298302 0.000000
-73.591980 379.774689 -49.298302 0.000000
-60.108704 379.774689 -49.298302 0.000000
-46.625397 379.774689 -49.298302 0.000000
-33.142090 379.774689 -49.298302 0.000000
-19.658783 379.774689 -49.298302 0.000000
-6.175476 379.774689 -49.298302 0.000000
7.307800 379.774689 -49.298302 0.000000
20.791107 379.774689 -49.298302 0.000000
34.274414 379.774689 -49.298302 0.000000
47.757721 379.774689 -49.298302 0.000000
61.240997 379.774689 -49.298302 0.000000
74.724304 379.774689 -49.298302 0.000000
88.207611 379.774689 -49.298302 0.000000
101.690918 379.774689 -49.298302 0.000000
115.174225 379.774689 -49.298302 0.000000
128.657501 379.774689 -49.298302 0.000000
142.140808 379.774689 -49.298302 0.000000
155.624115 379.774689 -49.298302 0.000000
169.107422 379.774689 -49.298302 0.000000
182.590698 379.774689 -49.298302 0.000000
196.074036 379.774689 -49.298302 0.000000
209.557312 379.774689 -49.298302 0.000000
223.040588 379.774689 -49.298302 0.000000
236.523926 379.774689 -49.298302 0.000000
250.007202 379.774689 -49.298302 0.000000
263.490540 379.774689 -49.298302 0.000000
276.973816 379.774689 -49.298302 0.000000
290.457092 379.774689 -49.298302 0.000000
303.940430 379.774689 -49.298302 0.000000
317.423706 379.774689 -49.298302 0.000000
330.907043 379.774689 -49.298302 0.000000
344.390320 379.774689 -49.298302 0.000000
-343.257996 366.291382 -49.298302 0.000000
-329.774689 366.291382 -49.298302 0.000000
-316.291382 366.291382 -49.298302 0.000000
-302.808105 366.291382 -49.298302 0.000000
-289.324799 366.291382 -49.298302 0.000000
-275.841492 366.291382 -49.298302 0.000000
-262.358185 366.291382 -49.298302 0.000000
-248.874893 366.291382 -49.298302 0.000000
-235.391602 366.291382 -49.298302 0.000000
-221.908295 366.291382 -49.298302 0.000000
-208.424988 366.291382 -49.298302 0.000000
-194.941696 366.291382 -49.298302 0.000000
-181.458389 366.291382 -49.298302 0.000000
-167.975098 366.291382 -49.298302 0.000000
-154.491791 366.291382 -49.298302 0.000000
-141.008499 366.291382 -49.298302 0.000000
-127.525192 366.291382 -49.298302 0.000000
-114.041885 366.291382 -49.298302 0.000000
-100.558594 366.291382 -49.298302 0.000000
-87.075287 366.291382 -49.298302 0.000000
-73.591980 366.291382 -49.298302 0.000000
-60.108704 366.291382 -49.298302 0.000000
-46.625397 366.291382 -49.298302 0.000000
-33.142090 366.291382 -49.298302 0.000000
-19.658783 366.291382 -49.298302 0.000000
-6.175476 366.291382 -49.298302 0.000000
7.307800 366.291382 -49.298302 0.000000
20.791107 366.291382 -49.298302 0.000000
34.274414 366.291382 -49.298302 0.000000
47.757721 366.291382 -49.298302 0.000000
61.240997 366.291382 -49.298302 0.000000
74.724304 366.291382 -49.298302 0.000000
88.207611 366.291382 -49.298302 0.000000
101.690918 366.291382 -49.298302 0.000000
115.174225 366.291382 -49.298302 0.000000
128.657501 366.291382 -49.298302 0.000000
142.140808 366.291382 -49.298302 0.000000
155.624115 366.291382 -49.298302 0.000000
169.107422 366.291382 -49.298302 0.000000
182.590698 366.291382 -49.298302 0.000000
196.074036 366.291382 -49.298302 0.000000
209.557312 366.291382 -49.298302 0.000000
223.040588 366.291382 -49.298302 0.000000
236.523926 366.291382 -49.298302 0.000000
250.007202 366.291382 -49.298302 0.000000
263.490540 366.291382 -49.298302 0.000000
276.973816 366.291382 -49.298302 0.000000
290.457092 366.291382 -49.298302 0.000000
303.940430 366.291382 -49.298302 0.000000
317.423706 366.291382 -49.298302 0.000000
330.907043 366.291382 -49.298302 0.000000
344.390320 366.291382 -49.298302 0.000000
-343.257996 352.808105 -49.298302 0.000000
-329.774689 352.808105 -49.298302 0.000000
-316.291382 352.808105 -49.298302 0.000000
-302.808105 352.808105 -49.298302 0.000000
-289.324799 352.808105 -49.298302 -0.004831
-275.841492 352.808105 -49.298302 -0.003442
-262.358185 352.808105 -49.298302 0.000478
-248.874893 352.808105 -49.298302 0.001027
-235.391602 352.808105 -49.298302 0.003071
-221.908295 352.808105 -49.298302 0.001947
-208.424988 352.808105 -49.298302 0.006072
-194.941696 352.808105 -49.298302 0.021337
-181.458389 352.808105 -49.298302 0.033565
-167.975098 352.808105 -49.298302 0.000000
-154.491791 352.808105 -49.298302 0.000000
-141.008499 352.808105 -49.298302 0.000000
-127.525192 352.808105 -49.298302 0.000000
-114.041885 352.808105 -49.298302 0.000000
-100.558594 352.808105 -49.298302 0.000000
-87.075287 352.808105 -49.298302 0.000000
-73.591980 352.808105 -49.298302 0.000000
-60.108704 352.808105 -49.298302 0.000000
-46.625397 352.808105 -49.298302 0.000000
-33.142090 352.808105 -49.298302 0.000000
-19.658783 352.808105 -49.298302 0.000000
-6.175476 352.808105 -49.298302 0.000000
7.307800 352.808105 -49.298302 0.000000
20.791107 352.808105 -49.298302 -0.045075
34.274414 352.808105 -49.298302 -0.052235
47.757721 352.808105 -49.298302 -0.054866
61.240997 352.808105 -49.298302 -0.061102
74.724304 352.808105 -49.298302 0.000000
88.207611 352.808105 -49.298302 0.000000
101.690918 352.808105 -49.298302 0.000000
115.174225 352.808105 -49.298302 0.000000
128.657501 352.808105 -49.298302 0.000000
142.140808 352.808105 -49.298302 0.000000
155.624115 352.808105 -49.298302 0.000000
169.107422 352.808105 -49.298302 0.000000
182.590698 352.808105 -49.298302 0.000000
196.074036 352.808105 -49.298302 0.000000
209.557312 352.808105 -49.298302 0.000000
223.040588 352.808105 -49.298302 0.000000
236.523926 352.808105 -49.298302 0.000000
250.007202 352.808105 -49.298302 0.000000
263.490540 352.808105 -49.298302 0.000000
276.973816 352.808105 -49.298302 0.000000
290.457092 352.808105 -49.298302 0.000000
303.940430 352.808105 -49.298302 0.000000
317.423706 352.808105 -49.298302 0.000000
330.907043 352.808105 -49.298302 0.000000
344.390320 352.808105 -49.298302 0.000000
-343.257996 339.324799 -49.298302 0.000000
-329.774689 339.324799 -49.298302 0.000000
-316.291382 339.324799 -49.298302 0.000000
-302.808105 339.324799 -49.298302 -0.006404
-289.324799 339.324799 -49.298302 -0.004934
-275.841492 339.324799 -49.298302 -0.002341
-262.358185 339.324799 -49.298302 0.000860
-248.874893 339.324799 -49.298302 -0.000092
-235.391602 339.324799 -49.298302 -0.000059
-221.908295 339.324799 -49.298302 0.001734
-208.424988 339.324799 -49.298302 0.007951
-194.941696 339.324799 -49.298302 0.018261
-181.458389 339.324799 -49.298302 0.029446
-167.975098 339.324799 -49.298302 0.041152
-154.491791 339.324799 -49.298302 0.068943
-141.008499 339.324799 -49.298302 0.089688
-127.525192 339.324799 -49.298302 0.094971
-114.041885 339.324799 -49.298302 0.086457
-100.558594 339.324799 -49.298302 0.066019
-87.075287 339.324799 -49.298302 0.040042
-73.591980 339.324799 -49.298302 0.018922
-60.108704 339.324799 -49.298302 -0.003655
-46.625397 339.324799 -49.298302 -0.023981
-33.142090 339.324799 -49.298302 -0.047859
-19.658783 339.324799 -49.298302 -0.058136
-6.175476 339.324799 -49.298302 -0.061844
7.307800 339.324799 -49.298302 -0.052685
20.791107 339.324799 -49.298302 -0.058048
34.274414 339.324799 -49.298302 -0.057575
47.757721 339.324799 -49.298302 -0.051621
61.240997 339.324799 -49.298302 -0.050784
74.724304 339.324799 -49.298302 -0.049152
88.207611 339.324799 -49.298302 -0.033110
101.690918 339.324799 -49.298302 -0.013992
115.174225 339.324799 -49.298302 -0.011559
128.657501 339.324799 -49.298302 -0.017567
142.140808 339.324799 -49.298302 -0.034750
155.624115 339.324799 -49.298302 -0.032542
169.107422 339.324799 -49.298302 -0.040861
182.590698 339.324799 -49.298302 -0.044784
196.074036 339.324799 -49.298302 -0.049879
209.557312 339.324799 -49.298302 -0.053407
223.040588 339.324799 -49.298302 -0.043941
236.523926 339.324799 -49.298302 -0.037595
250.007202 339.324799 -49.298302 -0.024632
263.490540 339.324799 -49.298302 -0.027279
276.973816 339.324799 -49.298302 0.000000
290.457092 339.324799 -49.298302 0.000000
303.940430 339.324799 -49.298302 0.000000
317.423706 339.324799 -49.298302 0.000000
330.907043 339.324799 -49.298302 0.000000
344.390320 339.324799 -49.298302 0.000000
-343.257996 325.841492 -49.298302 0.000000
-329.774689 325.841492 -49.298302 0.000000
-316.291382 325.841492 -49.298302 0.000000
-302.808105 325.841492 -49.298302 -0.005785
-289.324799 325.841492 -49.298302 -0.004775
-275.841492 325.841492 -49.298302 -0.002863
-262.358185 325.841492 -49.298302 -0.001013
-248.874893 325.841492 -49.298302 -0.001003
-235.391602 325.841492 -49.298302 -0.001636
-221.908295 325.841492 -49.298302 0.001069
-208.424988 325.841492 -49.298302 -0.002021
-194.941696 325.841492 -49.298302 0.006956
-181.458389 325.841492 -49.298302 0.024987
-167.975098 325.841492 -49.298302 0.047694
-154.491791 325.841492 -49.298302 0.066880
-141.008499 325.841492 -49.298302 0.085135
-127.525192 325.841492 -49.298302 0.089950
-114.041885 325.841492 -49.298302 0.094051
-100.558594 325.841492 -49.298302 0.078576
-87.075287 325.841492 -49.298302 0.055894
-73.591980 325.841492 -49.298302 0.035868
-60.108704 325.841492 -49.298302 -0.005265
-46.625397 325.841492 -49.298302 -0.023257
-33.142090 325.841492 -49.298302 -0.038200
-19.658783 325.841492 -49.298302 -0.051692
-6.175476 325.841492 -49.298302 -0.070790
7.307800 325.841492 -49.298302 -0.061077
20.791107 325.841492 -49.298302 -0.053087
34.274414 325.841492 -49.298302 -0.059352
47.757721 325.841492 -49.298302 -0.052503
61.240997 325.841492 -49.298302 -0.055175
74.724304 325.841492 -49.298302 -0.054013
88.207611 325.841492 -49.298302 -0.035706
101.690918 325.841492 -49.298302 -0.021041
115.174225 325.841492 -49.298302 -0.017157
128.657501 325.841492 -49.298302 -0.025517
142.140808 325.841492 -49.298302 -0.043878
155.624115 325.841492 -49.298302 -0.078841
169.107422 325.841492 -49.298302 -0.081565
182.590698 325.841492 -49.298302 -0.078022
196.074036 325.841492 -49.298302 -0.074856
209.557312 325.841492 -49.298302 -0.068783
223.040588 325.841492 -49.298302 -0.058639
236.523926 325.841492 -49.298302 -0.044499
250.007202 325.841492 -49.298302 -0.033862
263.490540 325.841492 -49.298302 -0.028199
276.973816 325.841492 -49.298302 -0.022535
290.457092 325.841492 -49.298302 0.000000
303.940430 325.841492 -49.298302 0.000000
317.423706 325.841492 -49.298302 0.000000
330.907043 325.841492 -49.298302 0.000000
344.390320 325.841492 -49.298302 0.000000
-343.257996 312.358185 -49.298302 0.000000
-329.774689 312.358185 -49.298302 0.000000
-316.291382 312.358185 -49.298302 0.000000
-302.808105 312.358185 -49.298302 -0.004593
-289.324799 312.358185 -49.298302 -0.003967
-275.841492 312.358185 -49.298302 -0.002447
-262.358185 312.358185 -49.298302 -0.001957
-248.874893 312.358185 -49.298302 -0.002256
-235.391602 312.358185 -49.298302 -0.002018
-221.908295 312.358185 -49.298302 -0.002017
-208.424988 312.358185 -49.298302 -0.003270
-194.941696 312.358185 -49.298302 0.005490
-181.458389 312.358185 -49.298302 0.020899
-167.975098 312.358185 -49.298302 0.042441
-154.491791 312.358185 -49.298302 0.067704
-141.008499 312.358185 -49.298302 0.087644
-127.525192 312.358185 -49.298302 0.104022
-114.041885 312.358185 -49.298302 0.102194
-100.558594 312.358185 -49.298302 0.079368
-87.075287 312.358185 -49.298302 0.071145
-73.591980 312.358185 -49.298302 0.050224
-60.108704 312.358185 -49.298302 0.022226
-46.625397 312.358185 -49.298302 -0.018680
-33.142090 312.358185 -49.298302 -0.027164
-19.658783 312.358185 -49.298302 -0.051883
-6.175476 312.358185 -49.298302 -0.062252
7.307800 312.358185 -49.298302 -0.068779
20.791107 312.358185 -49.298302 -0.065231
34.274414 312.358185 -49.298302 -0.071373
47.757721 312.358185 -49.298302 -0.067768
61.240997 312.358185 -49.298302 -0.061875
74.724304 312.358185 -49.298302 -0.053571
88.207611 312.358185 -49.298302 -0.045501
101.690918 312.358185 -49.298302 -0.029361
115.174225 312.358185 -49.298302 -0.023265
128.657501 312.358185 -49.298302 -0.046739
142.140808 312.358185 -49.298302 -0.074708
155.624115 312.358185 -49.298302 -0.103428
169.107422 312.358185 -49.298302 -0.117915
182.590698 312.358185 -49.298302 -0.117366
196.074036 312.358185 -49.298302 -0.103497
209.557312 312.358185 -49.298302 -0.086759
223.040588 312.358185 -49.298302 -0.070311
236.523926 312.358185 -49.298302 -0.056928
250.007202 312.358185 -49.298302 -0.032683
263.490540 312.358185 -49.298302 -0.022212
276.973816 312.358185 -49.298302 -0.015087
290.457092 312.358185 -49.298302 -0.012062
303.940430 312.358185 -49.298302 0.000000
317.423706 312.358185 -49.298302 0.000000
330.907043 312.358185 -49.298302 0.000000
344.390320 312.358185 -49.298302 0.000000
-343.257996 298.874878 -49.298302 0.000000
-329.774689 298.874878 -49.298302 0.000000
-316.291382 298.874878 -49.298302 0.000000
-302.808105 298.874878 -49.298302 -0.004882
-289.324799 298.874878 -49.298302 -0.004085
-275.841492 298.874878 -49.298302 -0.003177
-262.358185 298.874878 -49.298302 -0.002204
-248.874893 298.874878 -49.298302 -0.001389
-235.391602 298.874878 -49.298302 -0.003227
-221.908295 298.874878 -49.298302 -0.004192
-208.424988 298.874878 -49.298302 -0.001634
-194.941696 298.874878 -49.298302 0.009293
-181.458389 298.874878 -49.298302 0.027369
-167.975098 298.874878 -49.298302 0.045717
-154.491791 298.874878 -49.298302 0.066348
-141.008499 298.874878 -49.298302 0.088247
-127.525192 298.874878 -49.298302 0.101670
-114.041885 298.874878 -49.298302 0.099995
-100.558594 298.874878 -49.298302 0.083679
-87.075287 298.874878 -49.298302 0.086642
-73.591980 298.874878 -49.298302 0.069115
-60.108704 298.874878 -49.298302 0.047087
-46.625397 298.874878 -49.298302 -0.004192
-33.142090 298.874878 -49.298302 -0.018271
-19.658783 298.874878 -49.298302 -0.046792
-6.175476 298.874878 -49.298302 -0.054937
7.307800 298.874878 -49.298302 -0.065185
20.791107 298.874878 -49.298302 -0.069677
34.274414 298.874878 -49.298302 -0.065836
47.757721 298.874878 -49.298302 -0.060358
61.240997 298.874878 -49.298302 -0.042900
74.724304 298.874878 -49.298302 -0.041890
88.207611 298.874878 -49.298302 -0.044288
101.690918 298.874878 -49.298302 -0.032941
115.174225 298.874878 -49.298302 -0.045153
128.657501 298.874878 -49.298302 -0.054662
142.140808 298.874878 -49.298302 -0.082213
155.624115 298.874878 -49.298302 -0.119648
169.107422 298.874878 -49.298302 -0.144140
182.590698 298.874878 -49.298302 -0.131852
196.074036 298.874878 -49.298302 -0.126439
209.557312 298.874878 -49.298302 -0.104629
223.040588 298.874878 -49.298302 -0.082594
236.523926 298.874878 -49.298302 -0.066727
250.007202 298.874878 -49.298302 -0.039650
263.490540 298.874878 -49.298302 -0.028602
276.973816 298.874878 -49.298302 -0.015629
290.457092 298.874878 -49.298302 -0.009203
303.940430 298.874878 -49.298302 0.000000
317.423706 298.874878 -49.298302 0.000000
330.907043 298.874878 -49.298302 0.000000
344.390320 298.874878 -49.298302 0.000000
-343.257996 285.391602 -49.298302 0.000000
-329.774689 285.391602 -49.298302 0.000000
-316.291382 285.391602 -49.298302 0.000000
-302.808105 285.391602 -49.298302 -0.004777
-289.324799 285.391602 -49.298302 -0.004195
-275.841492 285.391602 -49.298302 -0.003946
-262.358185 285.391602 -49.298302 -0.004956
-248.874893 285.391602 -49.298302 -0.003538
-235.391602 285.391602 -49.298302 -0.004481
-221.908295 285.391602 -49.298302 -0.004224
-208.424988 285.391602 -49.298302 0.000416
-194.941696 285.391602 -49.298302 0.019010
-181.458389 285.391602 -49.298302 0.033528
-167.975098 285.391602 -49.298302 0.054850
-154.491791 285.391602 -49.298302 0.067782
-141.008499 285.391602 -49.298302 0.085786
-127.525192 285.391602 -49.298302 0.093720
-114.041885 285.391602 -49.298302 0.102272
-100.558594 285.391602 -49.298302 0.093306
-87.075287 285.391602 -49.298302 0.094749
-73.591980 285.391602 -49.298302 0.098884
-60.108704 285.391602 -49.298302 0.069811
-46.625397 285.391602 -49.298302 0.030050
-33.142090 285.391602 -49.298302 -0.017372
-19.658783 285.391602 -49.298302 -0.042543
-6.175476 285.391602 -49.298302 -0.054211
7.307800 285.391602 -49.298302 -0.049084
20.791107 285.391602 -49.298302 -0.063786
34.274414 285.391602 -49.298302 -0.061834
47.757721 285.391602 -49.298302 -0.051945
61.240997 285.391602 -49.298302 -0.047935
74.724304 285.391602 -49.298302 -0.037344
88.207611 285.391602 -49.298302 -0.025158
101.690918 285.391602 -49.298302 -0.024266
115.174225 285.391602 -49.298302 -0.033869
128.657501 285.391602 -49.298302 -0.046972
142.140808 285.391602 -49.298302 -0.069772
155.624115 285.391602 -49.298302 -0.102779
169.107422 285.391602 -49.298302 -0.131751
182.590698 285.391602 -49.298302 -0.141842
196.074036 285.391602 -49.298302 -0.140092
209.557312 285.391602 -49.298302 -0.118121
223.040588 285.391602 -49.298302 -0.094993
236.523926 285.391602 -49.298302 -0.076161
250.007202 285.391602 -49.298302 -0.045444
263.490540 285.391602 -49.298302 -0.025882
276.973816 285.391602 -49.298302 -0.018395
290.457092 285.391602 -49.298302 -0.009000
303.940430 285.391602 -49.298302 0.000000
317.423706 285.391602 -49.298302 0.000000
330.907043 285.391602 -49.298302 0.000000
344.390320 285.391602 -49.298302 0.000000
-343.257996 271.908295 -49.298302 0.000000
-329.774689 271.908295 -49.298302 0.000000
-316.291382 271.908295 -49.298302 0.000000
-302.808105 271.908295 -49.298302 -0.004286
-289.324799 271.908295 -49.298302 -0.004977
-275.841492 271.908295 -49.298302 -0.006957
-262.358185 271.908295 -49.298302 -0.004736
-248.874893 271.908295 -49.298302 -0.007136
-235.391602 271.908295 -49.298302 -0.006262
-221.908295 271.908295 -49.298302 -0.000350
-208.424988 271.908295 -49.298302 0.006664
-194.941696 271.908295 -49.298302 0.022206
-181.458389 271.908295 -49.298302 0.039594
-167.975098 271.908295 -49.298302 0.053275
-154.491791 271.908295 -49.298302 0.066435
-141.008499 271.908295 -49.298302 0.075357
-127.525192 271.908295 -49.298302 0.088608
-114.041885 271.908295 -49.298302 0.091654
-100.558594 271.908295 -49.298302 0.104716
-87.075287 271.908295 -49.298302 0.114757
-73.591980 271.908295 -49.298302 0.113863
-60.108704 271.908295 -49.298302 0.098217
-46.625397 271.908295 -49.298302 0.039532
-33.142090 271.908295 -49.298302 -0.006147
-19.658783 271.908295 -49.298302 -0.036493
-6.175476 271.908295 -49.298302 -0.047854
7.307800 271.908295 -49.298302 -0.051917
20.791107 271.908295 -49.298302 -0.054779
34.274414 271.908295 -49.298302 -0.046507
47.757721 271.908295 -49.298302 -0.036081
61.240997 271.908295 -49.298302 0.000000
74.724304 271.908295 -49.298302 -0.018686
88.207611 271.908295 -49.298302 -0.012252
101.690918 271.908295 -49.298302 -0.010660
115.174225 271.908295 -49.298302 -0.021220
128.657501 271.908295 -49.298302 -0.025492
142.140808 271.908295 -49.298302 -0.060138
155.624115 271.908295 -49.298302 -0.086746
169.107422 271.908295 -49.298302 -0.116751
182.590698 271.908295 -49.298302 -0.143850
196.074036 271.908295 -49.298302 -0.157236
209.557312 271.908295 -49.298302 -0.145813
223.040588 271.908295 -49.298302 -0.117043
236.523926 271.908295 -49.298302 -0.078910
250.007202 271.908295 -49.298302 -0.050357
263.490540 271.908295 -49.298302 -0.035223
276.973816 271.908295 -49.298302 -0.017378
290.457092 271.908295 -49.298302 -0.010213
303.940430 271.908295 -49.298302 0.000000
317.423706 271.908295 -49.298302 0.000000
330.907043 271.908295 -49.298302 0.000000
344.390320 271.908295 -49.298302 0.000000
-343.257996 258.424988 -49.298302 0.000000
-329.774689 258.424988 -49.298302 0.000000
-316.291382 258.424988 -49.298302 0.000000
-302.808105 258.424988 -49.298302 -0.005031
-289.324799 258.424988 -49.298302 -0.006442
-275.841492 258.424988 -49.298302 -0.006144
-262.358185 258.424988 -49.298302 -0.007342
-248.874893 258.424988 -49.298302 -0.009040
-235.391602 258.424988 -49.298302 -0.006942
-221.908295 258.424988 -49.298302 -0.000491
-208.424988 258.424988 -49.298302 0.008599
-194.941696 258.424988 -49.298302 0.024294
-181.458389 258.424988 -49.298302 0.043265
-167.975098 258.424988 -49.298302 0.057251
-154.491791 258.424988 -49.298302 0.070153
-141.008499 258.424988 -49.298302 0.078883
-127.525192 258.424988 -49.298302 0.088916
-114.041885 258.424988 -49.298302 0.104203
-100.558594 258.424988 -49.298302 0.128253
-87.075287 258.424988 -49.298302 0.144964
-73.591980 258.424988 -49.298302 0.136838
-60.108704 258.424988 -49.298302 0.103326
-46.625397 258.424988 -49.298302 0.053551
-33.142090 258.424988 -49.298302 0.013296
-19.658783 258.424988 -49.298302 -0.024632
-6.175476 258.424988 -49.298302 -0.035797
7.307800 258.424988 -49.298302 -0.049991
20.791107 258.424988 -49.298302 -0.048822
34.274414 258.424988 -49.298302 -0.038765
47.757721 258.424988 -49.298302 -0.037348
61.240997 258.424988 -49.298302 0.000000
74.724304 258.424988 -49.298302 -0.012494
88.207611 258.424988 -49.298302 -0.007312
101.690918 258.424988 -49.298302 -0.000154
115.174225 258.424988 -49.298302 -0.021379
128.657501 258.424988 -49.298302 -0.033448
142.140808 258.424988 -49.298302 -0.068596
155.624115 258.424988 -49.298302 -0.079458
169.107422 258.424988 -49.298302 -0.111666
182.590698 258.424988 -49.298302 -0.132904
196.074036 258.424988 -49.298302 -0.151344
209.557312 258.424988 -49.298302 -0.152734
223.040588 258.424988 -49.298302 -0.128060
236.523926 258.424988 -49.298302 -0.094481
250.007202 258.424988 -49.298302 -0.057056
263.490540 258.424988 -49.298302 -0.037123
276.973816 258.424988 -49.298302 -0.013503
290.457092 258.424988 -49.298302 -0.003346
303.940430 258.424988 -49.298302 0.001178
317.423706 258.424988 -49.298302 0.000000
330.907043 258.424988 -49.298302 0.000000
344.390320 258.424988 -49.298302 0.000000
-343.257996 244.941696 -49.298302 0.000000
-329.774689 244.941696 -49.298302 0.000000
-316.291382 244.941696 -49.298302 0.000000
-302.808105 244.941696 -49.298302 -0.007109
-289.324799 244.941696 -49.298302 -0.007647
-275.841492 244.941696 -49.298302 -0.009243
-262.358185 244.941696 -49.298302 -0.008639
-248.874893 244.941696 -49.298302 -0.010561
-235.391602 244.941696 -49.298302 -0.005859
-221.908295 244.941696 -49.298302 0.005152
-208.424988 244.941696 -49.298302 0.017999
-194.941696 244.941696 -49.298302 0.033141
-181.458389 244.941696 -49.298302 0.046349
-167.975098 244.941696 -49.298302 0.060670
-154.491791 244.941696 -49.298302 0.069771
-141.008499 244.941696 -49.298302 0.080706
-127.525192 244.941696 -49.298302 0.101557
-114.041885 244.941696 -49.298302 0.120079
-100.558594 244.941696 -49.298302 0.140723
-87.075287 244.941696 -49.298302 0.161244
-73.591980 244.941696 -49.298302 0.147774
-60.108704 244.941696 -49.298302 0.098459
-46.625397 244.941696 -49.298302 0.078805
-33.142090 244.941696 -49.298302 0.024981
-19.658783 244.941696 -49.298302 -0.017604
-6.175476 244.941696 -49.298302 -0.037761
7.307800 244.941696 -49.298302 -0.042429
20.791107 244.941696 -49.298302 -0.036229
34.274414 244.941696 -49.298302 -0.040016
47.757721 244.941696 -49.298302 -0.028212
61.240997 244.941696 -49.298302 -0.024630
74.724304 244.941696 -49.298302 -0.000947
88.207611 244.941696 -49.298302 0.010981
101.690918 244.941696 -49.298302 -0.015155
115.174225 244.941696 -49.298302 0.000000
128.657501 244.941696 -49.298302 0.000000
142.140808 244.941696 -49.298302 0.000000
155.624115 244.941696 -49.298302 -0.102762
169.107422 244.941696 -49.298302 -0.126137
182.590698 244.941696 -49.298302 -0.138246
196.074036 244.941696 -49.298302 -0.152867
209.557312 244.941696 -49.298302 -0.155965
223.040588 244.941696 -49.298302 -0.125906
236.523926 244.941696 -49.298302 -0.097625
250.007202 244.941696 -49.298302 -0.063581
263.490540 244.941696 -49.298302 -0.029900
276.973816 244.941696 -49.298302 -0.008560
290.457092 244.941696 -49.298302 -0.002576
303.940430 244.941696 -49.298302 0.000551
317.423706 244.941696 -49.298302 0.000000
330.907043 244.941696 -49.298302 0.000000
344.390320 244.941696 -49.298302 0.000000
-343.257996 231.458389 -49.298302 0.000000
-329.774689 231.458389 -49.298302 0.000000
-316.291382 231.458389 -49.298302 0.000000
-302.808105 231.458389 -49.298302 -0.008433
-289.324799 231.458389 -49.298302 -0.009609
-275.841492 231.458389 -49.298302 -0.009094
-262.358185 231.458389 -49.298302 -0.009463
-248.874893 231.458389 -49.298302 -0.012026
-235.391602 231.458389 -49.298302 -0.006910
-221.908295 231.458389 -49.298302 0.010763
-208.424988 231.458389 -49.298302 0.029165
-194.941696 231.458389 -49.298302 0.038090
-181.458389 231.458389 -49.298302 0.046917
-167.975098 231.458389 -49.298302 0.061711
-154.491791 231.458389 -49.298302 0.077839
-141.008499 231.458389 -49.298302 0.086381
-127.525192 231.458389 -49.298302 0.094694
-114.041885 231.458389 -49.298302 0.136412
-100.558594 231.458389 -49.298302 0.169991
-87.075287 231.458389 -49.298302 0.176361
-73.591980 231.458389 -49.298302 0.162680
-60.108704 231.458389 -49.298302 0.119771
-46.625397 231.458389 -49.298302 0.087459
-33.142090 231.458389 -49.298302 0.047460
-19.658783 231.458389 -49.298302 0.002404
-6.175476 231.458389 -49.298302 -0.029296
7.307800 231.458389 -49.298302 -0.037632
20.791107 231.458389 -49.298302 -0.035405
34.274414 231.458389 -49.298302 -0.033558
47.757721 231.458389 -49.298302 -0.022248
61.240997 231.458389 -49.298302 -0.007827
74.724304 231.458389 -49.298302 -0.008470
88.207611 231.458389 -49.298302 -0.010717
101.690918 231.458389 -49.298302 -0.025726
115.174225 231.458389 -49.298302 0.000000
128.657501 231.458389 -49.298302 -0.068991
142.140808 231.458389 -49.298302 -0.090132
155.624115 231.458389 -49.298302 -0.110184
169.107422 231.458389 -49.298302 -0.144114
182.590698 231.458389 -49.298302 -0.156012
196.074036 231.458389 -49.298302 -0.159316
209.557312 231.458389 -49.298302 -0.153871
223.040588 231.458389 -49.298302 -0.124674
236.523926 231.458389 -49.298302 -0.091852
250.007202 231.458389 -49.298302 -0.061221
263.490540 231.458389 -49.298302 -0.028837
276.973816 231.458389 -49.298302 -0.010593
290.457092 231.458389 -49.298302 0.000080
303.940430 231.458389 -49.298302 0.001781
317.423706 231.458389 -49.298302 0.000000
330.907043 231.458389 -49.298302 0.000000
344.390320 231.458389 -49.298302 0.000000
-343.257996 217.975098 -49.298302 0.000000
-329.774689 217.975098 -49.298302 0.000000
-316.291382 217.975098 -49.298302 0.000000
-302.808105 217.975098 -49.298302 -0.007951
-289.324799 217.975098 -49.298302 -0.010454
-275.841492 217.975098 -49.298302 -0.012130
-262.358185 217.975098 -49.298302 -0.014483
-248.874893 217.975098 -49.298302 -0.013519
-235.391602 217.975098 -49.298302 -0.007226
-221.908295 217.975098 -49.298302 0.011638
-208.424988 217.975098 -49.298302 0.031834
-194.941696 217.975098 -49.298302 0.044610
-181.458389 217.975098 -49.298302 0.054115
-167.975098 217.975098 -49.298302 0.075886
-154.491791 217.975098 -49.298302 0.086805
-141.008499 217.975098 -49.298302 0.096604
-127.525192 217.975098 -49.298302 0.124097
-114.041885 217.975098 -49.298302 0.155675
-100.558594 217.975098 -49.298302 0.187919
-87.075287 217.975098 -49.298302 0.185338
-73.591980 217.975098 -49.298302 0.173410
-60.108704 217.975098 -49.298302 0.131177
-46.625397 217.975098 -49.298302 0.086958
-33.142090 217.975098 -49.298302 0.044562
-19.658783 217.975098 -49.298302 0.005590
-6.175476 217.975098 -49.298302 -0.027165
7.307800 217.975098 -49.298302 -0.037610
20.791107 217.975098 -49.298302 -0.041999
34.274414 217.975098 -49.298302 0.000000
47.757721 217.975098 -49.298302 -0.028637
61.240997 217.975098 -49.298302 -0.021299
74.724304 217.975098 -49.298302 -0.024966
88.207611 217.975098 -49.298302 -0.034345
101.690918 217.975098 -49.298302 -0.045397
115.174225 217.975098 -49.298302 -0.071113
128.657501 217.975098 -49.298302 -0.095108
142.140808 217.975098 -49.298302 -0.110911
155.624115 217.975098 -49.298302 -0.136577
169.107422 217.975098 -49.298302 -0.149223
182.590698 217.975098 -49.298302 -0.149089
196.074036 217.975098 -49.298302 -0.148615
209.557312 217.975098 -49.298302 -0.136497
223.040588 217.975098 -49.298302 -0.112454
236.523926 217.975098 -49.298302 -0.085970
250.007202 217.975098 -49.298302 -0.054313
263.490540 217.975098 -49.298302 -0.023180
276.973816 217.975098 -49.298302 -0.008072
290.457092 217.975098 -49.298302 -0.002658
303.940430 217.975098 -49.298302 0.000133
317.423706 217.975098 -49.298302 0.000000
330.907043 217.975098 -49.298302 0.000000
344.390320 217.975098 -49.298302 0.000000
-343.257996 204.491791 -49.298302 0.000000
-329.774689 204.491791 -49.298302 0.000000
-316.291382 204.491791 -49.298302 0.000000
-302.808105 204.491791 -49.298302 -0.007351
-289.324799 204.491791 -49.298302 -0.008707
-275.841492 204.491791 -49.298302 -0.010310
-262.358185 204.491791 -49.298302 -0.013149
-248.874893 204.491791 -49.298302 -0.013210
-235.391602 204.491791 -49.298302 -0.003277
-221.908295 204.491791 -49.298302 0.019950
-208.424988 204.491791 -49.298302 0.038726
-194.941696 204.491791 -49.298302 0.054699
-181.458389 204.491791 -49.298302 0.064844
-167.975098 204.491791 -49.298302 0.087993
-154.491791 204.491791 -49.298302 0.098931
-141.008499 204.491791 -49.298302 0.132578
-127.525192 204.491791 -49.298302 0.153111
-114.041885 204.491791 -49.298302 0.172038
-100.558594 204.491791 -49.298302 0.208513
-87.075287 204.491791 -49.298302 0.205968
-73.591980 204.491791 -49.298302 0.180992
-60.108704 204.491791 -49.298302 0.134241
-46.625397 204.491791 -49.298302 0.075862
-33.142090 204.491791 -49.298302 0.034577
-19.658783 204.491791 -49.298302 -0.004662
-6.175476 204.491791 -49.298302 -0.043174
7.307800 204.491791 -49.298302 -0.048730
20.791107 204.491791 -49.298302 -0.054157
34.274414 204.491791 -49.298302 -0.048341
47.757721 204.491791 -49.298302 -0.029790
61.240997 204.491791 -49.298302 -0.030762
74.724304 204.491791 -49.298302 -0.041530
88.207611 204.491791 -49.298302 -0.062808
101.690918 204.491791 -49.298302 -0.070813
115.174225 204.491791 -49.298302 -0.103435
128.657501 204.491791 -49.298302 -0.126695
142.140808 204.491791 -49.298302 -0.138076
155.624115 204.491791 -49.298302 -0.138681
169.107422 204.491791 -49.298302 -0.134836
182.590698 204.491791 -49.298302 -0.128602
196.074036 204.491791 -49.298302 -0.124071
209.557312 204.491791 -49.298302 -0.114239
223.040588 204.491791 -49.298302 -0.090565
236.523926 204.491791 -49.298302 -0.063130
250.007202 204.491791 -49.298302 -0.039492
263.490540 204.491791 -49.298302 -0.015244
276.973816 204.491791 -49.298302 -0.003060
290.457092 204.491791 -49.298302 -0.000905
303.940430 204.491791 -49.298302 0.001129
317.423706 204.491791 -49.298302 0.000000
330.907043 204.491791 -49.298302 0.000000
344.390320 204.491791 -49.298302 0.000000
-343.257996 191.008499 -49.298302 0.000000
-329.774689 191.008499 -49.298302 0.000000
-316.291382 191.008499 -49.298302 0.000000
-302.808105 191.008499 -49.298302 -0.005142
-289.324799 191.008499 -49.298302 -0.006715
-275.841492 191.008499 -49.298302 -0.008450
-262.358185 191.008499 -49.298302 -0.009543
-248.874893 191.008499 -49.298302 -0.009917
-235.391602 191.008499 -49.298302 0.003444
-221.908295 191.008499 -49.298302 0.022507
-208.424988 191.008499 -49.298302 0.043449
-194.941696 191.008499 -49.298302 0.060827
-181.458389 191.008499 -49.298302 0.077924
-167.975098 191.008499 -49.298302 0.091044
-154.491791 191.008499 -49.298302 0.125037
-141.008499 191.008499 -49.298302 0.159753
-127.525192 191.008499 -49.298302 0.190773
-114.041885 191.008499 -49.298302 0.216583
-100.558594 191.008499 -49.298302 0.242802
-87.075287 191.008499 -49.298302 0.228079
-73.591980 191.008499 -49.298302 0.191335
-60.108704 191.008499 -49.298302 0.141043
-46.625397 191.008499 -49.298302 0.081604
-33.142090 191.008499 -49.298302 0.031003
-19.658783 191.008499 -49.298302 -0.014949
-6.175476 191.008499 -49.298302 -0.054132
7.307800 191.008499 -49.298302 -0.060753
20.791107 191.008499 -49.298302 -0.055835
34.274414 191.008499 -49.298302 -0.052293
47.757721 191.008499 -49.298302 -0.052007
61.240997 191.008499 -49.298302 -0.060136
74.724304 191.008499 -49.298302 -0.075881
88.207611 191.008499 -49.298302 -0.093265
101.690918 191.008499 -49.298302 -0.101619
115.174225 191.008499 -49.298302 -0.125465
128.657501 191.008499 -49.298302 -0.140273
142.140808 191.008499 -49.298302 -0.143032
155.624115 191.008499 -49.298302 -0.134337
169.107422 191.008499 -49.298302 -0.120982
182.590698 191.008499 -49.298302 -0.112840
196.074036 191.008499 -49.298302 -0.099436
209.557312 191.008499 -49.298302 -0.081587
223.040588 191.008499 -49.298302 -0.059479
236.523926 191.008499 -49.298302 -0.044663
250.007202 191.008499 -49.298302 -0.024037
263.490540 191.008499 -49.298302 -0.009272
276.973816 191.008499 -49.298302 -0.005485
290.457092 191.008499 -49.298302 0.000114
303.940430 191.008499 -49.298302 0.001051
317.423706 191.008499 -49.298302 0.000000
330.907043 191.008499 -49.298302 0.000000
344.390320 191.008499 -49.298302 0.000000
-343.257996 177.525192 -49.298302 0.000000
-329.774689 177.525192 -49.298302 0.000000
-316.291382 177.525192 -49.298302 0.000000
-302.808105 177.525192 -49.298302 -0.004316
-289.324799 177.525192 -49.298302 -0.005477
-275.841492 177.525192 -49.298302 -0.006393
-262.358185 177.525192 -49.298302 -0.004121
-248.874893 177.525192 -49.298302 -0.004730
-235.391602 177.525192 -49.298302 0.011486
-221.908295 177.525192 -49.298302 0.021401
-208.424988 177.525192 -49.298302 0.043448
-194.941696 177.525192 -49.298302 0.064262
-181.458389 177.525192 -49.298302 0.081710
-167.975098 177.525192 -49.298302 0.108106
-154.491791 177.525192 -49.298302 0.169661
-141.008499 177.525192 -49.298302 0.190249
-127.525192 177.525192 -49.298302 0.229660
-114.041885 177.525192 -49.298302 0.249012
-100.558594 177.525192 -49.298302 0.256820
-87.075287 177.525192 -49.298302 0.239379
-73.591980 177.525192 -49.298302 0.203938
-60.108704 177.525192 -49.298302 0.151510
-46.625397 177.525192 -49.298302 0.090620
-33.142090 177.525192 -49.298302 0.033595
-19.658783 177.525192 -49.298302 -0.017148
-6.175476 177.525192 -49.298302 -0.046351
7.307800 177.525192 -49.298302 -0.071241
20.791107 177.525192 -49.298302 -0.083338
34.274414 177.525192 -49.298302 -0.086189
47.757721 177.525192 -49.298302 -0.099358
61.240997 177.525192 -49.298302 -0.097608
74.724304 177.525192 -49.298302 -0.103786
88.207611 177.525192 -49.298302 -0.123147
101.690918 177.525192 -49.298302 -0.126454
115.174225 177.525192 -49.298302 -0.134510
128.657501 177.525192 -49.298302 -0.123329
142.140808 177.525192 -49.298302 -0.120499
155.624115 177.525192 -49.298302 -0.112076
169.107422 177.525192 -49.298302 -0.096453
182.590698 177.525192 -49.298302 -0.081736
196.074036 177.525192 -49.298302 -0.072824
209.557312 177.525192 -49.298302 -0.061183
223.040588 177.525192 -49.298302 -0.046980
236.523926 177.525192 -49.298302 -0.027131
250.007202 177.525192 -49.298302 -0.011096
263.490540 177.525192 -49.298302 -0.007351
276.973816 177.525192 -49.298302 -0.001633
290.457092 177.525192 -49.298302 0.000298
303.940430 177.525192 -49.298302 -0.000634
317.423706 177.525192 -49.298302 0.000000
330.907043 177.525192 -49.298302 0.000000
344.390320 177.525192 -49.298302 0.000000
-343.257996 164.041885 -49.298302 0.000000
-329.774689 164.041885 -49.298302 0.000000
-316.291382 164.041885 -49.298302 0.000000
-302.808105 164.041885 -49.298302 -0.003361
-289.324799 164.041885 -49.298302 -0.003673
-275.841492 164.041885 -49.298302 -0.003289
-262.358185 164.041885 -49.298302 0.001142
-248.874893 164.041885 -49.298302 0.004715
-235.391602 164.041885 -49.298302 0.012160
-221.908295 164.041885 -49.298302 0.025102
-208.424988 164.041885 -49.298302 0.043229
-194.941696 164.041885 -49.298302 0.080751
-181.458389 164.041885 -49.298302 0.111745
-167.975098 164.041885 -49.298302 0.149005
-154.491791 164.041885 -49.298302 0.209592
-141.008499 164.041885 -49.298302 0.250218
-127.525192 164.041885 -49.298302 0.260252
-114.041885 164.041885 -49.298302 0.263869
-100.558594 164.041885 -49.298302 0.281103
-87.075287 164.041885 -49.298302 0.242628
-73.591980 164.041885 -49.298302 0.197968
-60.108704 164.041885 -49.298302 0.135433
-46.625397 164.041885 -49.298302 0.075377
-33.142090 164.041885 -49.298302 0.007718
-19.658783 164.041885 -49.298302 -0.033125
-6.175476 164.041885 -49.298302 -0.064702
7.307800 164.041885 -49.298302 -0.094364
20.791107 164.041885 -49.298302 -0.105679
34.274414 164.041885 -49.298302 -0.121907
47.757721 164.041885 -49.298302 -0.138423
61.240997 164.041885 -49.298302 -0.139073
74.724304 164.041885 -49.298302 -0.132599
88.207611 164.041885 -49.298302 -0.127049
101.690918 164.041885 -49.298302 -0.117791
115.174225 164.041885 -49.298302 -0.112405
128.657501 164.041885 -49.298302 -0.103416
142.140808 164.041885 -49.298302 -0.095981
155.624115 164.041885 -49.298302 -0.080642
169.107422 164.041885 -49.298302 -0.071950
182.590698 164.041885 -49.298302 -0.053709
196.074036 164.041885 -49.298302 -0.043226
209.557312 164.041885 -49.298302 -0.032015
223.040588 164.041885 -49.298302 -0.023306
236.523926 164.041885 -49.298302 -0.014331
250.007202 164.041885 -49.298302 -0.004551
263.490540 164.041885 -49.298302 -0.004463
276.973816 164.041885 -49.298302 -0.001974
290.457092 164.041885 -49.298302 -0.000224
303.940430 164.041885 -49.298302 -0.000634
317.423706 164.041885 -49.298302 0.000000
330.907043 164.041885 -49.298302 0.000000
344.390320 164.041885 -49.298302 0.000000
-343.257996 150.558594 -49.298302 0.000000
-329.774689 150.558594 -49.298302 0.000000
-316.291382 150.558594 -49.298302 0.000000
-302.808105 150.558594 -49.298302 -0.001746
-289.324799 150.558594 -49.298302 -0.001903
-275.841492 150.558594 -49.298302 0.000969
-262.358185 150.558594 -49.298302 0.006480
-248.874893 150.558594 -49.298302 0.010790
-235.391602 150.558594 -49.298302 0.021096
-221.908295 150.558594 -49.298302 0.029527
-208.424988 150.558594 -49.298302 0.054659
-194.941696 150.558594 -49.298302 0.095274
-181.458389 150.558594 -49.298302 0.146893
-167.975098 150.558594 -49.298302 0.197537
-154.491791 150.558594 -49.298302 0.279397
-141.008499 150.558594 -49.298302 0.320935
-127.525192 150.558594 -49.298302 0.335235
-114.041885 150.558594 -49.298302 0.318971
-100.558594 150.558594 -49.298302 0.290171
-87.075287 150.558594 -49.298302 0.228692
-73.591980 150.558594 -49.298302 0.175487
-60.108704 150.558594 -49.298302 0.107938
-46.625397 150.558594 -49.298302 0.056494
-33.142090 150.558594 -49.298302 0.000472
-19.658783 150.558594 -49.298302 -0.040151
-6.175476 150.558594 -49.298302 -0.066218
7.307800 150.558594 -49.298302 -0.108182
20.791107 150.558594 -49.298302 -0.132456
34.274414 150.558594 -49.298302 -0.144838
47.757721 150.558594 -49.298302 -0.163033
61.240997 150.558594 -49.298302 -0.164999
74.724304 150.558594 -49.298302 -0.150609
88.207611 150.558594 -49.298302 -0.137666
101.690918 150.558594 -49.298302 -0.124868
115.174225 150.558594 -49.298302 -0.108610
128.657501 150.558594 -49.298302 -0.084249
142.140808 150.558594 -49.298302 -0.073794
155.624115 150.558594 -49.298302 -0.056541
169.107422 150.558594 -49.298302 -0.045099
182.590698 150.558594 -49.298302 -0.034053
196.074036 150.558594 -49.298302 -0.025903
209.557312 150.558594 -49.298302 -0.019874
223.040588 150.558594 -49.298302 -0.012665
236.523926 150.558594 -49.298302 -0.009328
250.007202 150.558594 -49.298302 -0.006770
263.490540 150.558594 -49.298302 -0.003214
276.973816 150.558594 -49.298302 -0.002409
290.457092 150.558594 -49.298302 -0.000546
303.940430 150.558594 -49.298302 -0.000869
317.423706 150.558594 -49.298302 0.000000
330.907043 150.558594 -49.298302 0.000000
344.390320 150.558594 -49.298302 0.000000
-343.257996 137.075287 -49.298302 0.000000
-329.774689 137.075287 -49.298302 0.000000
-316.291382 137.075287 -49.298302 0.000000
-302.808105 137.075287 -49.298302 -0.002201
-289.324799 137.075287 -49.298302 -0.000354
-275.841492 137.075287 -49.298302 0.005068
-262.358185 137.075287 -49.298302 0.011492
-248.874893 137.075287 -49.298302 0.019576
-235.391602 137.075287 -49.298302 0.039375
-221.908295 137.075287 -49.298302 0.058307
-208.424988 137.075287 -49.298302 0.085320
-194.941696 137.075287 -49.298302 0.126944
-181.458389 137.075287 -49.298302 0.193729
-167.975098 137.075287 -49.298302 0.270972
-154.491791 137.075287 -49.298302 0.323411
-141.008499 137.075287 -49.298302 0.374904
-127.525192 137.075287 -49.298302 0.366129
-114.041885 137.075287 -49.298302 0.333802
-100.558594 137.075287 -49.298302 0.315338
-87.075287 137.075287 -49.298302 0.229920
-73.591980 137.075287 -49.298302 0.150073
-60.108704 137.075287 -49.298302 0.093657
-46.625397 137.075287 -49.298302 0.037559
-33.142090 137.075287 -49.298302 -0.018466
-19.658783 137.075287 -49.298302 -0.063341
-6.175476 137.075287 -49.298302 -0.087151
7.307800 137.075287 -49.298302 -0.112096
20.791107 137.075287 -49.298302 -0.136649
34.274414 137.075287 -49.298302 -0.167896
47.757721 137.075287 -49.298302 -0.179823
61.240997 137.075287 -49.298302 -0.169932
74.724304 137.075287 -49.298302 -0.154492
88.207611 137.075287 -49.298302 -0.131942
101.690918 137.075287 -49.298302 -0.113406
115.174225 137.075287 -49.298302 -0.089632
128.657501 137.075287 -49.298302 -0.064128
142.140808 137.075287 -49.298302 -0.046116
155.624115 137.075287 -49.298302 -0.042948
169.107422 137.075287 -49.298302 -0.032693
182.590698 137.075287 -49.298302 -0.022316
196.074036 137.075287 -49.298302 -0.013988
209.557312 137.075287 -49.298302 -0.012359
223.040588 137.075287 -49.298302 -0.009497
236.523926 137.075287 -49.298302 -0.005019
250.007202 137.075287 -49.298302 -0.002606
263.490540 137.075287 -49.298302 -0.002647
276.973816 137.075287 -49.298302 -0.002370
290.457092 137.075287 -49.298302 -0.000695
303.940430 137.075287 -49.298302 -0.000785
317.423706 137.075287 -49.298302 0.000000
330.907043 137.075287 -49.298302 0.000000
344.390320 137.075287 -49.298302 0.000000
-343.257996 123.591980 -49.298302 0.000000
-329.774689 123.591980 -49.298302 0.000000
-316.291382 123.591980 -49.298302 0.000000
-302.808105 123.591980 -49.298302 -0.001435
-289.324799 123.591980 -49.298302 0.000112
-275.841492 123.591980 -49.298302 0.007094
-262.358185 123.591980 -49.298302 0.015874
-248.874893 123.591980 -49.298302 0.028590
-235.391602 123.591980 -49.298302 0.054537
-221.908295 123.591980 -49.298302 0.088865
-208.424988 123.591980 -49.298302 0.120348
-194.941696 123.591980 -49.298302 0.178425
-181.458389 123.591980 -49.298302 0.255796
-167.975098 123.591980 -49.298302 0.333138
-154.491791 123.591980 -49.298302 0.383883
-141.008499 123.591980 -49.298302 0.406562
-127.525192 123.591980 -49.298302 0.404928
-114.041885 123.591980 -49.298302 0.383971
-100.558594 123.591980 -49.298302 0.326633
-87.075287 123.591980 -49.298302 0.248797
-73.591980 123.591980 -49.298302 0.140361
-60.108704 123.591980 -49.298302 0.085350
-46.625397 123.591980 -49.298302 0.023565
-33.142090 123.591980 -49.298302 -0.034892
-19.658783 123.591980 -49.298302 -0.074944
-6.175476 123.591980 -49.298302 -0.092701
7.307800 123.591980 -49.298302 -0.119528
20.791107 123.591980 -49.298302 -0.136449
34.274414 123.591980 -49.298302 -0.159927
47.757721 123.591980 -49.298302 -0.170868
61.240997 123.591980 -49.298302 -0.160277
74.724304 123.591980 -49.298302 -0.144104
88.207611 123.591980 -49.298302 -0.118508
101.690918 123.591980 -49.298302 -0.093428
115.174225 123.591980 -49.298302 -0.068108
128.657501 123.591980 -49.298302 -0.047416
142.140808 123.591980 -49.298302 -0.031071
155.624115 123.591980 -49.298302 -0.025167
169.107422 123.591980 -49.298302 -0.024173
182.590698 123.591980 -49.298302 -0.014299
196.074036 123.591980 -49.298302 -0.009962
209.557312 123.591980 -49.298302 -0.005001
223.040588 123.591980 -49.298302 -0.004397
236.523926 123.591980 -49.298302 -0.002040
250.007202 123.591980 -49.298302 -0.001924
263.490540 123.591980 -49.298302 -0.001812
276.973816 123.591980 -49.298302 -0.001424
290.457092 123.591980 -49.298302 -0.001296
303.940430 123.591980 -49.298302 -0.000585
317.423706 123.591980 -49.298302 0.000000
330.907043 123.591980 -49.298302 0.000000
344.390320 123.591980 -49.298302 0.000000
-343.257996 110.108704 -49.298302 0.000000
-329.774689 110.108704 -49.298302 0.000000
-316.291382 110.108704 -49.298302 0.000000
-302.808105 110.108704 -49.298302 -0.000572
-289.324799 110.108704 -49.298302 0.001248
-275.841492 110.108704 -49.298302 0.008965
-262.358185 110.108704 -49.298302 0.022002
-248.874893 110.108704 -49.298302 0.038691
-235.391602 110.108704 -49.298302 0.061115
-221.908295 110.108704 -49.298302 0.099033
-208.424988 110.108704 -49.298302 0.143765
-194.941696 110.108704 -49.298302 0.228392
-181.458389 110.108704 -49.298302 0.321822
-167.975098 110.108704 -49.298302 0.374332
-154.491791 110.108704 -49.298302 0.456468
-141.008499 110.108704 -49.298302 0.462504
-127.525192 110.108704 -49.298302 0.439725
-114.041885 110.108704 -49.298302 0.392848
-100.558594 110.108704 -49.298302 0.296073
-87.075287 110.108704 -49.298302 0.218713
-73.591980 110.108704 -49.298302 0.125744
-60.108704 110.108704 -49.298302 0.055283
-46.625397 110.108704 -49.298302 -0.002734
-33.142090 110.108704 -49.298302 -0.053045
-19.658783 110.108704 -49.298302 -0.091654
-6.175476 110.108704 -49.298302 -0.108943
7.307800 110.108704 -49.298302 -0.117725
20.791107 110.108704 -49.298302 -0.139683
34.274414 110.108704 -49.298302 -0.149205
47.757721 110.108704 -49.298302 -0.153792
61.240997 110.108704 -49.298302 -0.140583
74.724304 110.108704 -49.298302 -0.127712
88.207611 110.108704 -49.298302 -0.091938
101.690918 110.108704 -49.298302 -0.080979
115.174225 110.108704 -49.298302 -0.056076
128.657501 110.108704 -49.298302 -0.040378
142.140808 110.108704 -49.298302 -0.024699
155.624115 110.108704 -49.298302 -0.019537
169.107422 110.108704 -49.298302 -0.015079
182.590698 110.108704 -49.298302 -0.010551
196.074036 110.108704 -49.298302 -0.005955
209.557312 110.108704 -49.298302 -0.003318
223.040588 110.108704 -49.298302 -0.003637
236.523926 110.108704 -49.298302 -0.001776
250.007202 110.108704 -49.298302 -0.001722
263.490540 110.108704 -49.298302 -0.001904
276.973816 110.108704 -49.298302 -0.001841
290.457092 110.108704 -49.298302 -0.000987
303.940430 110.108704 -49.298302 -0.000435
317.423706 110.108704 -49.298302 0.000000
330.907043 110.108704 -49.298302 0.000000
344.390320 110.108704 -49.298302 0.000000
-343.257996 96.625397 -49.298302 0.000000
-329.774689 96.625397 -49.298302 0.000000
-316.291382 96.625397 -49.298302 0.000000
-302.808105 96.625397 -49.298302 0.000042
-289.324799 96.625397 -49.298302 0.003573
-275.841492 96.625397 -49.298302 0.009529
-262.358185 96.625397 -49.298302 0.023106
-248.874893 96.625397 -49.298302 0.047225
-235.391602 96.625397 -49.298302 0.074795
-221.908295 96.625397 -49.298302 0.125376
-208.424988 96.625397 -49.298302 0.160256
-194.941696 96.625397 -49.298302 0.263107
-181.458389 96.625397 -49.298302 0.331298
-167.975098 96.625397 -49.298302 0.438591
-154.491791 96.625397 -49.298302 0.509493
-141.008499 96.625397 -49.298302 0.521760
-127.525192 96.625397 -49.298302 0.467090
-114.041885 96.625397 -49.298302 0.355574
-100.558594 96.625397 -49.298302 0.265864
-87.075287 96.625397 -49.298302 0.180066
-73.591980 96.625397 -49.298302 0.107437
-60.108704 96.625397 -49.298302 0.038541
-46.625397 96.625397 -49.298302 -0.026426
-33.142090 96.625397 -49.298302 -0.073465
-19.658783 96.625397 -49.298302 -0.097834
-6.175476 96.625397 -49.298302 -0.116636
7.307800 96.625397 -49.298302 -0.130061
20.791107 96.625397 -49.298302 -0.149717
34.274414 96.625397 -49.298302 -0.141402
47.757721 96.625397 -49.298302 -0.159773
61.240997 96.625397 -49.298302 -0.120141
74.724304 96.625397 -49.298302 -0.094647
88.207611 96.625397 -49.298302 -0.070795
101.690918 96.625397 -49.298302 -0.057152
115.174225 96.625397 -49.298302 -0.038824
128.657501 96.625397 -49.298302 -0.027658
142.140808 96.625397 -49.298302 -0.019106
155.624115 96.625397 -49.298302 -0.014265
169.107422 96.625397 -49.298302 -0.010564
182.590698 96.625397 -49.298302 -0.006655
196.074036 96.625397 -49.298302 -0.005042
209.557312 96.625397 -49.298302 -0.002943
223.040588 96.625397 -49.298302 -0.002021
236.523926 96.625397 -49.298302 -0.001361
250.007202 96.625397 -49.298302 -0.001970
263.490540 96.625397 -49.298302 -0.001869
276.973816 96.625397 -49.298302 -0.001391
290.457092 96.625397 -49.298302 -0.000595
303.940430 96.625397 -49.298302 -0.000396
317.423706 96.625397 -49.298302 0.000000
330.907043 96.625397 -49.298302 0.000000
344.390320 96.625397 -49.298302 0.000000
-343.257996 83.142090 -49.298302 0.000000
-329.774689 83.142090 -49.298302 0.000000
-316.291382 83.142090 -49.298302 0.000000
-302.808105 83.142090 -49.298302 0.000599
-289.324799 83.142090 -49.298302 0.006504
-275.841492 83.142090 -49.298302 0.014714
-262.358185 83.142090 -49.298302 0.031354
-248.874893 83.142090 -49.298302 0.051245
-235.391602 83.142090 -49.298302 0.088972
-221.908295 83.142090 -49.298302 0.137556
-208.424988 83.142090 -49.298302 0.189877
-194.941696 83.142090 -49.298302 0.282061
-181.458389 83.142090 -49.298302 0.395499
-167.975098 83.142090 -49.298302 0.535937
-154.491791 83.142090 -49.298302 0.547487
-141.008499 83.142090 -49.298302 0.536658
-127.525192 83.142090 -49.298302 0.458707
-114.041885 83.142090 -49.298302 0.330039
-100.558594 83.142090 -49.298302 0.242379
-87.075287 83.142090 -49.298302 0.158066
-73.591980 83.142090 -49.298302 0.093023
-60.108704 83.142090 -49.298302 0.008628
-46.625397 83.142090 -49.298302 -0.049805
-33.142090 83.142090 -49.298302 -0.074097
-19.658783 83.142090 -49.298302 -0.088569
-6.175476 83.142090 -49.298302 -0.110858
7.307800 83.142090 -49.298302 -0.141060
20.791107 83.142090 -49.298302 -0.178021
34.274414 83.142090 -49.298302 -0.177794
47.757721 83.142090 -49.298302 -0.156257
61.240997 83.142090 -49.298302 -0.138611
74.724304 83.142090 -49.298302 -0.088751
88.207611 83.142090 -49.298302 -0.063560
101.690918 83.142090 -49.298302 -0.050130
115.174225 83.142090 -49.298302 -0.037722
128.657501 83.142090 -49.298302 -0.028648
142.140808 83.142090 -49.298302 -0.018461
155.624115 83.142090 -49.298302 -0.014370
169.107422 83.142090 -49.298302 -0.008693
182.590698 83.142090 -49.298302 -0.006206
196.074036 83.142090 -49.298302 -0.002896
209.557312 83.142090 -49.298302 -0.002373
223.040588 83.142090 -49.298302 -0.001815
236.523926 83.142090 -49.298302 -0.001237
250.007202 83.142090 -49.298302 -0.001570
263.490540 83.142090 -49.298302 -0.001305
276.973816 83.142090 -49.298302 -0.001155
290.457092 83.142090 -49.298302 -0.000571
303.940430 83.142090 -49.298302 -0.000193
317.423706 83.142090 -49.298302 0.000000
330.907043 83.142090 -49.298302 0.000000
344.390320 83.142090 -49.298302 0.000000
-343.257996 69.658783 -49.298302 0.000000
-329.774689 69.658783 -49.298302 0.000000
-316.291382 69.658783 -49.298302 0.000000
-302.808105 69.658783 -49.298302 0.002898
-289.324799 69.658783 -49.298302 0.007741
-275.841492 69.658783 -49.298302 0.018094
-262.358185 69.658783 -49.298302 0.035264
-248.874893 69.658783 -49.298302 0.067119
-235.391602 69.658783 -49.298302 0.108997
-221.908295 69.658783 -49.298302 0.150835
-208.424988 69.658783 -49.298302 0.236218
-194.941696 69.658783 -49.298302 0.311659
-181.458389 69.658783 -49.298302 0.471225
-167.975098 69.658783 -49.298302 0.577753
-154.491791 69.658783 -49.298302 0.613431
-141.008499 69.658783 -49.298302 0.544305
-127.525192 69.658783 -49.298302 0.447949
-114.041885 69.658783 -49.298302 0.335578
-100.558594 69.658783 -49.298302 0.227081
-87.075287 69.658783 -49.298302 0.134031
-73.591980 69.658783 -49.298302 0.047269
-60.108704 69.658783 -49.298302 -0.010684
-46.625397 69.658783 -49.298302 -0.060093
-33.142090 69.658783 -49.298302 -0.081150
-19.658783 69.658783 -49.298302 -0.093921
-6.175476 69.658783 -49.298302 -0.120024
7.307800 69.658783 -49.298302 -0.169436
20.791107 69.658783 -49.298302 -0.191391
34.274414 69.658783 -49.298302 -0.205651
47.757721 69.658783 -49.298302 -0.187017
61.240997 69.658783 -49.298302 -0.156849
74.724304 69.658783 -49.298302 -0.100418
88.207611 69.658783 -49.298302 -0.067471
101.690918 69.658783 -49.298302 -0.047255
115.174225 69.658783 -49.298302 -0.037352
128.657501 69.658783 -49.298302 -0.023039
142.140808 69.658783 -49.298302 -0.017528
155.624115 69.658783 -49.298302 -0.012960
169.107422 69.658783 -49.298302 -0.009269
182.590698 69.658783 -49.298302 -0.006649
196.074036 69.658783 -49.298302 -0.003728
209.557312 69.658783 -49.298302 -0.002412
223.040588 69.658783 -49.298302 -0.001511
236.523926 69.658783 -49.298302 -0.001242
250.007202 69.658783 -49.298302 -0.000964
263.490540 69.658783 -49.298302 -0.000848
276.973816 69.658783 -49.298302 -0.000610
290.457092 69.658783 -49.298302 -0.000504
303.940430 69.658783 -49.298302 -0.000103
317.423706 69.658783 -49.298302 0.000000
330.907043 69.658783 -49.298302 0.000000
344.390320 69.658783 -49.298302 0.000000
-343.257996 56.175476 -49.298302 0.000000
-329.774689 56.175476 -49.298302 0.000000
-316.291382 56.175476 -49.298302 0.000000
-302.808105 56.175476 -49.298302 0.003856
-289.324799 56.175476 -49.298302 0.009414
-275.841492 56.175476 -49.298302 0.025180
-262.358185 56.175476 -49.298302 0.044745
-248.874893 56.175476 -49.298302 0.080759
-235.391602 56.175476 -49.298302 0.131768
-221.908295 56.175476 -49.298302 0.186030
-208.424988 56.175476 -49.298302 0.269469
-194.941696 56.175476 -49.298302 0.376267
-181.458389 56.175476 -49.298302 0.495802
-167.975098 56.175476 -49.298302 0.601384
-154.491791 56.175476 -49.298302 0.621284
-141.008499 56.175476 -49.298302 0.554336
-127.525192 56.175476 -49.298302 0.429552
-114.041885 56.175476 -49.298302 0.270138
-100.558594 56.175476 -49.298302 0.171895
-87.075287 56.175476 -49.298302 0.089982
-73.591980 56.175476 -49.298302 0.030720
-60.108704 56.175476 -49.298302 -0.006854
-46.625397 56.175476 -49.298302 -0.055954
-33.142090 56.175476 -49.298302 -0.080697
-19.658783 56.175476 -49.298302 -0.100036
-6.175476 56.175476 -49.298302 -0.130617
7.307800 56.175476 -49.298302 -0.172813
20.791107 56.175476 -49.298302 -0.214278
34.274414 56.175476 -49.298302 -0.245756
47.757721 56.175476 -49.298302 -0.221973
61.240997 56.175476 -49.298302 -0.188258
74.724304 56.175476 -49.298302 -0.125301
88.207611 56.175476 -49.298302 -0.082098
101.690918 56.175476 -49.298302 -0.052467
115.174225 56.175476 -49.298302 -0.045913
128.657501 56.175476 -49.298302 -0.029566
142.140808 56.175476 -49.298302 -0.021677
155.624115 56.175476 -49.298302 -0.017245
169.107422 56.175476 -49.298302 -0.010574
182.590698 56.175476 -49.298302 -0.006896
196.074036 56.175476 -49.298302 -0.005416
209.557312 56.175476 -49.298302 -0.003044
223.040588 56.175476 -49.298302 -0.001619
236.523926 56.175476 -49.298302 -0.001151
250.007202 56.175476 -49.298302 -0.000904
263.490540 56.175476 -49.298302 -0.000943
276.973816 56.175476 -49.298302 -0.000523
290.457092 56.175476 -49.298302 -0.000167
303.940430 56.175476 -49.298302 0.000126
317.423706 56.175476 -49.298302 0.000000
330.907043 56.175476 -49.298302 0.000000
344.390320 56.175476 -49.298302 0.000000
-343.257996 42.692200 -49.298302 0.000000
-329.774689 42.692200 -49.298302 0.000000
-316.291382 42.692200 -49.298302 0.000000
-302.808105 42.692200 -49.298302 0.005422
-289.324799 42.692200 -49.298302 0.010112
-275.841492 42.692200 -49.298302 0.030105
-262.358185 42.692200 -49.298302 0.051381
-248.874893 42.692200 -49.298302 0.092134
-235.391602 42.692200 -49.298302 0.137949
-221.908295 42.692200 -49.298302 0.201296
-208.424988 42.692200 -49.298302 0.305517
-194.941696 42.692200 -49.298302 0.419582
-181.458389 42.692200 -49.298302 0.540819
-167.975098 42.692200 -49.298302 0.583619
-154.491791 42.692200 -49.298302 0.623108
-141.008499 42.692200 -49.298302 0.512442
-127.525192 42.692200 -49.298302 0.349595
-114.041885 42.692200 -49.298302 0.221694
-100.558594 42.692200 -49.298302 0.153733
-87.075287 42.692200 -49.298302 0.074997
-73.591980 42.692200 -49.298302 0.020617
-60.108704 42.692200 -49.298302 -0.021501
-46.625397 42.692200 -49.298302 -0.062551
-33.142090 42.692200 -49.298302 -0.085090
-19.658783 42.692200 -49.298302 -0.092785
-6.175476 42.692200 -49.298302 -0.132829
7.307800 42.692200 -49.298302 -0.177926
20.791107 42.692200 -49.298302 -0.219683
34.274414 42.692200 -49.298302 -0.269739
47.757721 42.692200 -49.298302 -0.266882
61.240997 42.692200 -49.298302 -0.222538
74.724304 42.692200 -49.298302 -0.156148
88.207611 42.692200 -49.298302 -0.115342
101.690918 42.692200 -49.298302 -0.077902
115.174225 42.692200 -49.298302 -0.062858
128.657501 42.692200 -49.298302 -0.046684
142.140808 42.692200 -49.298302 -0.036219
155.624115 42.692200 -49.298302 -0.025622
169.107422 42.692200 -49.298302 -0.015933
182.590698 42.692200 -49.298302 -0.008968
196.074036 42.692200 -49.298302 -0.005363
209.557312 42.692200 -49.298302 -0.002502
223.040588 42.692200 -49.298302 -0.000892
236.523926 42.692200 -49.298302 -0.000590
250.007202 42.692200 -49.298302 -0.000344
263.490540 42.692200 -49.298302 -0.000278
276.973816 42.692200 -49.298302 -0.000513
290.457092 42.692200 -49.298302 -0.000006
303.940430 42.692200 -49.298302 0.000000
317.423706 42.692200 -49.298302 0.000000
330.907043 42.692200 -49.298302 0.000000
344.390320 42.692200 -49.298302 0.000000
-343.257996 29.208893 -49.298302 0.000000
-329.774689 29.208893 -49.298302 0.000000
-316.291382 29.208893 -49.298302 0.000000
-302.808105 29.208893 -49.298302 0.006439
-289.324799 29.208893 -49.298302 0.014020
-275.841492 29.208893 -49.298302 0.033753
-262.358185 29.208893 -49.298302 0.058616
-248.874893 29.208893 -49.298302 0.106357
-235.391602 29.208893 -49.298302 0.156529
-221.908295 29.208893 -49.298302 0.241742
-208.424988 29.208893 -49.298302 0.341373
-194.941696 29.208893 -49.298302 0.471840
-181.458389 29.208893 -49.298302 0.572150
-167.975098 29.208893 -49.298302 0.582448
-154.491791 29.208893 -49.298302 0.519647
-141.008499 29.208893 -49.298302 0.428535
-127.525192 29.208893 -49.298302 0.275010
-114.041885 29.208893 -49.298302 0.173321
-100.558594 29.208893 -49.298302 0.110566
-87.075287 29.208893 -49.298302 0.041680
-73.591980 29.208893 -49.298302 0.002826
-60.108704 29.208893 -49.298302 -0.029821
-46.625397 29.208893 -49.298302 -0.050391
-33.142090 29.208893 -49.298302 -0.087419
-19.658783 29.208893 -49.298302 -0.110856
-6.175476 29.208893 -49.298302 -0.155903
7.307800 29.208893 -49.298302 -0.193316
20.791107 29.208893 -49.298302 -0.239944
34.274414 29.208893 -49.298302 -0.282058
47.757721 29.208893 -49.298302 -0.280911
61.240997 29.208893 -49.298302 -0.253940
74.724304 29.208893 -49.298302 -0.183535
88.207611 29.208893 -49.298302 -0.142616
101.690918 29.208893 -49.298302 -0.107316
115.174225 29.208893 -49.298302 -0.086194
128.657501 29.208893 -49.298302 -0.069644
142.140808 29.208893 -49.298302 -0.062870
155.624115 29.208893 -49.298302 -0.043313
169.107422 29.208893 -49.298302 -0.024895
182.590698 29.208893 -49.298302 -0.014342
196.074036 29.208893 -49.298302 -0.007563
209.557312 29.208893 -49.298302 -0.004802
223.040588 29.208893 -49.298302 -0.000491
236.523926 29.208893 -49.298302 -0.000099
250.007202 29.208893 -49.298302 -0.000092
263.490540 29.208893 -49.298302 -0.000480
276.973816 29.208893 -49.298302 -0.000328
290.457092 29.208893 -49.298302 0.000156
303.940430 29.208893 -49.298302 0.000000
317.423706 29.208893 -49.298302 0.000000
330.907043 29.208893 -49.298302 0.000000
344.390320 29.208893 -49.298302 0.000000
-343.257996 15.725586 -49.298302 0.000000
-329.774689 15.725586 -49.298302 0.000000
-316.291382 15.725586 -49.298302 0.000000
-302.808105 15.725586 -49.298302 0.008444
-289.324799 15.725586 -49.298302 0.015825
-275.841492 15.725586 -49.298302 0.037336
-262.358185 15.725586 -49.298302 0.064973
-248.874893 15.725586 -49.298302 0.103906
-235.391602 15.725586 -49.298302 0.178318
-221.908295 15.725586 -49.298302 0.270679
-208.424988 15.725586 -49.298302 0.354385
-194.941696 15.725586 -49.298302 0.471655
-181.458389 15.725586 -49.298302 0.560293
-167.975098 15.725586 -49.298302 0.535102
-154.491791 15.725586 -49.298302 0.437456
-141.008499 15.725586 -49.298302 0.323477
-127.525192 15.725586 -49.298302 0.224251
-114.041885 15.725586 -49.298302 0.151986
-100.558594 15.725586 -49.298302 0.090899
-87.075287 15.725586 -49.298302 0.033366
-73.591980 15.725586 -49.298302 -0.004796
-60.108704 15.725586 -49.298302 -0.038673
-46.625397 15.725586 -49.298302 -0.055071
-33.142090 15.725586 -49.298302 -0.080574
-19.658783 15.725586 -49.298302 -0.119164
-6.175476 15.725586 -49.298302 -0.150215
7.307800 15.725586 -49.298302 -0.202721
20.791107 15.725586 -49.298302 -0.251203
34.274414 15.725586 -49.298302 -0.297390
47.757721 15.725586 -49.298302 -0.291058
61.240997 15.725586 -49.298302 -0.257163
74.724304 15.725586 -49.298302 -0.193348
88.207611 15.725586 -49.298302 -0.136798
101.690918 15.725586 -49.298302 -0.104786
115.174225 15.725586 -49.298302 -0.094981
128.657501 15.725586 -49.298302 -0.081616
142.140808 15.725586 -49.298302 -0.078219
155.624115 15.725586 -49.298302 -0.058127
169.107422 15.725586 -49.298302 -0.037449
182.590698 15.725586 -49.298302 -0.021769
196.074036 15.725586 -49.298302 -0.010861
209.557312 15.725586 -49.298302 -0.005986
223.040588 15.725586 -49.298302 -0.002346
236.523926 15.725586 -49.298302 -0.000865
250.007202 15.725586 -49.298302 -0.000026
263.490540 15.725586 -49.298302 -0.000026
276.973816 15.725586 -49.298302 -0.000249
290.457092 15.725586 -49.298302 0.000249
303.940430 15.725586 -49.298302 0.000000
317.423706 15.725586 -49.298302 0.000000
330.907043 15.725586 -49.298302 0.000000
344.390320 15.725586 -49.298302 0.000000
-343.257996 2.242279 -49.298302 0.000000
-329.774689 2.242279 -49.298302 0.000000
-316.291382 2.242279 -49.298302 0.000000
-302.808105 2.242279 -49.298302 0.007739
-289.324799 2.242279 -49.298302 0.017590
-275.841492 2.242279 -49.298302 0.041805
-262.358185 2.242279 -49.298302 0.072494
-248.874893 2.242279 -49.298302 0.123760
-235.391602 2.242279 -49.298302 0.195512
-221.908295 2.242279 -49.298302 0.273059
-208.424988 2.242279 -49.298302 0.352550
-194.941696 2.242279 -49.298302 0.441728
-181.458389 2.242279 -49.298302 0.512717
-167.975098 2.242279 -49.298302 0.476212
-154.491791 2.242279 -49.298302 0.390510
-141.008499 2.242279 -49.298302 0.266345
-127.525192 2.242279 -49.298302 0.165623
-114.041885 2.242279 -49.298302 0.106340
-100.558594 2.242279 -49.298302 0.060730
-87.075287 2.242279 -49.298302 0.029961
-73.591980 2.242279 -49.298302 -0.003474
-60.108704 2.242279 -49.298302 -0.026976
-46.625397 2.242279 -49.298302 -0.056400
-33.142090 2.242279 -49.298302 -0.075727
-19.658783 2.242279 -49.298302 -0.121170
-6.175476 2.242279 -49.298302 -0.167791
7.307800 2.242279 -49.298302 -0.227662
20.791107 2.242279 -49.298302 -0.259031
34.274414 2.242279 -49.298302 -0.316250
47.757721 2.242279 -49.298302 -0.310569
61.240997 2.242279 -49.298302 -0.251096
74.724304 2.242279 -49.298302 -0.201553
88.207611 2.242279 -49.298302 -0.137283
101.690918 2.242279 -49.298302 -0.088734
115.174225 2.242279 -49.298302 -0.073096
128.657501 2.242279 -49.298302 -0.070758
142.140808 2.242279 -49.298302 -0.065269
155.624115 2.242279 -49.298302 -0.061420
169.107422 2.242279 -49.298302 -0.044521
182.590698 2.242279 -49.298302 -0.028319
196.074036 2.242279 -49.298302 -0.013715
209.557312 2.242279 -49.298302 -0.006452
223.040588 2.242279 -49.298302 -0.002367
236.523926 2.242279 -49.298302 0.000114
250.007202 2.242279 -49.298302 0.000244
263.490540 2.242279 -49.298302 -0.000138
276.973816 2.242279 -49.298302 -0.000227
290.457092 2.242279 -49.298302 -0.000409
303.940430 2.242279 -49.298302 0.000000
317.423706 2.242279 -49.298302 0.000000
330.907043 2.242279 -49.298302 0.000000
344.390320 2.242279 -49.298302 0.000000
-343.257996 -11.240997 -49.298302 0.000000
-329.774689 -11.240997 -49.298302 0.000000
-316.291382 -11.240997 -49.298302 0.000000
-302.808105 -11.240997 -49.298302 0.005045
-289.324799 -11.240997 -49.298302 0.014490
-275.841492 -11.240997 -49.298302 0.038424
-262.358185 -11.240997 -49.298302 0.069769
-248.874893 -11.240997 -49.298302 0.114250
-235.391602 -11.240997 -49.298302 0.187093
-221.908295 -11.240997 -49.298302 0.261060
-208.424988 -11.240997 -49.298302 0.350314
-194.941696 -11.240997 -49.298302 0.433985
-181.458389 -11.240997 -49.298302 0.443361
-167.975098 -11.240997 -49.298302 0.394256
-154.491791 -11.240997 -49.298302 0.329945
-141.008499 -11.240997 -49.298302 0.234692
-127.525192 -11.240997 -49.298302 0.151767
-114.041885 -11.240997 -49.298302 0.097603
-100.558594 -11.240997 -49.298302 0.060925
-87.075287 -11.240997 -49.298302 0.032085
-73.591980 -11.240997 -49.298302 -0.003706
-60.108704 -11.240997 -49.298302 -0.033544
-46.625397 -11.240997 -49.298302 -0.057174
-33.142090 -11.240997 -49.298302 -0.078383
-19.658783 -11.240997 -49.298302 -0.118108
-6.175476 -11.240997 -49.298302 -0.162031
7.307800 -11.240997 -49.298302 -0.222305
20.791107 -11.240997 -49.298302 -0.274274
34.274414 -11.240997 -49.298302 -0.312910
47.757721 -11.240997 -49.298302 -0.281170
61.240997 -11.240997 -49.298302 -0.224704
74.724304 -11.240997 -49.298302 -0.164340
88.207611 -11.240997 -49.298302 -0.111811
101.690918 -11.240997 -49.298302 -0.065370
115.174225 -11.240997 -49.298302 -0.054431
128.657501 -11.240997 -49.298302 -0.059533
142.140808 -11.240997 -49.298302 -0.050528
155.624115 -11.240997 -49.298302 -0.051710
169.107422 -11.240997 -49.298302 -0.044968
182.590698 -11.240997 -49.298302 -0.028323
196.074036 -11.240997 -49.298302 -0.016653
209.557312 -11.240997 -49.298302 -0.005574
223.040588 -11.240997 -49.298302 -0.000761
236.523926 -11.240997 -49.298302 0.001632
250.007202 -11.240997 -49.298302 0.001165
263.490540 -11.240997 -49.298302 0.000429
276.973816 -11.240997 -49.298302 -0.000180
290.457092 -11.240997 -49.298302 0.000411
303.940430 -11.240997 -49.298302 0.000000
317.423706 -11.240997 -49.298302 0.000000
330.907043 -11.240997 -49.298302 0.000000
344.390320 -11.240997 -49.298302 0.000000
-343.257996 -24.724304 -49.298302 0.000000
-329.774689 -24.724304 -49.298302 0.000000
-316.291382 -24.724304 -49.298302 0.000000
-302.808105 -24.724304 -49.298302 0.001718
-289.324799 -24.724304 -49.298302 0.013781
-275.841492 -24.724304 -49.298302 0.027001
-262.358185 -24.724304 -49.298302 0.064684
-248.874893 -24.724304 -49.298302 0.094721
-235.391602 -24.724304 -49.298302 0.186987
-221.908295 -24.724304 -49.298302 0.289151
-208.424988 -24.724304 -49.298302 0.322175
-194.941696 -24.724304 -49.298302 0.413212
-181.458389 -24.724304 -49.298302 0.401339
-167.975098 -24.724304 -49.298302 0.320078
-154.491791 -24.724304 -49.298302 0.279961
-141.008499 -24.724304 -49.298302 0.172726
-127.525192 -24.724304 -49.298302 0.115779
-114.041885 -24.724304 -49.298302 0.072746
-100.558594 -24.724304 -49.298302 0.056745
-87.075287 -24.724304 -49.298302 0.028341
-73.591980 -24.724304 -49.298302 -0.009127
-60.108704 -24.724304 -49.298302 -0.045126
-46.625397 -24.724304 -49.298302 -0.075455
-33.142090 -24.724304 -49.298302 -0.100287
-19.658783 -24.724304 -49.298302 -0.144150
-6.175476 -24.724304 -49.298302 -0.167351
7.307800 -24.724304 -49.298302 -0.235720
20.791107 -24.724304 -49.298302 -0.275929
34.274414 -24.724304 -49.298302 -0.296933
47.757721 -24.724304 -49.298302 -0.245643
61.240997 -24.724304 -49.298302 -0.186710
74.724304 -24.724304 -49.298302 -0.118619
88.207611 -24.724304 -49.298302 -0.077583
101.690918 -24.724304 -49.298302 -0.037363
115.174225 -24.724304 -49.298302 -0.032395
128.657501 -24.724304 -49.298302 -0.039843
142.140808 -24.724304 -49.298302 -0.038996
155.624115 -24.724304 -49.298302 -0.039518
169.107422 -24.724304 -49.298302 -0.041260
182.590698 -24.724304 -49.298302 -0.032458
196.074036 -24.724304 -49.298302 -0.015929
209.557312 -24.724304 -49.298302 -0.005954
223.040588 -24.724304 -49.298302 0.000197
236.523926 -24.724304 -49.298302 0.001916
250.007202 -24.724304 -49.298302 0.001390
263.490540 -24.724304 -49.298302 0.001331
276.973816 -24.724304 -49.298302 0.000338
290.457092 -24.724304 -49.298302 0.000452
303.940430 -24.724304 -49.298302 0.000000
317.423706 -24.724304 -49.298302 0.000000
330.907043 -24.724304 -49.298302 0.000000
344.390320 -24.724304 -49.298302 0.000000
-343.257996 -38.207611 -49.298302 0.000000
-329.774689 -38.207611 -49.298302 0.000000
-316.291382 -38.207611 -49.298302 0.000000
-302.808105 -38.207611 -49.298302 -0.000504
-289.324799 -38.207611 -49.298302 0.016358
-275.841492 -38.207611 -49.298302 0.031699
-262.358185 -38.207611 -49.298302 0.072037
-248.874893 -38.207611 -49.298302 0.135040
-235.391602 -38.207611 -49.298302 0.224624
-221.908295 -38.207611 -49.298302 0.273587
-208.424988 -38.207611 -49.298302 0.336276
-194.941696 -38.207611 -49.298302 0.356116
-181.458389 -38.207611 -49.298302 0.364635
-167.975098 -38.207611 -49.298302 0.289098
-154.491791 -38.207611 -49.298302 0.234704
-141.008499 -38.207611 -49.298302 0.156670
-127.525192 -38.207611 -49.298302 0.111433
-114.041885 -38.207611 -49.298302 0.059062
-100.558594 -38.207611 -49.298302 0.052375
-87.075287 -38.207611 -49.298302 0.008239
-73.591980 -38.207611 -49.298302 -0.026485
-60.108704 -38.207611 -49.298302 -0.058083
-46.625397 -38.207611 -49.298302 -0.084457
-33.142090 -38.207611 -49.298302 -0.116919
-19.658783 -38.207611 -49.298302 -0.156845
-6.175476 -38.207611 -49.298302 -0.201404
7.307800 -38.207611 -49.298302 -0.249234
20.791107 -38.207611 -49.298302 -0.282118
34.274414 -38.207611 -49.298302 -0.269116
47.757721 -38.207611 -49.298302 -0.205363
61.240997 -38.207611 -49.298302 -0.138999
74.724304 -38.207611 -49.298302 -0.078230
88.207611 -38.207611 -49.298302 -0.050887
101.690918 -38.207611 -49.298302 -0.024169
115.174225 -38.207611 -49.298302 -0.021951
128.657501 -38.207611 -49.298302 -0.028521
142.140808 -38.207611 -49.298302 -0.033748
155.624115 -38.207611 -49.298302 -0.039584
169.107422 -38.207611 -49.298302 -0.042227
182.590698 -38.207611 -49.298302 -0.036708
196.074036 -38.207611 -49.298302 -0.017050
209.557312 -38.207611 -49.298302 -0.008543
223.040588 -38.207611 -49.298302 -0.000525
236.523926 -38.207611 -49.298302 0.001454
250.007202 -38.207611 -49.298302 0.002770
263.490540 -38.207611 -49.298302 0.002214
276.973816 -38.207611 -49.298302 0.001950
290.457092 -38.207611 -49.298302 0.001203
303.940430 -38.207611 -49.298302 0.000000
317.423706 -38.207611 -49.298302 0.000000
330.907043 -38.207611 -49.298302 0.000000
344.390320 -38.207611 -49.298302 0.000000
-343.257996 -51.690918 -49.298302 0.000000
-329.774689 -51.690918 -49.298302 0.000000
-316.291382 -51.690918 -49.298302 0.000000
-302.808105 -51.690918 -49.298302 0.000000
-289.324799 -51.690918 -49.298302 0.008087
-275.841492 -51.690918 -49.298302 0.000000
-262.358185 -51.690918 -49.298302 0.000000
-248.874893 -51.690918 -49.298302 0.000000
-235.391602 -51.690918 -49.298302 0.000000
-221.908295 -51.690918 -49.298302 0.000000
-208.424988 -51.690918 -49.298302 0.330410
-194.941696 -51.690918 -49.298302 0.000000
-181.458389 -51.690918 -49.298302 0.334064
-167.975098 -51.690918 -49.298302 0.249866
-154.491791 -51.690918 -49.298302 0.196614
-141.008499 -51.690918 -49.298302 0.130683
-127.525192 -51.690918 -49.298302 0.086058
-114.041885 -51.690918 -49.298302 0.045132
-100.558594 -51.690918 -49.298302 0.016942
-87.075287 -51.690918 -49.298302 -0.015919
-73.591980 -51.690918 -49.298302 0.000000
-60.108704 -51.690918 -49.298302 -0.060790
-46.625397 -51.690918 -49.298302 -0.099588
-33.142090 -51.690918 -49.298302 -0.143264
-19.658783 -51.690918 -49.298302 -0.180854
-6.175476 -51.690918 -49.298302 -0.222458
7.307800 -51.690918 -49.298302 -0.252901
20.791107 -51.690918 -49.298302 -0.253497
34.274414 -51.690918 -49.298302 -0.218058
47.757721 -51.690918 -49.298302 -0.162697
61.240997 -51.690918 -49.298302 -0.092010
74.724304 -51.690918 -49.298302 -0.056466
88.207611 -51.690918 -49.298302 -0.036080
101.690918 -51.690918 -49.298302 -0.022616
115.174225 -51.690918 -49.298302 -0.019537
128.657501 -51.690918 -49.298302 -0.024894
142.140808 -51.690918 -49.298302 -0.025182
155.624115 -51.690918 -49.298302 -0.037371
169.107422 -51.690918 -49.298302 -0.046091
182.590698 -51.690918 -49.298302 -0.040065
196.074036 -51.690918 -49.298302 -0.026390
209.557312 -51.690918 -49.298302 -0.011634
223.040588 -51.690918 -49.298302 -0.002971
236.523926 -51.690918 -49.298302 0.000648
250.007202 -51.690918 -49.298302 0.001866
263.490540 -51.690918 -49.298302 0.002197
276.973816 -51.690918 -49.298302 0.002250
290.457092 -51.690918 -49.298302 0.001585
303.940430 -51.690918 -49.298302 0.000000
317.423706 -51.690918 -49.298302 0.000000
330.907043 -51.690918 -49.298302 0.000000
344.390320 -51.690918 -49.298302 0.000000
-343.257996 -65.174225 -49.298302 0.000000
-329.774689 -65.174225 -49.298302 0.000000
-316.291382 -65.174225 -49.298302 0.000000
-302.808105 -65.174225 -49.298302 0.000000
-289.324799 -65.174225 -49.298302 0.000000
-275.841492 -65.174225 -49.298302 0.000000
-262.358185 -65.174225 -49.298302 0.000000
-248.874893 -65.174225 -49.298302 0.000000
-235.391602 -65.174225 -49.298302 0.000000
-221.908295 -65.174225 -49.298302 0.265860
-208.424988 -65.174225 -49.298302 0.000000
-194.941696 -65.174225 -49.298302 0.000000
-181.458389 -65.174225 -49.298302 0.262552
-167.975098 -65.174225 -49.298302 0.211807
-154.491791 -65.174225 -49.298302 0.152959
-141.008499 -65.174225 -49.298302 0.145074
-127.525192 -65.174225 -49.298302 0.062850
-114.041885 -65.174225 -49.298302 0.058695
-100.558594 -65.174225 -49.298302 -0.002462
-87.075287 -65.174225 -49.298302 -0.040987
-73.591980 -65.174225 -49.298302 -0.065806
-60.108704 -65.174225 -49.298302 -0.077511
-46.625397 -65.174225 -49.298302 -0.111884
-33.142090 -65.174225 -49.298302 -0.155080
-19.658783 -65.174225 -49.298302 -0.182284
-6.175476 -65.174225 -49.298302 -0.215236
7.307800 -65.174225 -49.298302 -0.233106
20.791107 -65.174225 -49.298302 -0.218994
34.274414 -65.174225 -49.298302 -0.172305
47.757721 -65.174225 -49.298302 -0.124546
61.240997 -65.174225 -49.298302 -0.068522
74.724304 -65.174225 -49.298302 -0.049605
88.207611 -65.174225 -49.298302 -0.028377
101.690918 -65.174225 -49.298302 -0.017256
115.174225 -65.174225 -49.298302 -0.019747
128.657501 -65.174225 -49.298302 -0.016538
142.140808 -65.174225 -49.298302 -0.020220
155.624115 -65.174225 -49.298302 -0.033696
169.107422 -65.174225 -49.298302 -0.038621
182.590698 -65.174225 -49.298302 -0.041126
196.074036 -65.174225 -49.298302 -0.030419
209.557312 -65.174225 -49.298302 -0.018520
223.040588 -65.174225 -49.298302 -0.007272
236.523926 -65.174225 -49.298302 -0.001074
250.007202 -65.174225 -49.298302 0.000301
263.490540 -65.174225 -49.298302 0.001020
276.973816 -65.174225 -49.298302 0.002077
290.457092 -65.174225 -49.298302 0.001008
303.940430 -65.174225 -49.298302 0.000000
317.423706 -65.174225 -49.298302 0.000000
330.907043 -65.174225 -49.298302 0.000000
344.390320 -65.174225 -49.298302 0.000000
-343.257996 -78.657501 -49.298302 0.000000
-329.774689 -78.657501 -49.298302 0.000000
-316.291382 -78.657501 -49.298302 0.000000
-302.808105 -78.657501 -49.298302 0.000000
-289.324799 -78.657501 -49.298302 0.000000
-275.841492 -78.657501 -49.298302 0.000000
-262.358185 -78.657501 -49.298302 0.000000
-248.874893 -78.657501 -49.298302 0.000000
-235.391602 -78.657501 -49.298302 0.000000
-221.908295 -78.657501 -49.298302 0.000000
-208.424988 -78.657501 -49.298302 0.000000
-194.941696 -78.657501 -49.298302 0.000000
-181.458389 -78.657501 -49.298302 0.000000
-167.975098 -78.657501 -49.298302 0.176500
-154.491791 -78.657501 -49.298302 0.158434
-141.008499 -78.657501 -49.298302 0.127934
-127.525192 -78.657501 -49.298302 0.088051
-114.041885 -78.657501 -49.298302 0.000000
-100.558594 -78.657501 -49.298302 0.000000
-87.075287 -78.657501 -49.298302 -0.045658
-73.591980 -78.657501 -49.298302 -0.060575
-60.108704 -78.657501 -49.298302 -0.089144
-46.625397 -78.657501 -49.298302 -0.109713
-33.142090 -78.657501 -49.298302 -0.163113
-19.658783 -78.657501 -49.298302 -0.179228
-6.175476 -78.657501 -49.298302 -0.189275
7.307800 -78.657501 -49.298302 -0.192829
20.791107 -78.657501 -49.298302 -0.164134
34.274414 -78.657501 -49.298302 -0.119548
47.757721 -78.657501 -49.298302 -0.082202
61.240997 -78.657501 -49.298302 -0.049125
74.724304 -78.657501 -49.298302 -0.030301
88.207611 -78.657501 -49.298302 -0.018638
101.690918 -78.657501 -49.298302 -0.012480
115.174225 -78.657501 -49.298302 -0.012489
128.657501 -78.657501 -49.298302 -0.013870
142.140808 -78.657501 -49.298302 -0.017673
155.624115 -78.657501 -49.298302 -0.027107
169.107422 -78.657501 -49.298302 -0.034547
182.590698 -78.657501 -49.298302 -0.041883
196.074036 -78.657501 -49.298302 -0.035245
209.557312 -78.657501 -49.298302 -0.021535
223.040588 -78.657501 -49.298302 -0.012612
236.523926 -78.657501 -49.298302 -0.004779
250.007202 -78.657501 -49.298302 -0.001337
263.490540 -78.657501 -49.298302 0.000523
276.973816 -78.657501 -49.298302 0.001460
290.457092 -78.657501 -49.298302 0.001394
303.940430 -78.657501 -49.298302 0.000000
317.423706 -78.657501 -49.298302 0.000000
330.907043 -78.657501 -49.298302 0.000000
344.390320 -78.657501 -49.298302 0.000000
-343.257996 -92.140808 -49.298302 0.000000
-329.774689 -92.140808 -49.298302 0.000000
-316.291382 -92.140808 -49.298302 0.000000
-302.808105 -92.140808 -49.298302 0.000000
-289.324799 -92.140808 -49.298302 0.000000
-275.841492 -92.140808 -49.298302 0.000000
-262.358185 -92.140808 -49.298302 0.000000
-248.874893 -92.140808 -49.298302 0.000000
-235.391602 -92.140808 -49.298302 0.000000
-221.908295 -92.140808 -49.298302 0.000000
-208.424988 -92.140808 -49.298302 0.000000
-194.941696 -92.140808 -49.298302 0.000000
-181.458389 -92.140808 -49.298302 0.000000
-167.975098 -92.140808 -49.298302 0.000000
-154.491791 -92.140808 -49.298302 0.000000
-141.008499 -92.140808 -49.298302 0.000000
-127.525192 -92.140808 -49.298302 0.000000
-114.041885 -92.140808 -49.298302 0.000000
-100.558594 -92.140808 -49.298302 0.000000
-87.075287 -92.140808 -49.298302 0.000000
-73.591980 -92.140808 -49.298302 -0.060581
-60.108704 -92.140808 -49.298302 -0.081764
-46.625397 -92.140808 -49.298302 -0.092381
-33.142090 -92.140808 -49.298302 -0.124137
-19.658783 -92.140808 -49.298302 -0.148126
-6.175476 -92.140808 -49.298302 -0.151591
7.307800 -92.140808 -49.298302 -0.141284
20.791107 -92.140808 -49.298302 -0.106797
34.274414 -92.140808 -49.298302 -0.070157
47.757721 -92.140808 -49.298302 -0.041358
61.240997 -92.140808 -49.298302 -0.025109
74.724304 -92.140808 -49.298302 -0.017528
88.207611 -92.140808 -49.298302 -0.007968
101.690918 -92.140808 -49.298302 -0.003555
115.174225 -92.140808 -49.298302 -0.008191
128.657501 -92.140808 -49.298302 -0.008927
142.140808 -92.140808 -49.298302 -0.014785
155.624115 -92.140808 -49.298302 -0.020228
169.107422 -92.140808 -49.298302 -0.029799
182.590698 -92.140808 -49.298302 -0.042121
196.074036 -92.140808 -49.298302 -0.039762
209.557312 -92.140808 -49.298302 -0.028036
223.040588 -92.140808 -49.298302 -0.018443
236.523926 -92.140808 -49.298302 -0.010474
250.007202 -92.140808 -49.298302 -0.004503
263.490540 -92.140808 -49.298302 -0.001889
276.973816 -92.140808 -49.298302 -0.000712
290.457092 -92.140808 -49.298302 -0.000208
303.940430 -92.140808 -49.298302 0.000000
317.423706 -92.140808 -49.298302 0.000000
330.907043 -92.140808 -49.298302 0.000000
344.390320 -92.140808 -49.298302 0.000000
-343.257996 -105.624115 -49.298302 0.000000
-329.774689 -105.624115 -49.298302 0.000000
-316.291382 -105.624115 -49.298302 0.000000
-302.808105 -105.624115 -49.298302 0.000000
-289.324799 -105.624115 -49.298302 0.000000
-275.841492 -105.624115 -49.298302 0.000000
-262.358185 -105.624115 -49.298302 0.000000
-248.874893 -105.624115 -49.298302 0.000000
-235.391602 -105.624115 -49.298302 0.000000
-221.908295 -105.624115 -49.298302 0.000000
-208.424988 -105.624115 -49.298302 0.000000
-194.941696 -105.624115 -49.298302 0.000000
-181.458389 -105.624115 -49.298302 0.000000
-167.975098 -105.624115 -49.298302 0.000000
-154.491791 -105.624115 -49.298302 0.000000
-141.008499 -105.624115 -49.298302 0.104897
-127.525192 -105.624115 -49.298302 0.000000
-114.041885 -105.624115 -49.298302 0.034672
-100.558594 -105.624115 -49.298302 0.000000
-87.075287 -105.624115 -49.298302 0.000000
-73.591980 -105.624115 -49.298302 0.000000
-60.108704 -105.624115 -49.298302 0.000000
-46.625397 -105.624115 -49.298302 0.000000
-33.142090 -105.624115 -49.298302 -0.085069
-19.658783 -105.624115 -49.298302 -0.100179
-6.175476 -105.624115 -49.298302 -0.106458
7.307800 -105.624115 -49.298302 -0.078662
20.791107 -105.624115 -49.298302 -0.075146
34.274414 -105.624115 -49.298302 -0.057040
47.757721 -105.624115 -49.298302 -0.029074
61.240997 -105.624115 -49.298302 -0.017868
74.724304 -105.624115 -49.298302 -0.011443
88.207611 -105.624115 -49.298302 -0.006914
101.690918 -105.624115 -49.298302 -0.002331
115.174225 -105.624115 -49.298302 -0.001107
128.657501 -105.624115 -49.298302 -0.002125
142.140808 -105.624115 -49.298302 -0.010584
155.624115 -105.624115 -49.298302 -0.015101
169.107422 -105.624115 -49.298302 -0.021935
182.590698 -105.624115 -49.298302 -0.033817
196.074036 -105.624115 -49.298302 -0.036227
209.557312 -105.624115 -49.298302 -0.035425
223.040588 -105.624115 -49.298302 -0.020754
236.523926 -105.624115 -49.298302 -0.012372
250.007202 -105.624115 -49.298302 -0.005607
263.490540 -105.624115 -49.298302 -0.004429
276.973816 -105.624115 -49.298302 -0.003973
290.457092 -105.624115 -49.298302 -0.001649
303.940430 -105.624115 -49.298302 0.000000
317.423706 -105.624115 -49.298302 0.000000
330.907043 -105.624115 -49.298302 0.000000
344.390320 -105.624115 -49.298302 0.000000
-343.257996 -119.107422 -49.298302 0.000000
-329.774689 -119.107422 -49.298302 0.000000
-316.291382 -119.107422 -49.298302 0.000000
-302.808105 -119.107422 -49.298302 0.000000
-289.324799 -119.107422 -49.298302 0.000000
-275.841492 -119.107422 -49.298302 0.000000
-262.358185 -119.107422 -49.298302 0.000000
-248.874893 -119.107422 -49.298302 0.000000
-235.391602 -119.107422 -49.298302 0.000000
-221.908295 -119.107422 -49.298302 0.000000
-208.424988 -119.107422 -49.298302 0.000000
-194.941696 -119.107422 -49.298302 0.000000
-181.458389 -119.107422 -49.298302 0.000000
-167.975098 -119.107422 -49.298302 0.000000
-154.491791 -119.107422 -49.298302 0.000000
-141.008499 -119.107422 -49.298302 0.000000
-127.525192 -119.107422 -49.298302 0.000000
-114.041885 -119.107422 -49.298302 0.000000
-100.558594 -119.107422 -49.298302 0.000000
-87.075287 -119.107422 -49.298302 0.000000
-73.591980 -119.107422 -49.298302 0.000000
-60.108704 -119.107422 -49.298302 0.000000
-46.625397 -119.107422 -49.298302 -0.062638
-33.142090 -119.107422 -49.298302 0.000000
-19.658783 -119.107422 -49.298302 -0.068627
-6.175476 -119.107422 -49.298302 0.000000
7.307800 -119.107422 -49.298302 0.000000
20.791107 -119.107422 -49.298302 -0.050607
34.274414 -119.107422 -49.298302 -0.039270
47.757721 -119.107422 -49.298302 -0.026587
61.240997 -119.107422 -49.298302 -0.010854
74.724304 -119.107422 -49.298302 -0.004388
88.207611 -119.107422 -49.298302 0.000709
101.690918 -119.107422 -49.298302 0.003380
115.174225 -119.107422 -49.298302 0.003866
128.657501 -119.107422 -49.298302 0.003011
142.140808 -119.107422 -49.298302 -0.001276
155.624115 -119.107422 -49.298302 -0.011032
169.107422 -119.107422 -49.298302 -0.021405
182.590698 -119.107422 -49.298302 -0.030916
196.074036 -119.107422 -49.298302 -0.040144
209.557312 -119.107422 -49.298302 -0.032885
223.040588 -119.107422 -49.298302 -0.022558
236.523926 -119.107422 -49.298302 -0.017639
250.007202 -119.107422 -49.298302 -0.009853
263.490540 -119.107422 -49.298302 -0.006212
276.973816 -119.107422 -49.298302 -0.004357
290.457092 -119.107422 -49.298302 -0.004166
303.940430 -119.107422 -49.298302 0.000000
317.423706 -119.107422 -49.298302 0.000000
330.907043 -119.107422 -49.298302 0.000000
344.390320 -119.107422 -49.298302 0.000000
-343.257996 -132.590698 -49.298302 0.000000
-329.774689 -132.590698 -49.298302 0.000000
-316.291382 -132.590698 -49.298302 0.000000
-302.808105 -132.590698 -49.298302 0.000000
-289.324799 -132.590698 -49.298302 0.000000
-275.841492 -132.590698 -49.298302 0.000000
-262.358185 -132.590698 -49.298302 0.000000
-248.874893 -132.590698 -49.298302 0.000000
-235.391602 -132.590698 -49.298302 0.000000
-221.908295 -132.590698 -49.298302 0.000000
-208.424988 -132.590698 -49.298302 0.000000
-194.941696 -132.590698 -49.298302 0.000000
-181.458389 -132.590698 -49.298302 0.000000
-167.975098 -132.590698 -49.298302 0.000000
-154.491791 -132.590698 -49.298302 0.161846
-141.008499 -132.590698 -49.298302 0.000000
-127.525192 -132.590698 -49.298302 0.000000
-114.041885 -132.590698 -49.298302 0.000000
-100.558594 -132.590698 -49.298302 0.000000
-87.075287 -132.590698 -49.298302 0.000000
-73.591980 -132.590698 -49.298302 0.000000
-60.108704 -132.590698 -49.298302 0.000000
-46.625397 -132.590698 -49.298302 0.000000
-33.142090 -132.590698 -49.298302 0.000000
-19.658783 -132.590698 -49.298302 0.000000
-6.175476 -132.590698 -49.298302 0.000000
7.307800 -132.590698 -49.298302 0.000000
20.791107 -132.590698 -49.298302 0.000000
34.274414 -132.590698 -49.298302 0.000000
47.757721 -132.590698 -49.298302 0.000000
61.240997 -132.590698 -49.298302 0.000000
74.724304 -132.590698 -49.298302 0.006709
88.207611 -132.590698 -49.298302 0.003028
101.690918 -132.590698 -49.298302 0.010243
115.174225 -132.590698 -49.298302 0.003961
128.657501 -132.590698 -49.298302 0.002319
142.140808 -132.590698 -49.298302 0.000788
155.624115 -132.590698 -49.298302 -0.006440
169.107422 -132.590698 -49.298302 -0.022599
182.590698 -132.590698 -49.298302 -0.033782
196.074036 -132.590698 -49.298302 -0.039248
209.557312 -132.590698 -49.298302 -0.037434
223.040588 -132.590698 -49.298302 -0.026715
236.523926 -132.590698 -49.298302 -0.025967
250.007202 -132.590698 -49.298302 -0.012904
263.490540 -132.590698 -49.298302 -0.010253
276.973816 -132.590698 -49.298302 -0.008007
290.457092 -132.590698 -49.298302 -0.009873
303.940430 -132.590698 -49.298302 0.000000
317.423706 -132.590698 -49.298302 0.000000
330.907043 -132.590698 -49.298302 0.000000
344.390320 -132.590698 -49.298302 0.000000
-343.257996 -146.074036 -49.298302 0.000000
-329.774689 -146.074036 -49.298302 0.000000
-316.291382 -146.074036 -49.298302 0.000000
-302.808105 -146.074036 -49.298302 0.000000
-289.324799 -146.074036 -49.298302 0.000000
-275.841492 -146.074036 -49.298302 0.000000
-262.358185 -146.074036 -49.298302 0.000000
-248.874893 -146.074036 -49.298302 0.000000
-235.391602 -146.074036 -49.298302 0.000000
-221.908295 -146.074036 -49.298302 0.000000
-208.424988 -146.074036 -49.298302 0.000000
-194.941696 -146.074036 -49.298302 0.000000
-181.458389 -146.074036 -49.298302 0.000000
-167.975098 -146.074036 -49.298302 0.000000
-154.491791 -146.074036 -49.298302 0.000000
-141.008499 -146.074036 -49.298302 0.000000
-127.525192 -146.074036 -49.298302 0.000000
-114.041885 -146.074036 -49.298302 0.000000
-100.558594 -146.074036 -49.298302 0.000000
-87.075287 -146.074036 -49.298302 0.000000
-73.591980 -146.074036 -49.298302 0.000000
-60.108704 -146.074036 -49.298302 0.000000
-46.625397 -146.074036 -49.298302 0.000000
-33.142090 -146.074036 -49.298302 0.000000
-19.658783 -146.074036 -49.298302 0.000000
-6.175476 -146.074036 -49.298302 0.000000
7.307800 -146.074036 -49.298302 0.000000
20.791107 -146.074036 -49.298302 0.000000
34.274414 -146.074036 -49.298302 0.000000
47.757721 -146.074036 -49.298302 0.000000
61.240997 -146.074036 -49.298302 0.000000
74.724304 -146.074036 -49.298302 0.000000
88.207611 -146.074036 -49.298302 0.000000
101.690918 -146.074036 -49.298302 0.000000
115.174225 -146.074036 -49.298302 0.000000
128.657501 -146.074036 -49.298302 0.000000
142.140808 -146.074036 -49.298302 -0.004222
155.624115 -146.074036 -49.298302 -0.009760
169.107422 -146.074036 -49.298302 -0.022348
182.590698 -146.074036 -49.298302 -0.033528
196.074036 -146.074036 -49.298302 -0.044792
209.557312 -146.074036 -49.298302 -0.042212
223.040588 -146.074036 -49.298302 0.000000
236.523926 -146.074036 -49.298302 0.000000
250.007202 -146.074036 -49.298302 -0.020719
263.490540 -146.074036 -49.298302 0.000000
276.973816 -146.074036 -49.298302 0.000000
290.457092 -146.074036 -49.298302 0.000000
303.940430 -146.074036 -49.298302 0.000000
317.423706 -146.074036 -49.298302 0.000000
330.907043 -146.074036 -49.298302 0.000000
344.390320 -146.074036 -49.298302 0.000000
-343.257996 -159.557312 -49.298302 0.000000
-329.774689 -159.557312 -49.298302 0.000000
-316.291382 -159.557312 -49.298302 0.000000
-302.808105 -159.557312 -49.298302 0.000000
-289.324799 -159.557312 -49.298302 0.000000
-275.841492 -159.557312 -49.298302 0.000000
-262.358185 -159.557312 -49.298302 0.000000
-248.874893 -159.557312 -49.298302 0.000000
-235.391602 -159.557312 -49.298302 0.000000
-221.908295 -159.557312 -49.298302 0.000000
-208.424988 -159.557312 -49.298302 0.000000
-194.941696 -159.557312 -49.298302 0.000000
-181.458389 -159.557312 -49.298302 0.000000
-167.975098 -159.557312 -49.298302 0.000000
-154.491791 -159.557312 -49.298302 0.000000
-141.008499 -159.557312 -49.298302 0.000000
-127.525192 -159.557312 -49.298302 0.000000
-114.041885 -159.557312 -49.298302 0.000000
-100.558594 -159.557312 -49.298302 0.000000
-87.075287 -159.557312 -49.298302 0.000000
-73.591980 -159.557312 -49.298302 0.000000
-60.108704 -159.557312 -49.298302 0.000000
-46.625397 -159.557312 -49.298302 0.000000
-33.142090 -159.557312 -49.298302 0.000000
-19.658783 -159.557312 -49.298302 0.000000
-6.175476 -159.557312 -49.298302 0.000000
7.307800 -159.557312 -49.298302 0.000000
20.791107 -159.557312 -49.298302 0.000000
34.274414 -159.557312 -49.298302 0.000000
47.757721 -159.557312 -49.298302 0.000000
61.240997 -159.557312 -49.298302 0.000000
74.724304 -159.557312 -49.298302 0.000000
88.207611 -159.557312 -49.298302 0.000000
101.690918 -159.557312 -49.298302 0.000000
115.174225 -159.557312 -49.298302 0.000000
128.657501 -159.557312 -49.298302 0.000000
142.140808 -159.557312 -49.298302 0.000000
155.624115 -159.557312 -49.298302 0.000000
169.107422 -159.557312 -49.298302 0.000000
182.590698 -159.557312 -49.298302 0.000000
196.074036 -159.557312 -49.298302 0.000000
209.557312 -159.557312 -49.298302 0.000000
223.040588 -159.557312 -49.298302 0.000000
236.523926 -159.557312 -49.298302 0.000000
250.007202 -159.557312 -49.298302 0.000000
263.490540 -159.557312 -49.298302 0.000000
276.973816 -159.557312 -49.298302 0.000000
290.457092 -159.557312 -49.298302 0.000000
303.940430 -159.557312 -49.298302 0.000000
317.423706 -159.557312 -49.298302 0.000000
330.907043 -159.557312 -49.298302 0.000000
344.390320 -159.557312 -49.298302 0.000000
-343.257996 -173.040588 -49.298302 0.000000
-329.774689 -173.040588 -49.298302 0.000000
-316.291382 -173.040588 -49.298302 0.000000
-302.808105 -173.040588 -49.298302 0.000000
-289.324799 -173.040588 -49.298302 0.000000
-275.841492 -173.040588 -49.298302 0.000000
-262.358185 -173.040588 -49.298302 0.000000
-248.874893 -173.040588 -49.298302 0.000000
-235.391602 -173.040588 -49.298302 0.000000
-221.908295 -173.040588 -49.298302 0.000000
-208.424988 -173.040588 -49.298302 0.000000
-194.941696 -173.040588 -49.298302 0.000000
-181.458389 -173.040588 -49.298302 0.000000
-167.975098 -173.040588 -49.298302 0.000000
-154.491791 -173.040588 -49.298302 0.000000
-141.008499 -173.040588 -49.298302 0.000000
-127.525192 -173.040588 -49.298302 0.000000
-114.041885 -173.040588 -49.298302 0.000000
-100.558594 -173.040588 -49.298302 0.000000
-87.075287 -173.040588 -49.298302 0.000000
-73.591980 -173.040588 -49.298302 0.000000
-60.108704 -173.040588 -49.298302 0.000000
-46.625397 -173.040588 -49.298302 0.000000
-33.142090 -173.040588 -49.298302 0.000000
-19.658783 -173.040588 -49.298302 0.000000
-6.175476 -173.040588 -49.298302 0.000000
7.307800 -173.040588 -49.298302 0.000000
20.791107 -173.040588 -49.298302 0.000000
34.274414 -173.040588 -49.298302 0.000000
47.757721 -173.040588 -49.298302 0.000000
61.240997 -173.040588 -49.298302 0.000000
74.724304 -173.040588 -49.298302 0.000000
88.207611 -173.040588 -49.298302 0.000000
101.690918 -173.040588 -49.298302 0.000000
115.174225 -173.040588 -49.298302 0.000000
128.657501 -173.040588 -49.298302 0.000000
142.140808 -173.040588 -49.298302 0.000000
155.624115 -173.040588 -49.298302 0.000000
169.107422 -173.040588 -49.298302 0.000000
182.590698 -173.040588 -49.298302 0.000000
196.074036 -173.040588 -49.298302 0.000000
209.557312 -173.040588 -49.298302 0.000000
223.040588 -173.040588 -49.298302 0.000000
236.523926 -173.040588 -49.298302 0.000000
250.007202 -173.040588 -49.298302 0.000000
263.490540 -173.040588 -49.298302 0.000000
276.973816 -173.040588 -49.298302 0.000000
290.457092 -173.040588 -49.298302 0.000000
303.940430 -173.040588 -49.298302 0.000000
317.423706 -173.040588 -49.298302 0.000000
330.907043 -173.040588 -49.298302 0.000000
344.390320 -173.040588 -49.298302 0.000000
-343.257996 -186.523926 -49.298302 0.000000
-329.774689 -186.523926 -49.298302 0.000000
-316.291382 -186.523926 -49.298302 0.000000
-302.808105 -186.523926 -49.298302 0.000000
-289.324799 -186.523926 -49.298302 0.000000
-275.841492 -186.523926 -49.298302 0.000000
-262.358185 -186.523926 -49.298302 0.000000
-248.874893 -186.523926 -49.298302 0.000000
-235.391602 -186.523926 -49.298302 0.000000
-221.908295 -186.523926 -49.298302 0.000000
-208.424988 -186.523926 -49.298302 0.000000
-194.941696 -186.523926 -49.298302 0.000000
-181.458389 -186.523926 -49.298302 0.000000
-167.975098 -186.523926 -49.298302 0.000000
-154.491791 -186.523926 -49.298302 0.000000
-141.008499 -186.523926 -49.298302 0.000000
-127.525192 -186.523926 -49.298302 0.000000
-114.041885 -186.523926 -49.298302 0.000000
-100.558594 -186.523926 -49.298302 0.000000
-87.075287 -186.523926 -49.298302 0.000000
-73.591980 -186.523926 -49.298302 0.000000
-60.108704 -186.523926 -49.298302 0.000000
-46.625397 -186.523926 -49.298302 0.000000
-33.142090 -186.523926 -49.298302 0.000000
-19.658783 -186.523926 -49.298302 0.000000
-6.175476 -186.523926 -49.298302 0.000000
7.307800 -186.523926 -49.298302 0.000000
20.791107 -186.523926 -49.298302 0.000000
34.274414 -186.523926 -49.298302 0.000000
47.757721 -186.523926 -49.298302 0.000000
61.240997 -186.523926 -49.298302 0.000000
74.724304 -186.523926 -49.298302 0.000000
88.207611 -186.523926 -49.298302 0.000000
101.690918 -186.523926 -49.298302 0.000000
115.174225 -186.523926 -49.298302 0.000000
128.657501 -186.523926 -49.298302 0.000000
142.140808 -186.523926 -49.298302 0.000000
155.624115 -186.523926 -49.298302 0.000000
169.107422 -186.523926 -49.298302 0.000000
182.590698 -186.523926 -49.298302 0.000000
196.074036 -186.523926 -49.298302 0.000000
209.557312 -186.523926 -49.298302 0.000000
223.040588 -186.523926 -49.298302 0.000000
236.523926 -186.523926 -49.298302 0.000000
250.007202 -186.523926 -49.298302 0.000000
263.490540 -186.523926 -49.298302 0.000000
276.973816 -186.523926 -49.298302 0.000000
290.457092 -186.523926 -49.298302 0.000000
303.940430 -186.523926 -49.298302 0.000000
317.423706 -186.523926 -49.298302 0.000000
330.907043 -186.523926 -49.298302 0.000000
344.390320 -186.523926 -49.298302 0.000000
-343.257996 -200.007202 -49.298302 0.000000
-329.774689 -200.007202 -49.298302 0.000000
-316.291382 -200.007202 -49.298302 0.000000
-302.808105 -200.007202 -49.298302 0.000000
-289.324799 -200.007202 -49.298302 0.000000
-275.841492 -200.007202 -49.298302 0.000000
-262.358185 -200.007202 -49.298302 0.000000
-248.874893 -200.007202 -49.298302 0.000000
-235.391602 -200.007202 -49.298302 0.000000
-221.908295 -200.007202 -49.298302 0.000000
-208.424988 -200.007202 -49.298302 0.000000
-194.941696 -200.007202 -49.298302 0.000000
-181.458389 -200.007202 -49.298302 0.000000
-167.975098 -200.007202 -49.298302 0.000000
-154.491791 -200.007202 -49.298302 0.000000
-141.008499 -200.007202 -49.298302 0.000000
-127.525192 -200.007202 -49.298302 0.000000
-114.041885 -200.007202 -49.298302 0.000000
-100.558594 -200.007202 -49.298302 0.000000
-87.075287 -200.007202 -49.298302 0.000000
-73.591980 -200.007202 -49.298302 0.000000
-60.108704 -200.007202 -49.298302 0.000000
-46.625397 -200.007202 -49.298302 0.000000
-33.142090 -200.007202 -49.298302 0.000000
-19.658783 -200.007202 -49.298302 0.000000
-6.175476 -200.007202 -49.298302 0.000000
7.307800 -200.007202 -49.298302 0.000000
20.791107 -200.007202 -49.298302 0.000000
34.274414 -200.007202 -49.298302 0.000000
47.757721 -200.007202 -49.298302 0.000000
61.240997 -200.007202 -49.298302 0.000000
74.724304 -200.007202 -49.298302 0.000000
88.207611 -200.007202 -49.298302 0.000000
101.690918 -200.007202 -49.298302 0.000000
115.174225 -200.007202 -49.298302 0.000000
128.657501 -200.007202 -49.298302 0.000000
142.140808 -200.007202 -49.298302 0.000000
155.624115 -200.007202 -49.298302 0.000000
169.107422 -200.007202 -49.298302 0.000000
182.590698 -200.007202 -49.298302 0.000000
196.074036 -200.007202 -49.298302 0.000000
209.557312 -200.007202 -49.298302 0.000000
223.040588 -200.007202 -49.298302 0.000000
236.523926 -200.007202 -49.298302 0.000000
250.007202 -200.007202 -49.298302 0.000000
263.490540 -200.007202 -49.298302 0.000000
276.973816 -200.007202 -49.298302 0.000000
290.457092 -200.007202 -49.298302 0.000000
303.940430 -200.007202 -49.298302 0.000000
317.423706 -200.007202 -49.298302 0.000000
330.907043 -200.007202 -49.298302 0.000000
344.390320 -200.007202 -49.298302 0.000000
-343.257996 393.257996 -35.815002 0.000000
-329.774689 393.257996 -35.815002 0.000000
-316.291382 393.257996 -35.815002 0.000000
-302.808105 393.257996 -35.815002 0.000000
-289.324799 393.257996 -35.815002 0.000000
-275.841492 393.257996 -35.815002 0.000000
-262.358185 393.257996 -35.815002 0.000000
-248.874893 393.257996 -35.815002 0.000000
-235.391602 393.257996 -35.815002 0.000000
-221.908295 393.257996 -35.815002 0.000000
-208.424988 393.257996 -35.815002 0.000000
-194.941696 393.257996 -35.815002 0.000000
-181.458389 393.257996 -35.815002 0.000000
-167.975098 393.257996 -35.815002 0.000000
-154.491791 393.257996 -35.815002 0.000000
-141.008499 393.257996 -35.815002 0.000000
-127.525192 393.257996 -35.815002 0.000000
-114.041885 393.257996 -35.815002 0.000000
-100.558594 393.257996 -35.815002 0.000000
-87.075287 393.257996 -35.815002 0.000000
-73.591980 393.257996 -35.815002 0.000000
-60.108704 393.257996 -35.815002 0.000000
-46.625397 393.257996 -35.815002 0.000000
-33.142090 393.257996 -35.815002 0.000000
-19.658783 393.257996 -35.815002 0.000000
-6.175476 393.257996 -35.815002 0.000000
7.307800 393.257996 -35.815002 0.000000
20.791107 393.257996 -35.815002 0.000000
34.274414 393.257996 -35.815002 0.000000
47.757721 393.257996 -35.815002 0.000000
61.240997 393.257996 -35.815002 0.000000
74.724304 393.257996 -35.815002 0.000000
88.207611 393.257996 -35.815002 0.000000
101.690918 393.257996 -35.815002 0.000000
115.174225 393.257996 -35.815002 0.000000
128.657501 393.257996 -35.815002 0.000000
142.140808 393.257996 -35.815002 0.000000
155.624115 393.257996 -35.815002 0.000000
169.107422 393.257996 -35.815002 0.000000
182.590698 393.257996 -35.815002 0.000000
196.074036 393.257996 -35.815002 0.000000
209.557312 393.257996 -35.815002 0.000000
223.040588 393.257996 -35.815002 0.000000
236.523926 393.257996 -35.815002 0.000000
250.007202 393.257996 -35.815002 0.000000
263.490540 393.257996 -35.815002 0.000000
276.973816 393.257996 -35.815002 0.000000
290.457092 393.257996 -35.815002 0.000000
303.940430 393.257996 -35.815002 0.000000
317.423706 393.257996 -35.815002 0.000000
330.907043 393.257996 -35.815002 0.000000
344.390320 393.257996 -35.815002 0.000000
-343.257996 379.774689 -35.815002 0.000000
-329.774689 379.774689 -35.815002 0.000000
-316.291382 379.774689 -35.815002 0.000000
-302.808105 379.774689 -35.815002 0.000000
-289.324799 379.774689 -35.815002 0.000000
-275.841492 379.774689 -35.815002 0.000000
-262.358185 379.774689 -35.815002 0.000000
-248.874893 379.774689 -35.815002 0.000000
-235.391602 379.774689 -35.815002 0.000000
-221.908295 379.774689 -35.815002 0.000000
-208.424988 379.774689 -35.815002 0.000000
-194.941696 379.774689 -35.815002 0.000000
-181.458389 379.774689 -35.815002 0.000000
-167.975098 379.774689 -35.815002 0.000000
-154.491791 379.774689 -35.815002 0.000000
-141.008499 379.774689 -35.815002 0.000000
-127.525192 379.774689 -35.815002 0.000000
-114.041885 379.774689 -35.815002 0.000000
-100.558594 379.774689 -35.815002 0.000000
-87.075287 379.774689 -35.815002 0.000000
-73.591980 379.774689 -35.815002 0.000000
-60.108704 379.774689 -35.815002 0.000000
-46.625397 379.774689 -35.815002 0.000000
-33.142090 379.774689 -35.815002 0.000000
-19.658783 379.774689 -35.815002 0.000000
-6.175476 379.774689 -35.815002 0.000000
7.307800 379.774689 -35.815002 0.000000
20.791107 379.774689 -35.815002 0.000000
34.274414 379.774689 -35.815002 0.000000
47.757721 379.774689 -35.815002 0.000000
61.240997 379.774689 -35.815002 0.000000
74.724304 379.774689 -35.815002 0.000000
88.207611 379.774689 -35.815002 0.000000
101.690918 379.774689 -35.815002 0.000000
115.174225 379.774689 -35.815002 0.000000
128.657501 379.774689 -35.815002 0.000000
142.140808 379.774689 -35.815002 0.000000
155.624115 379.774689 -35.815002 0.000000
169.107422 379.774689 -35.815002 0.000000
182.590698 379.774689 -35.815002 0.000000
196.074036 379.774689 -35.815002 0.000000
209.557312 379.774689 -35.815002 0.000000
223.040588 379.774689 -35.815002 0.000000
236.523926 379.774689 -35.815002 0.000000
250.007202 379.774689 -35.815002 0.000000
263.490540 379.774689 -35.815002 0.000000
276.973816 379.774689 -35.815002 0.000000
290.457092 379.774689 -35.815002 0.000000
303.940430 379.774689 -35.815002 0.000000
317.423706 379.774689 -35.815002 0.000000
330.907043 379.774689 -35.815002 0.000000
344.390320 379.774689 -35.815002 0.000000
-343.257996 366.291382 -35.815002 0.000000
-329.774689 366.291382 -35.815002 0.000000
-316.291382 366.291382 -35.815002 -0.007328
-302.808105 366.291382 -35.815002 0.000000
-289.324799 366.291382 -35.815002 0.000000
-275.841492 366.291382 -35.815002 0.000000
-262.358185 366.291382 -35.815002 0.000000
-248.874893 366.291382 -35.815002 0.000000
-235.391602 366.291382 -35.815002 0.000000
-221.908295 366.291382 -35.815002 0.000000
-208.424988 366.291382 -35.815002 0.000000
-194.941696 366.291382 -35.815002 0.000000
-181.458389 366.291382 -35.815002 0.000000
-167.975098 366.291382 -35.815002 0.000000
-154.491791 366.291382 -35.815002 0.000000
-141.008499 366.291382 -35.815002 0.000000
-127.525192 366.291382 -35.815002 0.000000
-114.041885 366.291382 -35.815002 0.000000
-100.558594 366.291382 -35.815002 0.000000
-87.075287 366.291382 -35.815002 0.000000
-73.591980 366.291382 -35.815002 0.000000
-60.108704 366.291382 -35.815002 0.000000
-46.625397 366.291382 -35.815002 0.000000
-33.142090 366.291382 -35.815002 0.000000
-19.658783 366.291382 -35.815002 0.000000
-6.175476 366.291382 -35.815002 0.000000
7.307800 366.291382 -35.815002 0.000000
20.791107 366.291382 -35.815002 0.000000
34.274414 366.291382 -35.815002 0.000000
47.757721 366.291382 -35.815002 0.000000
61.240997 366.291382 -35.815002 0.000000
74.724304 366.291382 -35.815002 0.000000
88.207611 366.291382 -35.815002 0.000000
101.690918 366.291382 -35.815002 0.000000
115.174225 366.291382 -35.815002 0.000000
128.657501 366.291382 -35.815002 0.000000
142.140808 366.291382 -35.815002 0.000000
155.624115 366.291382 -35.815002 0.000000
169.107422 366.291382 -35.815002 0.000000
182.590698 366.291382 -35.815002 0.000000
196.074036 366.291382 -35.815002 0.000000
209.557312 366.291382 -35.815002 0.000000
223.040588 366.291382 -35.815002 0.000000
236.523926 366.291382 -35.815002 0.000000
250.007202 366.291382 -35.815002 0.000000
263.490540 366.291382 -35.815002 0.000000
276.973816 366.291382 -35.815002 0.000000
290.457092 366.291382 -35.815002 0.000000
303.940430 366.291382 -35.815002 0.000000
317.423706 366.291382 -35.815002 0.000000
330.907043 366.291382 -35.815002 0.000000
344.390320 366.291382 -35.815002 0.000000
-343.257996 352.808105 -35.815002 0.000000
-329.774689 352.808105 -35.815002 0.000000
-316.291382 352.808105 -35.815002 0.000000
-302.808105 352.808105 -35.815002 -0.005037
-289.324799 352.808105 -35.815002 -0.004685
-275.841492 352.808105 -35.815002 -0.002522
-262.358185 352.808105 -35.815002 -0.000168
-248.874893 352.808105 -35.815002 0.002103
-235.391602 352.808105 -35.815002 0.003452
-221.908295 352.808105 -35.815002 0.002174
-208.424988 352.808105 -35.815002 0.005613
-194.941696 352.808105 -35.815002 0.017545
-181.458389 352.808105 -35.815002 0.000000
-167.975098 352.808105 -35.815002 0.000000
-154.491791 352.808105 -35.815002 0.000000
-141.008499 352.808105 -35.815002 0.000000
-127.525192 352.808105 -35.815002 0.000000
-114.041885 352.808105 -35.815002 0.000000
-100.558594 352.808105 -35.815002 0.000000
-87.075287 352.808105 -35.815002 0.000000
-73.591980 352.808105 -35.815002 0.000000
-60.108704 352.808105 -35.815002 0.000000
-46.625397 352.808105 -35.815002 0.000000
-33.142090 352.808105 -35.815002 0.000000
-19.658783 352.808105 -35.815002 0.000000
-6.175476 352.808105 -35.815002 0.000000
7.307800 352.808105 -35.815002 0.000000
20.791107 352.808105 -35.815002 0.000000
34.274414 352.808105 -35.815002 -0.052884
47.757721 352.808105 -35.815002 -0.049164
61.240997 352.808105 -35.815002 -0.052578
74.724304 352.808105 -35.815002 0.000000
88.207611 352.808105 -35.815002 0.000000
101.690918 352.808105 -35.815002 0.000000
115.174225 352.808105 -35.815002 0.000000
128.657501 352.808105 -35.815002 0.000000
142.140808 352.808105 -35.815002 0.000000
155.624115 352.808105 -35.815002 0.000000
169.107422 352.808105 -35.815002 0.000000
182.590698 352.808105 -35.815002 0.000000
196.074036 352.808105 -35.815002 0.000000
209.557312 352.808105 -35.815002 0.000000
223.040588 352.808105 -35.815002 0.000000
236.523926 352.808105 -35.815002 0.000000
250.007202 352.808105 -35.815002 0.000000
263.490540 352.808105 -35.815002 0.000000
276.973816 352.808105 -35.815002 0.000000
290.457092 352.808105 -35.815002 0.000000
303.940430 352.808105 -35.815002 0.000000
317.423706 352.808105 -35.815002 0.000000
330.907043 352.808105 -35.815002 0.000000
344.390320 352.808105 -35.815002 0.000000
-343.257996 339.324799 -35.815002 0.000000
-329.774689 339.324799 -35.815002 0.000000
-316.291382 339.324799 -35.815002 -0.004614
-302.808105 339.324799 -35.815002 -0.005807
-289.324799 339.324799 -35.815002 -0.004703
-275.841492 339.324799 -35.815002 -0.002077
-262.358185 339.324799 -35.815002 0.001735
-248.874893 339.324799 -35.815002 0.000088
-235.391602 339.324799 -35.815002 0.001299
-221.908295 339.324799 -35.815002 0.002441
-208.424988 339.324799 -35.815002 0.006495
-194.941696 339.324799 -35.815002 0.016331
-181.458389 339.324799 -35.815002 0.031651
-167.975098 339.324799 -35.815002 0.045408
-154.491791 339.324799 -35.815002 0.070275
-141.008499 339.324799 -35.815002 0.091487
-127.525192 339.324799 -35.815002 0.093384
-114.041885 339.324799 -35.815002 0.084408
-100.558594 339.324799 -35.815002 0.069531
-87.075287 339.324799 -35.815002 0.042270
-73.591980 339.324799 -35.815002 0.019241
-60.108704 339.324799 -35.815002 -0.002035
-46.625397 339.324799 -35.815002 -0.031165
-33.142090 339.324799 -35.815002 -0.050185
-19.658783 339.324799 -35.815002 -0.051615
-6.175476 339.324799 -35.815002 -0.056123
7.307800 339.324799 -35.815002 -0.051256
20.791107 339.324799 -35.815002 -0.059039
34.274414 339.324799 -35.815002 -0.054778
47.757721 339.324799 -35.815002 -0.056481
61.240997 339.324799 -35.815002 -0.056358
74.724304 339.324799 -35.815002 -0.046924
88.207611 339.324799 -35.815002 -0.037030
101.690918 339.324799 -35.815002 -0.019739
115.174225 339.324799 -35.815002 -0.013017
128.657501 339.324799 -35.815002 -0.016979
142.140808 339.324799 -35.815002 -0.034346
155.624115 339.324799 -35.815002 -0.038029
169.107422 339.324799 -35.815002 -0.044552
182.590698 339.324799 -35.815002 -0.044023
196.074036 339.324799 -35.815002 -0.049189
209.557312 339.324799 -35.815002 -0.050322
223.040588 339.324799 -35.815002 -0.041371
236.523926 339.324799 -35.815002 -0.038680
250.007202 339.324799 -35.815002 -0.023137
263.490540 339.324799 -35.815002 -0.024493
276.973816 339.324799 -35.815002 -0.027657
290.457092 339.324799 -35.815002 0.000000
303.940430 339.324799 -35.815002 0.000000
317.423706 339.324799 -35.815002 0.000000
330.907043 339.324799 -35.815002 0.000000
344.390320 339.324799 -35.815002 0.000000
-343.257996 325.841492 -35.815002 0.000000
-329.774689 325.841492 -35.815002 0.000000
-316.291382 325.841492 -35.815002 -0.004656
-302.808105 325.841492 -35.815002 -0.005352
-289.324799 325.841492 -35.815002 -0.004504
-275.841492 325.841492 -35.815002 -0.002230
-262.358185 325.841492 -35.815002 -0.000735
-248.874893 325.841492 -35.815002 -0.000703
-235.391602 325.841492 -35.815002 -0.001377
-221.908295 325.841492 -35.815002 0.000296
-208.424988 325.841492 -35.815002 -0.001497
-194.941696 325.841492 -35.815002 0.007929
-181.458389 325.841492 -35.815002 0.025678
-167.975098 325.841492 -35.815002 0.043009
-154.491791 325.841492 -35.815002 0.066389
-141.008499 325.841492 -35.815002 0.086602
-127.525192 325.841492 -35.815002 0.085932
-114.041885 325.841492 -35.815002 0.093519
-100.558594 325.841492 -35.815002 0.078434
-87.075287 325.841492 -35.815002 0.056418
-73.591980 325.841492 -35.815002 0.038992
-60.108704 325.841492 -35.815002 -0.002039
-46.625397 325.841492 -35.815002 -0.022412
-33.142090 325.841492 -35.815002 -0.038943
-19.658783 325.841492 -35.815002 -0.051553
-6.175476 325.841492 -35.815002 -0.071073
7.307800 325.841492 -35.815002 -0.060344
20.791107 325.841492 -35.815002 -0.056439
34.274414 325.841492 -35.815002 -0.057420
47.757721 325.841492 -35.815002 -0.053928
61.240997 325.841492 -35.815002 -0.053334
74.724304 325.841492 -35.815002 -0.051541
88.207611 325.841492 -35.815002 -0.033980
101.690918 325.841492 -35.815002 -0.022133
115.174225 325.841492 -35.815002 -0.009268
128.657501 325.841492 -35.815002 -0.023798
142.140808 325.841492 -35.815002 -0.046133
155.624115 325.841492 -35.815002 -0.087332
169.107422 325.841492 -35.815002 -0.082817
182.590698 325.841492 -35.815002 -0.078157
196.074036 325.841492 -35.815002 -0.071509
209.557312 325.841492 -35.815002 -0.065367
223.040588 325.841492 -35.815002 -0.056127
236.523926 325.841492 -35.815002 -0.042927
250.007202 325.841492 -35.815002 -0.034048
263.490540 325.841492 -35.815002 -0.030008
276.973816 325.841492 -35.815002 -0.020665
290.457092 325.841492 -35.815002 -0.014756
303.940430 325.841492 -35.815002 0.000000
317.423706 325.841492 -35.815002 0.000000
330.907043 325.841492 -35.815002 0.000000
344.390320 325.841492 -35.815002 0.000000
-343.257996 312.358185 -35.815002 0.000000
-329.774689 312.358185 -35.815002 0.000000
-316.291382 312.358185 -35.815002 -0.003977
-302.808105 312.358185 -35.815002 -0.004672
-289.324799 312.358185 -35.815002 -0.003398
-275.841492 312.358185 -35.815002 -0.002566
-262.358185 312.358185 -35.815002 -0.001360
-248.874893 312.358185 -35.815002 -0.001960
-235.391602 312.358185 -35.815002 -0.001591
-221.908295 312.358185 -35.815002 -0.001832
-208.424988 312.358185 -35.815002 -0.003030
-194.941696 312.358185 -35.815002 0.005885
-181.458389 312.358185 -35.815002 0.017722
-167.975098 312.358185 -35.815002 0.040889
-154.491791 312.358185 -35.815002 0.069545
-141.008499 312.358185 -35.815002 0.088657
-127.525192 312.358185 -35.815002 0.102735
-114.041885 312.358185 -35.815002 0.097995
-100.558594 312.358185 -35.815002 0.083505
-87.075287 312.358185 -35.815002 0.070676
-73.591980 312.358185 -35.815002 0.049516
-60.108704 312.358185 -35.815002 0.026942
-46.625397 312.358185 -35.815002 -0.016848
-33.142090 312.358185 -35.815002 -0.025686
-19.658783 312.358185 -35.815002 -0.052427
-6.175476 312.358185 -35.815002 -0.063906
7.307800 312.358185 -35.815002 -0.068247
20.791107 312.358185 -35.815002 -0.063271
34.274414 312.358185 -35.815002 -0.068184
47.757721 312.358185 -35.815002 -0.063362
61.240997 312.358185 -35.815002 -0.058003
74.724304 312.358185 -35.815002 -0.051310
88.207611 312.358185 -35.815002 -0.043598
101.690918 312.358185 -35.815002 -0.028727
115.174225 312.358185 -35.815002 -0.030482
128.657501 312.358185 -35.815002 -0.040817
142.140808 312.358185 -35.815002 -0.074289
155.624115 312.358185 -35.815002 -0.107933
169.107422 312.358185 -35.815002 -0.120286
182.590698 312.358185 -35.815002 -0.106336
196.074036 312.358185 -35.815002 -0.102372
209.557312 312.358185 -35.815002 -0.087160
223.040588 312.358185 -35.815002 -0.068052
236.523926 312.358185 -35.815002 -0.054250
250.007202 312.358185 -35.815002 -0.034749
263.490540 312.358185 -35.815002 -0.021557
276.973816 312.358185 -35.815002 -0.015458
290.457092 312.358185 -35.815002 -0.014870
303.940430 312.358185 -35.815002 0.000000
317.423706 312.358185 -35.815002 0.000000
330.907043 312.358185 -35.815002 0.000000
344.390320 312.358185 -35.815002 0.000000
-343.257996 298.874878 -35.815002 0.000000
-329.774689 298.874878 -35.815002 0.000000
-316.291382 298.874878 -35.815002 -0.004974
-302.808105 298.874878 -35.815002 -0.004683
-289.324799 298.874878 -35.815002 -0.003992
-275.841492 298.874878 -35.815002 -0.002984
-262.358185 298.874878 -35.815002 -0.001884
-248.874893 298.874878 -35.815002 -0.001475
-235.391602 298.874878 -35.815002 -0.002688
-221.908295 298.874878 -35.815002 -0.004016
-208.424988 298.874878 -35.815002 -0.002787
-194.941696 298.874878 -35.815002 0.008380
-181.458389 298.874878 -35.815002 0.023754
-167.975098 298.874878 -35.815002 0.046120
-154.491791 298.874878 -35.815002 0.066275
-141.008499 298.874878 -35.815002 0.087622
-127.525192 298.874878 -35.815002 0.099350
-114.041885 298.874878 -35.815002 0.098845
-100.558594 298.874878 -35.815002 0.086372
-87.075287 298.874878 -35.815002 0.079834
-73.591980 298.874878 -35.815002 0.066129
-60.108704 298.874878 -35.815002 0.045787
-46.625397 298.874878 -35.815002 0.007832
-33.142090 298.874878 -35.815002 -0.010638
-19.658783 298.874878 -35.815002 -0.048943
-6.175476 298.874878 -35.815002 -0.057128
7.307800 298.874878 -35.815002 -0.067853
20.791107 298.874878 -35.815002 -0.075781
34.274414 298.874878 -35.815002 -0.070092
47.757721 298.874878 -35.815002 -0.058990
61.240997 298.874878 -35.815002 -0.044658
74.724304 298.874878 -35.815002 -0.043614
88.207611 298.874878 -35.815002 -0.041956
101.690918 298.874878 -35.815002 -0.028308
115.174225 298.874878 -35.815002 -0.043380
128.657501 298.874878 -35.815002 -0.061708
142.140808 298.874878 -35.815002 -0.080569
155.624115 298.874878 -35.815002 -0.119694
169.107422 298.874878 -35.815002 -0.134739
182.590698 298.874878 -35.815002 -0.128251
196.074036 298.874878 -35.815002 -0.127439
209.557312 298.874878 -35.815002 -0.105043
223.040588 298.874878 -35.815002 -0.080623
236.523926 298.874878 -35.815002 -0.064488
250.007202 298.874878 -35.815002 -0.040200
263.490540 298.874878 -35.815002 -0.026734
276.973816 298.874878 -35.815002 -0.016227
290.457092 298.874878 -35.815002 -0.008120
303.940430 298.874878 -35.815002 0.000000
317.423706 298.874878 -35.815002 0.000000
330.907043 298.874878 -35.815002 0.000000
344.390320 298.874878 -35.815002 0.000000
-343.257996 285.391602 -35.815002 0.000000
-329.774689 285.391602 -35.815002 0.000000
-316.291382 285.391602 -35.815002 -0.004299
-302.808105 285.391602 -35.815002 -0.004913
-289.324799 285.391602 -35.815002 -0.004404
-275.841492 285.391602 -35.815002 -0.004036
-262.358185 285.391602 -35.815002 -0.005251
-248.874893 285.391602 -35.815002 -0.003407
-235.391602 285.391602 -35.815002 -0.003512
-221.908295 285.391602 -35.815002 -0.004423
-208.424988 285.391602 -35.815002 0.002247
-194.941696 285.391602 -35.815002 0.019330
-181.458389 285.391602 -35.815002 0.031680
-167.975098 285.391602 -35.815002 0.051555
-154.491791 285.391602 -35.815002 0.066383
-141.008499 285.391602 -35.815002 0.085918
-127.525192 285.391602 -35.815002 0.093489
-114.041885 285.391602 -35.815002 0.099442
-100.558594 285.391602 -35.815002 0.093266
-87.075287 285.391602 -35.815002 0.095036
-73.591980 285.391602 -35.815002 0.096004
-60.108704 285.391602 -35.815002 0.067294
-46.625397 285.391602 -35.815002 0.027032
-33.142090 285.391602 -35.815002 -0.015569
-19.658783 285.391602 -35.815002 -0.042753
-6.175476 285.391602 -35.815002 -0.059406
7.307800 285.391602 -35.815002 -0.054178
20.791107 285.391602 -35.815002 -0.063124
34.274414 285.391602 -35.815002 -0.065935
47.757721 285.391602 -35.815002 -0.051186
61.240997 285.391602 -35.815002 -0.038519
74.724304 285.391602 -35.815002 -0.038813
88.207611 285.391602 -35.815002 -0.025775
101.690918 285.391602 -35.815002 -0.026234
115.174225 285.391602 -35.815002 -0.032643
128.657501 285.391602 -35.815002 -0.048794
142.140808 285.391602 -35.815002 -0.075974
155.624115 285.391602 -35.815002 -0.104678
169.107422 285.391602 -35.815002 -0.129489
182.590698 285.391602 -35.815002 -0.132495
196.074036 285.391602 -35.815002 -0.140801
209.557312 285.391602 -35.815002 -0.124104
223.040588 285.391602 -35.815002 -0.098927
236.523926 285.391602 -35.815002 -0.079801
250.007202 285.391602 -35.815002 -0.048322
263.490540 285.391602 -35.815002 -0.025896
276.973816 285.391602 -35.815002 -0.019687
290.457092 285.391602 -35.815002 -0.006108
303.940430 285.391602 -35.815002 -0.002073
317.423706 285.391602 -35.815002 0.000000
330.907043 285.391602 -35.815002 0.000000
344.390320 285.391602 -35.815002 0.000000
-343.257996 271.908295 -35.815002 0.000000
-329.774689 271.908295 -35.815002 0.000000
-316.291382 271.908295 -35.815002 -0.004708
-302.808105 271.908295 -35.815002 -0.004341
-289.324799 271.908295 -35.815002 -0.005135
-275.841492 271.908295 -35.815002 -0.006333
-262.358185 271.908295 -35.815002 -0.005652
-248.874893 271.908295 -35.815002 -0.006626
-235.391602 271.908295 -35.815002 -0.005356
-221.908295 271.908295 -35.815002 0.000505
-208.424988 271.908295 -35.815002 0.008463
-194.941696 271.908295 -35.815002 0.023421
-181.458389 271.908295 -35.815002 0.040968
-167.975098 271.908295 -35.815002 0.054385
-154.491791 271.908295 -35.815002 0.065127
-141.008499 271.908295 -35.815002 0.074769
-127.525192 271.908295 -35.815002 0.089179
-114.041885 271.908295 -35.815002 0.094181
-100.558594 271.908295 -35.815002 0.105453
-87.075287 271.908295 -35.815002 0.116959
-73.591980 271.908295 -35.815002 0.119380
-60.108704 271.908295 -35.815002 0.101270
-46.625397 271.908295 -35.815002 0.044221
-33.142090 271.908295 -35.815002 -0.004856
-19.658783 271.908295 -35.815002 -0.031010
-6.175476 271.908295 -35.815002 -0.043992
7.307800 271.908295 -35.815002 -0.052985
20.791107 271.908295 -35.815002 -0.056222
34.274414 271.908295 -35.815002 -0.051144
47.757721 271.908295 -35.815002 -0.037614
61.240997 271.908295 -35.815002 -0.032569
74.724304 271.908295 -35.815002 -0.023203
88.207611 271.908295 -35.815002 -0.009812
101.690918 271.908295 -35.815002 -0.008824
115.174225 271.908295 -35.815002 -0.019504
128.657501 271.908295 -35.815002 -0.023410
142.140808 271.908295 -35.815002 -0.057873
155.624115 271.908295 -35.815002 -0.087999
169.107422 271.908295 -35.815002 -0.118100
182.590698 271.908295 -35.815002 -0.141411
196.074036 271.908295 -35.815002 -0.150937
209.557312 271.908295 -35.815002 -0.142228
223.040588 271.908295 -35.815002 -0.117864
236.523926 271.908295 -35.815002 -0.080941
250.007202 271.908295 -35.815002 -0.053069
263.490540 271.908295 -35.815002 -0.039647
276.973816 271.908295 -35.815002 -0.017160
290.457092 271.908295 -35.815002 -0.010474
303.940430 271.908295 -35.815002 -0.002645
317.423706 271.908295 -35.815002 0.000000
330.907043 271.908295 -35.815002 0.000000
344.390320 271.908295 -35.815002 0.000000
-343.257996 258.424988 -35.815002 0.000000
-329.774689 258.424988 -35.815002 0.000000
-316.291382 258.424988 -35.815002 -0.004533
-302.808105 258.424988 -35.815002 -0.005294
-289.324799 258.424988 -35.815002 -0.006498
-275.841492 258.424988 -35.815002 -0.006569
-262.358185 258.424988 -35.815002 -0.007458
-248.874893 258.424988 -35.815002 -0.009360
-235.391602 258.424988 -35.815002 -0.006875
-221.908295 258.424988 -35.815002 -0.000769
-208.424988 258.424988 -35.815002 0.009624
-194.941696 258.424988 -35.815002 0.023628
-181.458389 258.424988 -35.815002 0.044586
-167.975098 258.424988 -35.815002 0.056128
-154.491791 258.424988 -35.815002 0.070583
-141.008499 258.424988 -35.815002 0.076079
-127.525192 258.424988 -35.815002 0.093002
-114.041885 258.424988 -35.815002 0.103119
-100.558594 258.424988 -35.815002 0.121036
-87.075287 258.424988 -35.815002 0.147728
-73.591980 258.424988 -35.815002 0.138115
-60.108704 258.424988 -35.815002 0.107460
-46.625397 258.424988 -35.815002 0.059461
-33.142090 258.424988 -35.815002 0.013555
-19.658783 258.424988 -35.815002 -0.020197
-6.175476 258.424988 -35.815002 -0.033332
7.307800 258.424988 -35.815002 -0.051721
20.791107 258.424988 -35.815002 -0.049320
34.274414 258.424988 -35.815002 -0.038242
47.757721 258.424988 -35.815002 -0.039559
61.240997 258.424988 -35.815002 -0.033911
74.724304 258.424988 -35.815002 -0.007557
88.207611 258.424988 -35.815002 -0.002872
101.690918 258.424988 -35.815002 -0.000344
115.174225 258.424988 -35.815002 -0.020838
128.657501 258.424988 -35.815002 -0.030274
142.140808 258.424988 -35.815002 -0.068130
155.624115 258.424988 -35.815002 -0.081253
169.107422 258.424988 -35.815002 -0.113606
182.590698 258.424988 -35.815002 -0.133482
196.074036 258.424988 -35.815002 -0.150188
209.557312 258.424988 -35.815002 -0.148324
223.040588 258.424988 -35.815002 -0.131959
236.523926 258.424988 -35.815002 -0.095680
250.007202 258.424988 -35.815002 -0.055024
263.490540 258.424988 -35.815002 -0.037819
276.973816 258.424988 -35.815002 -0.014057
290.457092 258.424988 -35.815002 -0.004342
303.940430 258.424988 -35.815002 -0.001279
317.423706 258.424988 -35.815002 0.000984
330.907043 258.424988 -35.815002 0.000000
344.390320 258.424988 -35.815002 0.000000
-343.257996 244.941696 -35.815002 0.000000
-329.774689 244.941696 -35.815002 0.000000
-316.291382 244.941696 -35.815002 -0.006127
-302.808105 244.941696 -35.815002 -0.007278
-289.324799 244.941696 -35.815002 -0.007470
-275.841492 244.941696 -35.815002 -0.008793
-262.358185 244.941696 -35.815002 -0.008899
-248.874893 244.941696 -35.815002 -0.010754
-235.391602 244.941696 -35.815002 -0.005152
-221.908295 244.941696 -35.815002 0.005314
-208.424988 244.941696 -35.815002 0.018099
-194.941696 244.941696 -35.815002 0.031718
-181.458389 244.941696 -35.815002 0.047276
-167.975098 244.941696 -35.815002 0.059329
-154.491791 244.941696 -35.815002 0.073647
-141.008499 244.941696 -35.815002 0.078773
-127.525192 244.941696 -35.815002 0.099128
-114.041885 244.941696 -35.815002 0.122559
-100.558594 244.941696 -35.815002 0.143953
-87.075287 244.941696 -35.815002 0.169138
-73.591980 244.941696 -35.815002 0.155200
-60.108704 244.941696 -35.815002 0.103714
-46.625397 244.941696 -35.815002 0.077093
-33.142090 244.941696 -35.815002 0.026667
-19.658783 244.941696 -35.815002 -0.015332
-6.175476 244.941696 -35.815002 -0.037036
7.307800 244.941696 -35.815002 -0.043641
20.791107 244.941696 -35.815002 -0.032336
34.274414 244.941696 -35.815002 -0.037791
47.757721 244.941696 -35.815002 -0.028805
61.240997 244.941696 -35.815002 -0.025794
74.724304 244.941696 -35.815002 -0.004493
88.207611 244.941696 -35.815002 0.008287
101.690918 244.941696 -35.815002 -0.015737
115.174225 244.941696 -35.815002 -0.039156
128.657501 244.941696 -35.815002 -0.050701
142.140808 244.941696 -35.815002 -0.076197
155.624115 244.941696 -35.815002 -0.101200
169.107422 244.941696 -35.815002 -0.124205
182.590698 244.941696 -35.815002 -0.133121
196.074036 244.941696 -35.815002 -0.146559
209.557312 244.941696 -35.815002 -0.155517
223.040588 244.941696 -35.815002 -0.116800
236.523926 244.941696 -35.815002 -0.092245
250.007202 244.941696 -35.815002 -0.060621
263.490540 244.941696 -35.815002 -0.030515
276.973816 244.941696 -35.815002 -0.009746
290.457092 244.941696 -35.815002 -0.002609
303.940430 244.941696 -35.815002 -0.000180
317.423706 244.941696 -35.815002 0.001786
330.907043 244.941696 -35.815002 0.000000
344.390320 244.941696 -35.815002 0.000000
-343.257996 231.458389 -35.815002 0.000000
-329.774689 231.458389 -35.815002 0.000000
-316.291382 231.458389 -35.815002 -0.006016
-302.808105 231.458389 -35.815002 -0.007833
-289.324799 231.458389 -35.815002 -0.010272
-275.841492 231.458389 -35.815002 -0.009458
-262.358185 231.458389 -35.815002 -0.009434
-248.874893 231.458389 -35.815002 -0.011888
-235.391602 231.458389 -35.815002 -0.008158
-221.908295 231.458389 -35.815002 0.011843
-208.424988 231.458389 -35.815002 0.028244
-194.941696 231.458389 -35.815002 0.038900
-181.458389 231.458389 -35.815002 0.049654
-167.975098 231.458389 -35.815002 0.065549
-154.491791 231.458389 -35.815002 0.071907
-141.008499 231.458389 -35.815002 0.088248
-127.525192 231.458389 -35.815002 0.095559
-114.041885 231.458389 -35.815002 0.133735
-100.558594 231.458389 -35.815002 0.166422
-87.075287 231.458389 -35.815002 0.180085
-73.591980 231.458389 -35.815002 0.167137
-60.108704 231.458389 -35.815002 0.117647
-46.625397 231.458389 -35.815002 0.081525
-33.142090 231.458389 -35.815002 0.050718
-19.658783 231.458389 -35.815002 0.000526
-6.175476 231.458389 -35.815002 -0.034076
7.307800 231.458389 -35.815002 -0.038341
20.791107 231.458389 -35.815002 -0.032434
34.274414 231.458389 -35.815002 -0.028151
47.757721 231.458389 -35.815002 -0.018511
61.240997 231.458389 -35.815002 -0.007468
74.724304 231.458389 -35.815002 -0.006302
88.207611 231.458389 -35.815002 -0.014841
101.690918 231.458389 -35.815002 -0.027927
115.174225 231.458389 -35.815002 -0.046359
128.657501 231.458389 -35.815002 -0.064526
142.140808 231.458389 -35.815002 -0.090828
155.624115 231.458389 -35.815002 -0.106174
169.107422 231.458389 -35.815002 -0.145245
182.590698 231.458389 -35.815002 -0.155308
196.074036 231.458389 -35.815002 -0.158449
209.557312 231.458389 -35.815002 -0.154189
223.040588 231.458389 -35.815002 -0.120925
236.523926 231.458389 -35.815002 -0.093694
250.007202 231.458389 -35.815002 -0.062236
263.490540 231.458389 -35.815002 -0.029280
276.973816 231.458389 -35.815002 -0.011048
290.457092 231.458389 -35.815002 -0.000450
303.940430 231.458389 -35.815002 0.002191
317.423706 231.458389 -35.815002 0.003346
330.907043 231.458389 -35.815002 0.000000
344.390320 231.458389 -35.815002 0.000000
-343.257996 217.975098 -35.815002 0.000000
-329.774689 217.975098 -35.815002 0.000000
-316.291382 217.975098 -35.815002 -0.005501
-302.808105 217.975098 -35.815002 -0.007704
-289.324799 217.975098 -35.815002 -0.010053
-275.841492 217.975098 -35.815002 -0.011903
-262.358185 217.975098 -35.815002 -0.014387
-248.874893 217.975098 -35.815002 -0.010728
-235.391602 217.975098 -35.815002 -0.005510
-221.908295 217.975098 -35.815002 0.012875
-208.424988 217.975098 -35.815002 0.030331
-194.941696 217.975098 -35.815002 0.043848
-181.458389 217.975098 -35.815002 0.052715
-167.975098 217.975098 -35.815002 0.076101
-154.491791 217.975098 -35.815002 0.082586
-141.008499 217.975098 -35.815002 0.098652
-127.525192 217.975098 -35.815002 0.119710
-114.041885 217.975098 -35.815002 0.157880
-100.558594 217.975098 -35.815002 0.188811
-87.075287 217.975098 -35.815002 0.193106
-73.591980 217.975098 -35.815002 0.167999
-60.108704 217.975098 -35.815002 0.124463
-46.625397 217.975098 -35.815002 0.084338
-33.142090 217.975098 -35.815002 0.042094
-19.658783 217.975098 -35.815002 0.008497
-6.175476 217.975098 -35.815002 -0.032894
7.307800 217.975098 -35.815002 -0.040287
20.791107 217.975098 -35.815002 -0.042690
34.274414 217.975098 -35.815002 -0.034525
47.757721 217.975098 -35.815002 -0.026899
61.240997 217.975098 -35.815002 -0.024224
74.724304 217.975098 -35.815002 -0.027256
88.207611 217.975098 -35.815002 -0.032602
101.690918 217.975098 -35.815002 -0.049050
115.174225 217.975098 -35.815002 -0.072958
128.657501 217.975098 -35.815002 -0.092902
142.140808 217.975098 -35.815002 -0.114077
155.624115 217.975098 -35.815002 -0.136678
169.107422 217.975098 -35.815002 -0.153687
182.590698 217.975098 -35.815002 -0.149432
196.074036 217.975098 -35.815002 -0.150497
209.557312 217.975098 -35.815002 -0.133537
223.040588 217.975098 -35.815002 -0.112048
236.523926 217.975098 -35.815002 -0.086135
250.007202 217.975098 -35.815002 -0.057319
263.490540 217.975098 -35.815002 -0.028191
276.973816 217.975098 -35.815002 -0.009411
290.457092 217.975098 -35.815002 -0.002999
303.940430 217.975098 -35.815002 0.001026
317.423706 217.975098 -35.815002 0.002368
330.907043 217.975098 -35.815002 0.000000
344.390320 217.975098 -35.815002 0.000000
-343.257996 204.491791 -35.815002 0.000000
-329.774689 204.491791 -35.815002 0.000000
-316.291382 204.491791 -35.815002 -0.004903
-302.808105 204.491791 -35.815002 -0.006371
-289.324799 204.491791 -35.815002 -0.009019
-275.841492 204.491791 -35.815002 -0.010086
-262.358185 204.491791 -35.815002 -0.012849
-248.874893 204.491791 -35.815002 -0.011611
-235.391602 204.491791 -35.815002 -0.002936
-221.908295 204.491791 -35.815002 0.020075
-208.424988 204.491791 -35.815002 0.036100
-194.941696 204.491791 -35.815002 0.053185
-181.458389 204.491791 -35.815002 0.061693
-167.975098 204.491791 -35.815002 0.086624
-154.491791 204.491791 -35.815002 0.093801
-141.008499 204.491791 -35.815002 0.125652
-127.525192 204.491791 -35.815002 0.148159
-114.041885 204.491791 -35.815002 0.172404
-100.558594 204.491791 -35.815002 0.208161
-87.075287 204.491791 -35.815002 0.212828
-73.591980 204.491791 -35.815002 0.173801
-60.108704 204.491791 -35.815002 0.128408
-46.625397 204.491791 -35.815002 0.081025
-33.142090 204.491791 -35.815002 0.026545
-19.658783 204.491791 -35.815002 -0.003357
-6.175476 204.491791 -35.815002 -0.042215
7.307800 204.491791 -35.815002 -0.054936
20.791107 204.491791 -35.815002 -0.055805
34.274414 204.491791 -35.815002 -0.049323
47.757721 204.491791 -35.815002 -0.032018
61.240997 204.491791 -35.815002 -0.033340
74.724304 204.491791 -35.815002 -0.040361
88.207611 204.491791 -35.815002 -0.059953
101.690918 204.491791 -35.815002 -0.070973
115.174225 204.491791 -35.815002 -0.101019
128.657501 204.491791 -35.815002 -0.124750
142.140808 204.491791 -35.815002 -0.137813
155.624115 204.491791 -35.815002 -0.141061
169.107422 204.491791 -35.815002 -0.139782
182.590698 204.491791 -35.815002 -0.132354
196.074036 204.491791 -35.815002 -0.120970
209.557312 204.491791 -35.815002 -0.112324
223.040588 204.491791 -35.815002 -0.089507
236.523926 204.491791 -35.815002 -0.064189
250.007202 204.491791 -35.815002 -0.036561
263.490540 204.491791 -35.815002 -0.014577
276.973816 204.491791 -35.815002 -0.003847
290.457092 204.491791 -35.815002 -0.001578
303.940430 204.491791 -35.815002 0.001146
317.423706 204.491791 -35.815002 0.000542
330.907043 204.491791 -35.815002 0.000000
344.390320 204.491791 -35.815002 0.000000
-343.257996 191.008499 -35.815002 0.000000
-329.774689 191.008499 -35.815002 0.000000
-316.291382 191.008499 -35.815002 -0.004108
-302.808105 191.008499 -35.815002 -0.005149
-289.324799 191.008499 -35.815002 -0.006379
-275.841492 191.008499 -35.815002 -0.008194
-262.358185 191.008499 -35.815002 -0.008509
-248.874893 191.008499 -35.815002 -0.009845
-235.391602 191.008499 -35.815002 0.004100
-221.908295 191.008499 -35.815002 0.023199
-208.424988 191.008499 -35.815002 0.042878
-194.941696 191.008499 -35.815002 0.060939
-181.458389 191.008499 -35.815002 0.074278
-167.975098 191.008499 -35.815002 0.091345
-154.491791 191.008499 -35.815002 0.128493
-141.008499 191.008499 -35.815002 0.165174
-127.525192 191.008499 -35.815002 0.192346
-114.041885 191.008499 -35.815002 0.216769
-100.558594 191.008499 -35.815002 0.243493
-87.075287 191.008499 -35.815002 0.227052
-73.591980 191.008499 -35.815002 0.194076
-60.108704 191.008499 -35.815002 0.140391
-46.625397 191.008499 -35.815002 0.076996
-33.142090 191.008499 -35.815002 0.027619
-19.658783 191.008499 -35.815002 -0.012301
-6.175476 191.008499 -35.815002 -0.054624
7.307800 191.008499 -35.815002 -0.056590
20.791107 191.008499 -35.815002 -0.056208
34.274414 191.008499 -35.815002 -0.048255
47.757721 191.008499 -35.815002 -0.056144
61.240997 191.008499 -35.815002 -0.056109
74.724304 191.008499 -35.815002 -0.077680
88.207611 191.008499 -35.815002 -0.093729
101.690918 191.008499 -35.815002 -0.103959
115.174225 191.008499 -35.815002 -0.124941
128.657501 191.008499 -35.815002 -0.144001
142.140808 191.008499 -35.815002 -0.147356
155.624115 191.008499 -35.815002 -0.136424
169.107422 191.008499 -35.815002 -0.123132
182.590698 191.008499 -35.815002 -0.114811
196.074036 191.008499 -35.815002 -0.100980
209.557312 191.008499 -35.815002 -0.089163
223.040588 191.008499 -35.815002 -0.059909
236.523926 191.008499 -35.815002 -0.043869
250.007202 191.008499 -35.815002 -0.022826
263.490540 191.008499 -35.815002 -0.008945
276.973816 191.008499 -35.815002 -0.004645
290.457092 191.008499 -35.815002 -0.000189
303.940430 191.008499 -35.815002 0.000215
317.423706 191.008499 -35.815002 -0.000324
330.907043 191.008499 -35.815002 0.000000
344.390320 191.008499 -35.815002 0.000000
-343.257996 177.525192 -35.815002 0.000000
-329.774689 177.525192 -35.815002 0.000000
-316.291382 177.525192 -35.815002 -0.003562
-302.808105 177.525192 -35.815002 -0.003921
-289.324799 177.525192 -35.815002 -0.005089
-275.841492 177.525192 -35.815002 -0.006128
-262.358185 177.525192 -35.815002 -0.004208
-248.874893 177.525192 -35.815002 -0.003316
-235.391602 177.525192 -35.815002 0.010664
-221.908295 177.525192 -35.815002 0.022424
-208.424988 177.525192 -35.815002 0.046684
-194.941696 177.525192 -35.815002 0.064924
-181.458389 177.525192 -35.815002 0.079717
-167.975098 177.525192 -35.815002 0.110161
-154.491791 177.525192 -35.815002 0.157728
-141.008499 177.525192 -35.815002 0.194251
-127.525192 177.525192 -35.815002 0.231693
-114.041885 177.525192 -35.815002 0.263230
-100.558594 177.525192 -35.815002 0.259839
-87.075287 177.525192 -35.815002 0.237859
-73.591980 177.525192 -35.815002 0.204670
-60.108704 177.525192 -35.815002 0.147679
-46.625397 177.525192 -35.815002 0.101761
-33.142090 177.525192 -35.815002 0.027661
-19.658783 177.525192 -35.815002 -0.018133
-6.175476 177.525192 -35.815002 -0.044857
7.307800 177.525192 -35.815002 -0.069740
20.791107 177.525192 -35.815002 -0.077079
34.274414 177.525192 -35.815002 -0.083632
47.757721 177.525192 -35.815002 -0.095554
61.240997 177.525192 -35.815002 -0.096792
74.724304 177.525192 -35.815002 -0.100603
88.207611 177.525192 -35.815002 -0.121846
101.690918 177.525192 -35.815002 -0.126015
115.174225 177.525192 -35.815002 -0.130997
128.657501 177.525192 -35.815002 -0.125393
142.140808 177.525192 -35.815002 -0.121834
155.624115 177.525192 -35.815002 -0.106852
169.107422 177.525192 -35.815002 -0.096941
182.590698 177.525192 -35.815002 -0.081029
196.074036 177.525192 -35.815002 -0.069308
209.557312 177.525192 -35.815002 -0.059079
223.040588 177.525192 -35.815002 -0.045502
236.523926 177.525192 -35.815002 -0.028146
250.007202 177.525192 -35.815002 -0.012333
263.490540 177.525192 -35.815002 -0.009258
276.973816 177.525192 -35.815002 -0.002348
290.457092 177.525192 -35.815002 0.000176
303.940430 177.525192 -35.815002 -0.000548
317.423706 177.525192 -35.815002 -0.001183
330.907043 177.525192 -35.815002 0.000000
344.390320 177.525192 -35.815002 0.000000
-343.257996 164.041885 -35.815002 0.000000
-329.774689 164.041885 -35.815002 0.000000
-316.291382 164.041885 -35.815002 -0.001872
-302.808105 164.041885 -35.815002 -0.003139
-289.324799 164.041885 -35.815002 -0.003592
-275.841492 164.041885 -35.815002 -0.002194
-262.358185 164.041885 -35.815002 0.001456
-248.874893 164.041885 -35.815002 0.005332
-235.391602 164.041885 -35.815002 0.013261
-221.908295 164.041885 -35.815002 0.028352
-208.424988 164.041885 -35.815002 0.048886
-194.941696 164.041885 -35.815002 0.081261
-181.458389 164.041885 -35.815002 0.115513
-167.975098 164.041885 -35.815002 0.148130
-154.491791 164.041885 -35.815002 0.209282
-141.008499 164.041885 -35.815002 0.254707
-127.525192 164.041885 -35.815002 0.266175
-114.041885 164.041885 -35.815002 0.265097
-100.558594 164.041885 -35.815002 0.277722
-87.075287 164.041885 -35.815002 0.244746
-73.591980 164.041885 -35.815002 0.200585
-60.108704 164.041885 -35.815002 0.133444
-46.625397 164.041885 -35.815002 0.078198
-33.142090 164.041885 -35.815002 0.012197
-19.658783 164.041885 -35.815002 -0.028490
-6.175476 164.041885 -35.815002 -0.056287
7.307800 164.041885 -35.815002 -0.090808
20.791107 164.041885 -35.815002 -0.110893
34.274414 164.041885 -35.815002 -0.125603
47.757721 164.041885 -35.815002 -0.134283
61.240997 164.041885 -35.815002 -0.139705
74.724304 164.041885 -35.815002 -0.132340
88.207611 164.041885 -35.815002 -0.129357
101.690918 164.041885 -35.815002 -0.117936
115.174225 164.041885 -35.815002 -0.115452
128.657501 164.041885 -35.815002 -0.105821
142.140808 164.041885 -35.815002 -0.095320
155.624115 164.041885 -35.815002 -0.084023
169.107422 164.041885 -35.815002 -0.072298
182.590698 164.041885 -35.815002 -0.054454
196.074036 164.041885 -35.815002 -0.041144
209.557312 164.041885 -35.815002 -0.033273
223.040588 164.041885 -35.815002 -0.024047
236.523926 164.041885 -35.815002 -0.014548
250.007202 164.041885 -35.815002 -0.004975
263.490540 164.041885 -35.815002 -0.004503
276.973816 164.041885 -35.815002 -0.001691
290.457092 164.041885 -35.815002 -0.000050
303.940430 164.041885 -35.815002 -0.000876
317.423706 164.041885 -35.815002 -0.001667
330.907043 164.041885 -35.815002 0.000000
344.390320 164.041885 -35.815002 0.000000
-343.257996 150.558594 -35.815002 0.000000
-329.774689 150.558594 -35.815002 0.000000
-316.291382 150.558594 -35.815002 -0.001588
-302.808105 150.558594 -35.815002 -0.001948
-289.324799 150.558594 -35.815002 -0.001469
-275.841492 150.558594 -35.815002 0.001545
-262.358185 150.558594 -35.815002 0.006869
-248.874893 150.558594 -35.815002 0.011657
-235.391602 150.558594 -35.815002 0.023168
-221.908295 150.558594 -35.815002 0.035469
-208.424988 150.558594 -35.815002 0.054072
-194.941696 150.558594 -35.815002 0.094596
-181.458389 150.558594 -35.815002 0.140126
-167.975098 150.558594 -35.815002 0.200747
-154.491791 150.558594 -35.815002 0.271087
-141.008499 150.558594 -35.815002 0.304635
-127.525192 150.558594 -35.815002 0.331116
-114.041885 150.558594 -35.815002 0.313786
-100.558594 150.558594 -35.815002 0.284569
-87.075287 150.558594 -35.815002 0.232988
-73.591980 150.558594 -35.815002 0.177932
-60.108704 150.558594 -35.815002 0.103903
-46.625397 150.558594 -35.815002 0.049169
-33.142090 150.558594 -35.815002 -0.003955
-19.658783 150.558594 -35.815002 -0.039449
-6.175476 150.558594 -35.815002 -0.062053
7.307800 150.558594 -35.815002 -0.108229
20.791107 150.558594 -35.815002 -0.131093
34.274414 150.558594 -35.815002 -0.146944
47.757721 150.558594 -35.815002 -0.164358
61.240997 150.558594 -35.815002 -0.164143
74.724304 150.558594 -35.815002 -0.150017
88.207611 150.558594 -35.815002 -0.141657
101.690918 150.558594 -35.815002 -0.124735
115.174225 150.558594 -35.815002 -0.107743
128.657501 150.558594 -35.815002 -0.079642
142.140808 150.558594 -35.815002 -0.072643
155.624115 150.558594 -35.815002 -0.057005
169.107422 150.558594 -35.815002 -0.042738
182.590698 150.558594 -35.815002 -0.033615
196.074036 150.558594 -35.815002 -0.027522
209.557312 150.558594 -35.815002 -0.017780
223.040588 150.558594 -35.815002 -0.012544
236.523926 150.558594 -35.815002 -0.008650
250.007202 150.558594 -35.815002 -0.006274
263.490540 150.558594 -35.815002 -0.003928
276.973816 150.558594 -35.815002 -0.002616
290.457092 150.558594 -35.815002 -0.000303
303.940430 150.558594 -35.815002 -0.001228
317.423706 150.558594 -35.815002 -0.001793
330.907043 150.558594 -35.815002 0.000000
344.390320 150.558594 -35.815002 0.000000
-343.257996 137.075287 -35.815002 0.000000
-329.774689 137.075287 -35.815002 0.000000
-316.291382 137.075287 -35.815002 -0.002148
-302.808105 137.075287 -35.815002 -0.002573
-289.324799 137.075287 -35.815002 -0.000296
-275.841492 137.075287 -35.815002 0.004582
-262.358185 137.075287 -35.815002 0.011225
-248.874893 137.075287 -35.815002 0.019257
-235.391602 137.075287 -35.815002 0.039020
-221.908295 137.075287 -35.815002 0.059513
-208.424988 137.075287 -35.815002 0.087886
-194.941696 137.075287 -35.815002 0.128888
-181.458389 137.075287 -35.815002 0.191582
-167.975098 137.075287 -35.815002 0.271374
-154.491791 137.075287 -35.815002 0.321611
-141.008499 137.075287 -35.815002 0.360689
-127.525192 137.075287 -35.815002 0.355130
-114.041885 137.075287 -35.815002 0.340022
-100.558594 137.075287 -35.815002 0.308448
-87.075287 137.075287 -35.815002 0.242681
-73.591980 137.075287 -35.815002 0.162780
-60.108704 137.075287 -35.815002 0.094962
-46.625397 137.075287 -35.815002 0.033553
-33.142090 137.075287 -35.815002 -0.018270
-19.658783 137.075287 -35.815002 -0.064682
-6.175476 137.075287 -35.815002 -0.085617
7.307800 137.075287 -35.815002 -0.116700
20.791107 137.075287 -35.815002 -0.139201
34.274414 137.075287 -35.815002 -0.178623
47.757721 137.075287 -35.815002 -0.171928
61.240997 137.075287 -35.815002 -0.169482
74.724304 137.075287 -35.815002 -0.154995
88.207611 137.075287 -35.815002 -0.132450
101.690918 137.075287 -35.815002 -0.114786
115.174225 137.075287 -35.815002 -0.087757
128.657501 137.075287 -35.815002 -0.063076
142.140808 137.075287 -35.815002 -0.046442
155.624115 137.075287 -35.815002 -0.046100
169.107422 137.075287 -35.815002 -0.033319
182.590698 137.075287 -35.815002 -0.023790
196.074036 137.075287 -35.815002 -0.015678
209.557312 137.075287 -35.815002 -0.012597
223.040588 137.075287 -35.815002 -0.008213
236.523926 137.075287 -35.815002 -0.005329
250.007202 137.075287 -35.815002 -0.003336
263.490540 137.075287 -35.815002 -0.003477
276.973816 137.075287 -35.815002 -0.002976
290.457092 137.075287 -35.815002 -0.000725
303.940430 137.075287 -35.815002 -0.001194
317.423706 137.075287 -35.815002 -0.001358
330.907043 137.075287 -35.815002 0.000000
344.390320 137.075287 -35.815002 0.000000
-343.257996 123.591980 -35.815002 0.000000
-329.774689 123.591980 -35.815002 0.000000
-316.291382 123.591980 -35.815002 -0.002557
-302.808105 123.591980 -35.815002 -0.001933
-289.324799 123.591980 -35.815002 0.000419
-275.841492 123.591980 -35.815002 0.007456
-262.358185 123.591980 -35.815002 0.016512
-248.874893 123.591980 -35.815002 0.031026
-235.391602 123.591980 -35.815002 0.057990
-221.908295 123.591980 -35.815002 0.089144
-208.424988 123.591980 -35.815002 0.116999
-194.941696 123.591980 -35.815002 0.174186
-181.458389 123.591980 -35.815002 0.253114
-167.975098 123.591980 -35.815002 0.339658
-154.491791 123.591980 -35.815002 0.387982
-141.008499 123.591980 -35.815002 0.403428
-127.525192 123.591980 -35.815002 0.401463
-114.041885 123.591980 -35.815002 0.378698
-100.558594 123.591980 -35.815002 0.331422
-87.075287 123.591980 -35.815002 0.248461
-73.591980 123.591980 -35.815002 0.145333
-60.108704 123.591980 -35.815002 0.090188
-46.625397 123.591980 -35.815002 0.019181
-33.142090 123.591980 -35.815002 -0.037288
-19.658783 123.591980 -35.815002 -0.075152
-6.175476 123.591980 -35.815002 -0.096743
7.307800 123.591980 -35.815002 -0.118413
20.791107 123.591980 -35.815002 -0.134854
34.274414 123.591980 -35.815002 -0.162591
47.757721 123.591980 -35.815002 -0.171383
61.240997 123.591980 -35.815002 -0.160580
74.724304 123.591980 -35.815002 -0.143809
88.207611 123.591980 -35.815002 -0.118601
101.690918 123.591980 -35.815002 -0.093889
115.174225 123.591980 -35.815002 -0.069949
128.657501 123.591980 -35.815002 -0.046746
142.140808 123.591980 -35.815002 -0.030055
155.624115 123.591980 -35.815002 -0.027156
169.107422 123.591980 -35.815002 -0.021478
182.590698 123.591980 -35.815002 -0.015251
196.074036 123.591980 -35.815002 -0.009331
209.557312 123.591980 -35.815002 -0.005452
223.040588 123.591980 -35.815002 -0.005018
236.523926 123.591980 -35.815002 -0.002600
250.007202 123.591980 -35.815002 -0.002334
263.490540 123.591980 -35.815002 -0.002159
276.973816 123.591980 -35.815002 -0.001706
290.457092 123.591980 -35.815002 -0.001391
303.940430 123.591980 -35.815002 -0.000917
317.423706 123.591980 -35.815002 -0.000460
330.907043 123.591980 -35.815002 0.000000
344.390320 123.591980 -35.815002 0.000000
-343.257996 110.108704 -35.815002 0.000000
-329.774689 110.108704 -35.815002 0.000000
-316.291382 110.108704 -35.815002 -0.002144
-302.808105 110.108704 -35.815002 -0.000336
-289.324799 110.108704 -35.815002 0.001724
-275.841492 110.108704 -35.815002 0.008942
-262.358185 110.108704 -35.815002 0.020308
-248.874893 110.108704 -35.815002 0.042224
-235.391602 110.108704 -35.815002 0.064313
-221.908295 110.108704 -35.815002 0.100321
-208.424988 110.108704 -35.815002 0.136449
-194.941696 110.108704 -35.815002 0.229010
-181.458389 110.108704 -35.815002 0.319398
-167.975098 110.108704 -35.815002 0.372880
-154.491791 110.108704 -35.815002 0.440679
-141.008499 110.108704 -35.815002 0.472370
-127.525192 110.108704 -35.815002 0.439629
-114.041885 110.108704 -35.815002 0.400367
-100.558594 110.108704 -35.815002 0.292828
-87.075287 110.108704 -35.815002 0.222413
-73.591980 110.108704 -35.815002 0.146253
-60.108704 110.108704 -35.815002 0.059392
-46.625397 110.108704 -35.815002 -0.005765
-33.142090 110.108704 -35.815002 -0.059722
-19.658783 110.108704 -35.815002 -0.090652
-6.175476 110.108704 -35.815002 -0.110037
7.307800 110.108704 -35.815002 -0.117729
20.791107 110.108704 -35.815002 -0.139634
34.274414 110.108704 -35.815002 -0.149095
47.757721 110.108704 -35.815002 -0.150086
61.240997 110.108704 -35.815002 -0.138730
74.724304 110.108704 -35.815002 -0.121084
88.207611 110.108704 -35.815002 -0.094074
101.690918 110.108704 -35.815002 -0.075726
115.174225 110.108704 -35.815002 -0.055738
128.657501 110.108704 -35.815002 -0.039222
142.140808 110.108704 -35.815002 -0.025928
155.624115 110.108704 -35.815002 -0.020215
169.107422 110.108704 -35.815002 -0.011463
182.590698 110.108704 -35.815002 -0.010044
196.074036 110.108704 -35.815002 -0.006755
209.557312 110.108704 -35.815002 -0.003496
223.040588 110.108704 -35.815002 -0.003568
236.523926 110.108704 -35.815002 -0.001952
250.007202 110.108704 -35.815002 -0.002193
263.490540 110.108704 -35.815002 -0.002285
276.973816 110.108704 -35.815002 -0.001807
290.457092 110.108704 -35.815002 -0.000829
303.940430 110.108704 -35.815002 -0.000440
317.423706 110.108704 -35.815002 -0.000260
330.907043 110.108704 -35.815002 0.000000
344.390320 110.108704 -35.815002 0.000000
-343.257996 96.625397 -35.815002 0.000000
-329.774689 96.625397 -35.815002 0.000000
-316.291382 96.625397 -35.815002 -0.001134
-302.808105 96.625397 -35.815002 0.000249
-289.324799 96.625397 -35.815002 0.004177
-275.841492 96.625397 -35.815002 0.010566
-262.358185 96.625397 -35.815002 0.025755
-248.874893 96.625397 -35.815002 0.047395
-235.391602 96.625397 -35.815002 0.071420
-221.908295 96.625397 -35.815002 0.123203
-208.424988 96.625397 -35.815002 0.160941
-194.941696 96.625397 -35.815002 0.267451
-181.458389 96.625397 -35.815002 0.331388
-167.975098 96.625397 -35.815002 0.428102
-154.491791 96.625397 -35.815002 0.505703
-141.008499 96.625397 -35.815002 0.514912
-127.525192 96.625397 -35.815002 0.463970
-114.041885 96.625397 -35.815002 0.358244
-100.558594 96.625397 -35.815002 0.277612
-87.075287 96.625397 -35.815002 0.189086
-73.591980 96.625397 -35.815002 0.107956
-60.108704 96.625397 -35.815002 0.033705
-46.625397 96.625397 -35.815002 -0.032981
-33.142090 96.625397 -35.815002 -0.075132
-19.658783 96.625397 -35.815002 -0.095301
-6.175476 96.625397 -35.815002 -0.114304
7.307800 96.625397 -35.815002 -0.123206
20.791107 96.625397 -35.815002 -0.151834
34.274414 96.625397 -35.815002 -0.142372
47.757721 96.625397 -35.815002 -0.153700
61.240997 96.625397 -35.815002 -0.121008
74.724304 96.625397 -35.815002 -0.092526
88.207611 96.625397 -35.815002 -0.071641
101.690918 96.625397 -35.815002 -0.057828
115.174225 96.625397 -35.815002 -0.038734
128.657501 96.625397 -35.815002 -0.029471
142.140808 96.625397 -35.815002 -0.021435
155.624115 96.625397 -35.815002 -0.015708
169.107422 96.625397 -35.815002 -0.011386
182.590698 96.625397 -35.815002 -0.006689
196.074036 96.625397 -35.815002 -0.004025
209.557312 96.625397 -35.815002 -0.002977
223.040588 96.625397 -35.815002 -0.001952
236.523926 96.625397 -35.815002 -0.001668
250.007202 96.625397 -35.815002 -0.002293
263.490540 96.625397 -35.815002 -0.002026
276.973816 96.625397 -35.815002 -0.001413
290.457092 96.625397 -35.815002 -0.000643
303.940430 96.625397 -35.815002 -0.000266
317.423706 96.625397 -35.815002 -0.000045
330.907043 96.625397 -35.815002 0.000000
344.390320 96.625397 -35.815002 0.000000
-343.257996 83.142090 -35.815002 0.000000
-329.774689 83.142090 -35.815002 0.000000
-316.291382 83.142090 -35.815002 -0.001106
-302.808105 83.142090 -35.815002 0.000318
-289.324799 83.142090 -35.815002 0.006350
-275.841492 83.142090 -35.815002 0.015000
-262.358185 83.142090 -35.815002 0.031389
-248.874893 83.142090 -35.815002 0.051840
-235.391602 83.142090 -35.815002 0.090901
-221.908295 83.142090 -35.815002 0.141784
-208.424988 83.142090 -35.815002 0.196919
-194.941696 83.142090 -35.815002 0.283453
-181.458389 83.142090 -35.815002 0.388601
-167.975098 83.142090 -35.815002 0.526095
-154.491791 83.142090 -35.815002 0.547509
-141.008499 83.142090 -35.815002 0.509461
-127.525192 83.142090 -35.815002 0.443935
-114.041885 83.142090 -35.815002 0.330694
-100.558594 83.142090 -35.815002 0.239791
-87.075287 83.142090 -35.815002 0.155039
-73.591980 83.142090 -35.815002 0.085147
-60.108704 83.142090 -35.815002 0.011844
-46.625397 83.142090 -35.815002 -0.055200
-33.142090 83.142090 -35.815002 -0.074126
-19.658783 83.142090 -35.815002 -0.089820
-6.175476 83.142090 -35.815002 -0.110898
7.307800 83.142090 -35.815002 -0.136857
20.791107 83.142090 -35.815002 -0.175817
34.274414 83.142090 -35.815002 -0.182976
47.757721 83.142090 -35.815002 -0.157095
61.240997 83.142090 -35.815002 -0.135339
74.724304 83.142090 -35.815002 -0.086446
88.207611 83.142090 -35.815002 -0.064521
101.690918 83.142090 -35.815002 -0.046927
115.174225 83.142090 -35.815002 -0.037904
128.657501 83.142090 -35.815002 -0.028087
142.140808 83.142090 -35.815002 -0.018749
155.624115 83.142090 -35.815002 -0.014326
169.107422 83.142090 -35.815002 -0.009705
182.590698 83.142090 -35.815002 -0.006615
196.074036 83.142090 -35.815002 -0.002683
209.557312 83.142090 -35.815002 -0.002955
223.040588 83.142090 -35.815002 -0.002041
236.523926 83.142090 -35.815002 -0.001558
250.007202 83.142090 -35.815002 -0.001719
263.490540 83.142090 -35.815002 -0.001365
276.973816 83.142090 -35.815002 -0.001008
290.457092 83.142090 -35.815002 -0.000559
303.940430 83.142090 -35.815002 -0.000097
317.423706 83.142090 -35.815002 0.000136
330.907043 83.142090 -35.815002 0.000000
344.390320 83.142090 -35.815002 0.000000
-343.257996 69.658783 -35.815002 0.000000
-329.774689 69.658783 -35.815002 0.000000
-316.291382 69.658783 -35.815002 -0.000697
-302.808105 69.658783 -35.815002 0.001128
-289.324799 69.658783 -35.815002 0.008019
-275.841492 69.658783 -35.815002 0.018195
-262.358185 69.658783 -35.815002 0.038457
-248.874893 69.658783 -35.815002 0.068795
-235.391602 69.658783 -35.815002 0.104191
-221.908295 69.658783 -35.815002 0.158903
-208.424988 69.658783 -35.815002 0.239005
-194.941696 69.658783 -35.815002 0.314150
-181.458389 69.658783 -35.815002 0.463817
-167.975098 69.658783 -35.815002 0.564290
-154.491791 69.658783 -35.815002 0.605422
-141.008499 69.658783 -35.815002 0.545222
-127.525192 69.658783 -35.815002 0.445070
-114.041885 69.658783 -35.815002 0.338468
-100.558594 69.658783 -35.815002 0.224626
-87.075287 69.658783 -35.815002 0.135514
-73.591980 69.658783 -35.815002 0.049292
-60.108704 69.658783 -35.815002 -0.010516
-46.625397 69.658783 -35.815002 -0.057349
-33.142090 69.658783 -35.815002 -0.083667
-19.658783 69.658783 -35.815002 -0.091008
-6.175476 69.658783 -35.815002 -0.119897
7.307800 69.658783 -35.815002 -0.154781
20.791107 69.658783 -35.815002 -0.195992
34.274414 69.658783 -35.815002 -0.206091
47.757721 69.658783 -35.815002 -0.183191
61.240997 69.658783 -35.815002 -0.154935
74.724304 69.658783 -35.815002 -0.099792
88.207611 69.658783 -35.815002 -0.065572
101.690918 69.658783 -35.815002 -0.047625
115.174225 69.658783 -35.815002 -0.036302
128.657501 69.658783 -35.815002 -0.024248
142.140808 69.658783 -35.815002 -0.018581
155.624115 69.658783 -35.815002 -0.013921
169.107422 69.658783 -35.815002 -0.010044
182.590698 69.658783 -35.815002 -0.007413
196.074036 69.658783 -35.815002 -0.003498
209.557312 69.658783 -35.815002 -0.002543
223.040588 69.658783 -35.815002 -0.001519
236.523926 69.658783 -35.815002 -0.001126
250.007202 69.658783 -35.815002 -0.000892
263.490540 69.658783 -35.815002 -0.001016
276.973816 69.658783 -35.815002 -0.000763
290.457092 69.658783 -35.815002 -0.000588
303.940430 69.658783 -35.815002 -0.000064
317.423706 69.658783 -35.815002 0.000233
330.907043 69.658783 -35.815002 0.000000
344.390320 69.658783 -35.815002 0.000000
-343.257996 56.175476 -35.815002 0.000000
-329.774689 56.175476 -35.815002 0.000000
-316.291382 56.175476 -35.815002 -0.000922
-302.808105 56.175476 -35.815002 0.002752
-289.324799 56.175476 -35.815002 0.008293
-275.841492 56.175476 -35.815002 0.024992
-262.358185 56.175476 -35.815002 0.046535
-248.874893 56.175476 -35.815002 0.083524
-235.391602 56.175476 -35.815002 0.127048
-221.908295 56.175476 -35.815002 0.188643
-208.424988 56.175476 -35.815002 0.269732
-194.941696 56.175476 -35.815002 0.364998
-181.458389 56.175476 -35.815002 0.496223
-167.975098 56.175476 -35.815002 0.609867
-154.491791 56.175476 -35.815002 0.612677
-141.008499 56.175476 -35.815002 0.548802
-127.525192 56.175476 -35.815002 0.430135
-114.041885 56.175476 -35.815002 0.257641
-100.558594 56.175476 -35.815002 0.157352
-87.075287 56.175476 -35.815002 0.085044
-73.591980 56.175476 -35.815002 0.031921
-60.108704 56.175476 -35.815002 -0.010405
-46.625397 56.175476 -35.815002 -0.056721
-33.142090 56.175476 -35.815002 -0.086325
-19.658783 56.175476 -35.815002 -0.096378
-6.175476 56.175476 -35.815002 -0.130686
7.307800 56.175476 -35.815002 -0.168276
20.791107 56.175476 -35.815002 -0.208156
34.274414 56.175476 -35.815002 -0.246546
47.757721 56.175476 -35.815002 -0.220179
61.240997 56.175476 -35.815002 -0.181938
74.724304 56.175476 -35.815002 -0.121102
88.207611 56.175476 -35.815002 -0.080258
101.690918 56.175476 -35.815002 -0.054648
115.174225 56.175476 -35.815002 -0.042447
128.657501 56.175476 -35.815002 -0.032284
142.140808 56.175476 -35.815002 -0.023615
155.624115 56.175476 -35.815002 -0.016141
169.107422 56.175476 -35.815002 -0.009983
182.590698 56.175476 -35.815002 -0.007346
196.074036 56.175476 -35.815002 -0.005490
209.557312 56.175476 -35.815002 -0.003007
223.040588 56.175476 -35.815002 -0.001903
236.523926 56.175476 -35.815002 -0.001230
250.007202 56.175476 -35.815002 -0.000949
263.490540 56.175476 -35.815002 -0.000784
276.973816 56.175476 -35.815002 -0.000553
290.457092 56.175476 -35.815002 -0.000185
303.940430 56.175476 -35.815002 0.000148
317.423706 56.175476 -35.815002 0.000231
330.907043 56.175476 -35.815002 0.000000
344.390320 56.175476 -35.815002 0.000000
-343.257996 42.692200 -35.815002 0.000000
-329.774689 42.692200 -35.815002 0.000000
-316.291382 42.692200 -35.815002 -0.000003
-302.808105 42.692200 -35.815002 0.002467
-289.324799 42.692200 -35.815002 0.009731
-275.841492 42.692200 -35.815002 0.029688
-262.358185 42.692200 -35.815002 0.051868
-248.874893 42.692200 -35.815002 0.092177
-235.391602 42.692200 -35.815002 0.143322
-221.908295 42.692200 -35.815002 0.212990
-208.424988 42.692200 -35.815002 0.306640
-194.941696 42.692200 -35.815002 0.407125
-181.458389 42.692200 -35.815002 0.536244
-167.975098 42.692200 -35.815002 0.596087
-154.491791 42.692200 -35.815002 0.611889
-141.008499 42.692200 -35.815002 0.518067
-127.525192 42.692200 -35.815002 0.348812
-114.041885 42.692200 -35.815002 0.223668
-100.558594 42.692200 -35.815002 0.150024
-87.075287 42.692200 -35.815002 0.071542
-73.591980 42.692200 -35.815002 0.024654
-60.108704 42.692200 -35.815002 -0.024704
-46.625397 42.692200 -35.815002 -0.058021
-33.142090 42.692200 -35.815002 -0.085601
-19.658783 42.692200 -35.815002 -0.092559
-6.175476 42.692200 -35.815002 -0.126938
7.307800 42.692200 -35.815002 -0.176921
20.791107 42.692200 -35.815002 -0.214711
34.274414 42.692200 -35.815002 -0.275513
47.757721 42.692200 -35.815002 -0.268279
61.240997 42.692200 -35.815002 -0.222322
74.724304 42.692200 -35.815002 -0.152845
88.207611 42.692200 -35.815002 -0.119054
101.690918 42.692200 -35.815002 -0.080347
115.174225 42.692200 -35.815002 -0.061187
128.657501 42.692200 -35.815002 -0.049336
142.140808 42.692200 -35.815002 -0.035874
155.624115 42.692200 -35.815002 -0.025408
169.107422 42.692200 -35.815002 -0.016159
182.590698 42.692200 -35.815002 -0.009214
196.074036 42.692200 -35.815002 -0.005403
209.557312 42.692200 -35.815002 -0.003208
223.040588 42.692200 -35.815002 -0.001145
236.523926 42.692200 -35.815002 -0.000881
250.007202 42.692200 -35.815002 -0.000354
263.490540 42.692200 -35.815002 -0.000309
276.973816 42.692200 -35.815002 -0.000409
290.457092 42.692200 -35.815002 -0.000007
303.940430 42.692200 -35.815002 0.000351
317.423706 42.692200 -35.815002 0.000293
330.907043 42.692200 -35.815002 0.000000
344.390320 42.692200 -35.815002 0.000000
-343.257996 29.208893 -35.815002 0.000000
-329.774689 29.208893 -35.815002 0.000000
-316.291382 29.208893 -35.815002 -0.000365
-302.808105 29.208893 -35.815002 0.005397
-289.324799 29.208893 -35.815002 0.013813
-275.841492 29.208893 -35.815002 0.033827
-262.358185 29.208893 -35.815002 0.060626
-248.874893 29.208893 -35.815002 0.104886
-235.391602 29.208893 -35.815002 0.159803
-221.908295 29.208893 -35.815002 0.233372
-208.424988 29.208893 -35.815002 0.344007
-194.941696 29.208893 -35.815002 0.479153
-181.458389 29.208893 -35.815002 0.569684
-167.975098 29.208893 -35.815002 0.586321
-154.491791 29.208893 -35.815002 0.529510
-141.008499 29.208893 -35.815002 0.408109
-127.525192 29.208893 -35.815002 0.276598
-114.041885 29.208893 -35.815002 0.175800
-100.558594 29.208893 -35.815002 0.106423
-87.075287 29.208893 -35.815002 0.045104
-73.591980 29.208893 -35.815002 0.002106
-60.108704 29.208893 -35.815002 -0.031513
-46.625397 29.208893 -35.815002 -0.058256
-33.142090 29.208893 -35.815002 -0.081022
-19.658783 29.208893 -35.815002 -0.113797
-6.175476 29.208893 -35.815002 -0.143687
7.307800 29.208893 -35.815002 -0.193900
20.791107 29.208893 -35.815002 -0.242793
34.274414 29.208893 -35.815002 -0.280299
47.757721 29.208893 -35.815002 -0.283392
61.240997 29.208893 -35.815002 -0.253934
74.724304 29.208893 -35.815002 -0.188228
88.207611 29.208893 -35.815002 -0.142720
101.690918 29.208893 -35.815002 -0.105909
115.174225 29.208893 -35.815002 -0.085740
128.657501 29.208893 -35.815002 -0.072156
142.140808 29.208893 -35.815002 -0.060613
155.624115 29.208893 -35.815002 -0.043409
169.107422 29.208893 -35.815002 -0.025099
182.590698 29.208893 -35.815002 -0.014939
196.074036 29.208893 -35.815002 -0.008018
209.557312 29.208893 -35.815002 -0.004789
223.040588 29.208893 -35.815002 -0.001072
236.523926 29.208893 -35.815002 -0.000134
250.007202 29.208893 -35.815002 0.000004
263.490540 29.208893 -35.815002 -0.000415
276.973816 29.208893 -35.815002 -0.000245
290.457092 29.208893 -35.815002 0.000087
303.940430 29.208893 -35.815002 0.000472
317.423706 29.208893 -35.815002 0.000308
330.907043 29.208893 -35.815002 0.000000
344.390320 29.208893 -35.815002 0.000000
-343.257996 15.725586 -35.815002 0.000000
-329.774689 15.725586 -35.815002 0.000000
-316.291382 15.725586 -35.815002 -0.001025
-302.808105 15.725586 -35.815002 0.005913
-289.324799 15.725586 -35.815002 0.016557
-275.841492 15.725586 -35.815002 0.037198
-262.358185 15.725586 -35.815002 0.065704
-248.874893 15.725586 -35.815002 0.110751
-235.391602 15.725586 -35.815002 0.173543
-221.908295 15.725586 -35.815002 0.275421
-208.424988 15.725586 -35.815002 0.356240
-194.941696 15.725586 -35.815002 0.461172
-181.458389 15.725586 -35.815002 0.553712
-167.975098 15.725586 -35.815002 0.527125
-154.491791 15.725586 -35.815002 0.451252
-141.008499 15.725586 -35.815002 0.309721
-127.525192 15.725586 -35.815002 0.215076
-114.041885 15.725586 -35.815002 0.147676
-100.558594 15.725586 -35.815002 0.102243
-87.075287 15.725586 -35.815002 0.034688
-73.591980 15.725586 -35.815002 -0.001133
-60.108704 15.725586 -35.815002 -0.039463
-46.625397 15.725586 -35.815002 -0.055088
-33.142090 15.725586 -35.815002 -0.074312
-19.658783 15.725586 -35.815002 -0.119591
-6.175476 15.725586 -35.815002 -0.157201
7.307800 15.725586 -35.815002 -0.199682
20.791107 15.725586 -35.815002 -0.252903
34.274414 15.725586 -35.815002 -0.293387
47.757721 15.725586 -35.815002 -0.300577
61.240997 15.725586 -35.815002 -0.256042
74.724304 15.725586 -35.815002 -0.194077
88.207611 15.725586 -35.815002 -0.151361
101.690918 15.725586 -35.815002 -0.107931
115.174225 15.725586 -35.815002 -0.098492
128.657501 15.725586 -35.815002 -0.082250
142.140808 15.725586 -35.815002 -0.078728
155.624115 15.725586 -35.815002 -0.056607
169.107422 15.725586 -35.815002 -0.038246
182.590698 15.725586 -35.815002 -0.022449
196.074036 15.725586 -35.815002 -0.011465
209.557312 15.725586 -35.815002 -0.005685
223.040588 15.725586 -35.815002 -0.001940
236.523926 15.725586 -35.815002 -0.000753
250.007202 15.725586 -35.815002 -0.000214
263.490540 15.725586 -35.815002 -0.000120
276.973816 15.725586 -35.815002 -0.000416
290.457092 15.725586 -35.815002 0.000175
303.940430 15.725586 -35.815002 0.000153
317.423706 15.725586 -35.815002 0.000475
330.907043 15.725586 -35.815002 0.000000
344.390320 15.725586 -35.815002 0.000000
-343.257996 2.242279 -35.815002 0.000000
-329.774689 2.242279 -35.815002 0.000000
-316.291382 2.242279 -35.815002 -0.001995
-302.808105 2.242279 -35.815002 0.005751
-289.324799 2.242279 -35.815002 0.016619
-275.841492 2.242279 -35.815002 0.040523
-262.358185 2.242279 -35.815002 0.073719
-248.874893 2.242279 -35.815002 0.126724
-235.391602 2.242279 -35.815002 0.191039
-221.908295 2.242279 -35.815002 0.265847
-208.424988 2.242279 -35.815002 0.343332
-194.941696 2.242279 -35.815002 0.437156
-181.458389 2.242279 -35.815002 0.509085
-167.975098 2.242279 -35.815002 0.456477
-154.491791 2.242279 -35.815002 0.393637
-141.008499 2.242279 -35.815002 0.272157
-127.525192 2.242279 -35.815002 0.167354
-114.041885 2.242279 -35.815002 0.106685
-100.558594 2.242279 -35.815002 0.064504
-87.075287 2.242279 -35.815002 0.028838
-73.591980 2.242279 -35.815002 0.000021
-60.108704 2.242279 -35.815002 -0.025845
-46.625397 2.242279 -35.815002 -0.052878
-33.142090 2.242279 -35.815002 -0.076506
-19.658783 2.242279 -35.815002 -0.117919
-6.175476 2.242279 -35.815002 -0.166552
7.307800 2.242279 -35.815002 -0.224095
20.791107 2.242279 -35.815002 -0.264251
34.274414 2.242279 -35.815002 -0.315982
47.757721 2.242279 -35.815002 -0.309989
61.240997 2.242279 -35.815002 -0.246033
74.724304 2.242279 -35.815002 -0.203320
88.207611 2.242279 -35.815002 -0.140740
101.690918 2.242279 -35.815002 -0.092100
115.174225 2.242279 -35.815002 -0.077133
128.657501 2.242279 -35.815002 -0.070385
142.140808 2.242279 -35.815002 -0.064384
155.624115 2.242279 -35.815002 -0.063667
169.107422 2.242279 -35.815002 -0.043446
182.590698 2.242279 -35.815002 -0.029435
196.074036 2.242279 -35.815002 -0.014429
209.557312 2.242279 -35.815002 -0.006289
223.040588 2.242279 -35.815002 -0.002296
236.523926 2.242279 -35.815002 0.000068
250.007202 2.242279 -35.815002 0.000144
263.490540 2.242279 -35.815002 -0.000046
276.973816 2.242279 -35.815002 -0.000322
290.457092 2.242279 -35.815002 -0.000394
303.940430 2.242279 -35.815002 0.000034
317.423706 2.242279 -35.815002 0.000095
330.907043 2.242279 -35.815002 0.000000
344.390320 2.242279 -35.815002 0.000000
-343.257996 -11.240997 -35.815002 0.000000
-329.774689 -11.240997 -35.815002 0.000000
-316.291382 -11.240997 -35.815002 -0.002222
-302.808105 -11.240997 -35.815002 0.004867
-289.324799 -11.240997 -35.815002 0.013393
-275.841492 -11.240997 -35.815002 0.038924
-262.358185 -11.240997 -35.815002 0.070422
-248.874893 -11.240997 -35.815002 0.117838
-235.391602 -11.240997 -35.815002 0.186406
-221.908295 -11.240997 -35.815002 0.251346
-208.424988 -11.240997 -35.815002 0.355247
-194.941696 -11.240997 -35.815002 0.434117
-181.458389 -11.240997 -35.815002 0.439974
-167.975098 -11.240997 -35.815002 0.397439
-154.491791 -11.240997 -35.815002 0.315900
-141.008499 -11.240997 -35.815002 0.234538
-127.525192 -11.240997 -35.815002 0.146080
-114.041885 -11.240997 -35.815002 0.091464
-100.558594 -11.240997 -35.815002 0.061059
-87.075287 -11.240997 -35.815002 0.034263
-73.591980 -11.240997 -35.815002 -0.004386
-60.108704 -11.240997 -35.815002 -0.041698
-46.625397 -11.240997 -35.815002 -0.055272
-33.142090 -11.240997 -35.815002 -0.073487
-19.658783 -11.240997 -35.815002 -0.116052
-6.175476 -11.240997 -35.815002 -0.162264
7.307800 -11.240997 -35.815002 -0.211787
20.791107 -11.240997 -35.815002 -0.285734
34.274414 -11.240997 -35.815002 -0.313325
47.757721 -11.240997 -35.815002 -0.274401
61.240997 -11.240997 -35.815002 -0.222405
74.724304 -11.240997 -35.815002 -0.169384
88.207611 -11.240997 -35.815002 -0.103469
101.690918 -11.240997 -35.815002 -0.065824
115.174225 -11.240997 -35.815002 -0.055343
128.657501 -11.240997 -35.815002 -0.055601
142.140808 -11.240997 -35.815002 -0.048998
155.624115 -11.240997 -35.815002 -0.050683
169.107422 -11.240997 -35.815002 -0.043940
182.590698 -11.240997 -35.815002 -0.031572
196.074036 -11.240997 -35.815002 -0.017552
209.557312 -11.240997 -35.815002 -0.006446
223.040588 -11.240997 -35.815002 -0.001058
236.523926 -11.240997 -35.815002 0.001791
250.007202 -11.240997 -35.815002 0.001292
263.490540 -11.240997 -35.815002 0.000341
276.973816 -11.240997 -35.815002 -0.000426
290.457092 -11.240997 -35.815002 0.000135
303.940430 -11.240997 -35.815002 0.000282
317.423706 -11.240997 -35.815002 -0.000038
330.907043 -11.240997 -35.815002 0.000000
344.390320 -11.240997 -35.815002 0.000000
-343.257996 -24.724304 -35.815002 0.000000
-329.774689 -24.724304 -35.815002 0.000000
-316.291382 -24.724304 -35.815002 -0.006368
-302.808105 -24.724304 -35.815002 0.000368
-289.324799 -24.724304 -35.815002 0.014204
-275.841492 -24.724304 -35.815002 0.027751
-262.358185 -24.724304 -35.815002 0.068677
-248.874893 -24.724304 -35.815002 0.097108
-235.391602 -24.724304 -35.815002 0.184397
-221.908295 -24.724304 -35.815002 0.271113
-208.424988 -24.724304 -35.815002 0.319742
-194.941696 -24.724304 -35.815002 0.418038
-181.458389 -24.724304 -35.815002 0.398117
-167.975098 -24.724304 -35.815002 0.343960
-154.491791 -24.724304 -35.815002 0.271141
-141.008499 -24.724304 -35.815002 0.188263
-127.525192 -24.724304 -35.815002 0.106739
-114.041885 -24.724304 -35.815002 0.078721
-100.558594 -24.724304 -35.815002 0.058641
-87.075287 -24.724304 -35.815002 0.025954
-73.591980 -24.724304 -35.815002 -0.007825
-60.108704 -24.724304 -35.815002 -0.043829
-46.625397 -24.724304 -35.815002 -0.073586
-33.142090 -24.724304 -35.815002 -0.089680
-19.658783 -24.724304 -35.815002 -0.135131
-6.175476 -24.724304 -35.815002 -0.172959
7.307800 -24.724304 -35.815002 -0.239188
20.791107 -24.724304 -35.815002 -0.281711
34.274414 -24.724304 -35.815002 -0.305941
47.757721 -24.724304 -35.815002 -0.248584
61.240997 -24.724304 -35.815002 -0.178938
74.724304 -24.724304 -35.815002 -0.118276
88.207611 -24.724304 -35.815002 -0.073381
101.690918 -24.724304 -35.815002 -0.043708
115.174225 -24.724304 -35.815002 -0.034868
128.657501 -24.724304 -35.815002 -0.041247
142.140808 -24.724304 -35.815002 -0.041167
155.624115 -24.724304 -35.815002 -0.039548
169.107422 -24.724304 -35.815002 -0.040020
182.590698 -24.724304 -35.815002 -0.031765
196.074036 -24.724304 -35.815002 -0.016789
209.557312 -24.724304 -35.815002 -0.005711
223.040588 -24.724304 -35.815002 -0.000385
236.523926 -24.724304 -35.815002 0.001723
250.007202 -24.724304 -35.815002 0.001719
263.490540 -24.724304 -35.815002 0.001177
276.973816 -24.724304 -35.815002 0.000580
290.457092 -24.724304 -35.815002 0.000418
303.940430 -24.724304 -35.815002 0.000772
317.423706 -24.724304 -35.815002 0.000333
330.907043 -24.724304 -35.815002 0.000000
344.390320 -24.724304 -35.815002 0.000000
-343.257996 -38.207611 -35.815002 0.000000
-329.774689 -38.207611 -35.815002 0.000000
-316.291382 -38.207611 -35.815002 -0.010042
-302.808105 -38.207611 -35.815002 0.000263
-289.324799 -38.207611 -35.815002 0.016270
-275.841492 -38.207611 -35.815002 0.032178
-262.358185 -38.207611 -35.815002 0.072146
-248.874893 -38.207611 -35.815002 0.138496
-235.391602 -38.207611 -35.815002 0.233765
-221.908295 -38.207611 -35.815002 0.274392
-208.424988 -38.207611 -35.815002 0.326066
-194.941696 -38.207611 -35.815002 0.355608
-181.458389 -38.207611 -35.815002 0.355701
-167.975098 -38.207611 -35.815002 0.285649
-154.491791 -38.207611 -35.815002 0.238087
-141.008499 -38.207611 -35.815002 0.152693
-127.525192 -38.207611 -35.815002 0.108161
-114.041885 -38.207611 -35.815002 0.065212
-100.558594 -38.207611 -35.815002 0.051437
-87.075287 -38.207611 -35.815002 0.015403
-73.591980 -38.207611 -35.815002 -0.028472
-60.108704 -38.207611 -35.815002 -0.054657
-46.625397 -38.207611 -35.815002 -0.087211
-33.142090 -38.207611 -35.815002 -0.120774
-19.658783 -38.207611 -35.815002 -0.161939
-6.175476 -38.207611 -35.815002 -0.206375
7.307800 -38.207611 -35.815002 -0.249570
20.791107 -38.207611 -35.815002 -0.274146
34.274414 -38.207611 -35.815002 -0.271580
47.757721 -38.207611 -35.815002 -0.203088
61.240997 -38.207611 -35.815002 -0.127323
74.724304 -38.207611 -35.815002 -0.077506
88.207611 -38.207611 -35.815002 -0.047531
101.690918 -38.207611 -35.815002 -0.026098
115.174225 -38.207611 -35.815002 -0.025492
128.657501 -38.207611 -35.815002 -0.028694
142.140808 -38.207611 -35.815002 -0.031868
155.624115 -38.207611 -35.815002 -0.042606
169.107422 -38.207611 -35.815002 -0.044809
182.590698 -38.207611 -35.815002 -0.033647
196.074036 -38.207611 -35.815002 -0.019547
209.557312 -38.207611 -35.815002 -0.009491
223.040588 -38.207611 -35.815002 -0.000691
236.523926 -38.207611 -35.815002 0.001548
250.007202 -38.207611 -35.815002 0.002119
263.490540 -38.207611 -35.815002 0.002326
276.973816 -38.207611 -35.815002 0.002019
290.457092 -38.207611 -35.815002 0.001351
303.940430 -38.207611 -35.815002 0.001139
317.423706 -38.207611 -35.815002 0.001128
330.907043 -38.207611 -35.815002 0.000000
344.390320 -38.207611 -35.815002 0.000000
-343.257996 -51.690918 -35.815002 0.000000
-329.774689 -51.690918 -35.815002 0.000000
-316.291382 -51.690918 -35.815002 0.000000
-302.808105 -51.690918 -35.815002 -0.008811
-289.324799 -51.690918 -35.815002 0.010196
-275.841492 -51.690918 -35.815002 0.035691
-262.358185 -51.690918 -35.815002 0.077516
-248.874893 -51.690918 -35.815002 0.137410
-235.391602 -51.690918 -35.815002 0.237640
-221.908295 -51.690918 -35.815002 0.286132
-208.424988 -51.690918 -35.815002 0.337654
-194.941696 -51.690918 -35.815002 0.323359
-181.458389 -51.690918 -35.815002 0.329964
-167.975098 -51.690918 -35.815002 0.252920
-154.491791 -51.690918 -35.815002 0.196345
-141.008499 -51.690918 -35.815002 0.123886
-127.525192 -51.690918 -35.815002 0.081101
-114.041885 -51.690918 -35.815002 0.054730
-100.558594 -51.690918 -35.815002 0.017633
-87.075287 -51.690918 -35.815002 -0.003623
-73.591980 -51.690918 -35.815002 -0.038921
-60.108704 -51.690918 -35.815002 -0.059860
-46.625397 -51.690918 -35.815002 -0.096799
-33.142090 -51.690918 -35.815002 -0.135471
-19.658783 -51.690918 -35.815002 -0.190065
-6.175476 -51.690918 -35.815002 -0.224276
7.307800 -51.690918 -35.815002 -0.249279
20.791107 -51.690918 -35.815002 -0.238481
34.274414 -51.690918 -35.815002 -0.221326
47.757721 -51.690918 -35.815002 -0.156408
61.240997 -51.690918 -35.815002 -0.092811
74.724304 -51.690918 -35.815002 -0.059844
88.207611 -51.690918 -35.815002 -0.035794
101.690918 -51.690918 -35.815002 -0.020217
115.174225 -51.690918 -35.815002 -0.019363
128.657501 -51.690918 -35.815002 -0.025574
142.140808 -51.690918 -35.815002 -0.025295
155.624115 -51.690918 -35.815002 -0.037668
169.107422 -51.690918 -35.815002 -0.044866
182.590698 -51.690918 -35.815002 -0.041692
196.074036 -51.690918 -35.815002 -0.027577
209.557312 -51.690918 -35.815002 -0.013728
223.040588 -51.690918 -35.815002 -0.003596
236.523926 -51.690918 -35.815002 -0.000229
250.007202 -51.690918 -35.815002 0.001866
263.490540 -51.690918 -35.815002 0.002205
276.973816 -51.690918 -35.815002 0.001860
290.457092 -51.690918 -35.815002 0.001512
303.940430 -51.690918 -35.815002 0.001819
317.423706 -51.690918 -35.815002 0.001616
330.907043 -51.690918 -35.815002 0.000000
344.390320 -51.690918 -35.815002 0.000000
-343.257996 -65.174225 -35.815002 0.000000
-329.774689 -65.174225 -35.815002 0.000000
-316.291382 -65.174225 -35.815002 0.000000
-302.808105 -65.174225 -35.815002 0.000000
-289.324799 -65.174225 -35.815002 0.000000
-275.841492 -65.174225 -35.815002 0.000000
-262.358185 -65.174225 -35.815002 0.000000
-248.874893 -65.174225 -35.815002 0.000000
-235.391602 -65.174225 -35.815002 0.000000
-221.908295 -65.174225 -35.815002 0.255319
-208.424988 -65.174225 -35.815002 0.295559
-194.941696 -65.174225 -35.815002 0.269289
-181.458389 -65.174225 -35.815002 0.276260
-167.975098 -65.174225 -35.815002 0.212541
-154.491791 -65.174225 -35.815002 0.153436
-141.008499 -65.174225 -35.815002 0.129291
-127.525192 -65.174225 -35.815002 0.061243
-114.041885 -65.174225 -35.815002 0.049413
-100.558594 -65.174225 -35.815002 -0.001895
-87.075287 -65.174225 -35.815002 -0.034649
-73.591980 -65.174225 -35.815002 -0.063076
-60.108704 -65.174225 -35.815002 -0.071170
-46.625397 -65.174225 -35.815002 -0.116804
-33.142090 -65.174225 -35.815002 -0.162098
-19.658783 -65.174225 -35.815002 -0.185776
-6.175476 -65.174225 -35.815002 -0.216199
7.307800 -65.174225 -35.815002 -0.239210
20.791107 -65.174225 -35.815002 -0.214999
34.274414 -65.174225 -35.815002 -0.173594
47.757721 -65.174225 -35.815002 -0.121032
61.240997 -65.174225 -35.815002 -0.064802
74.724304 -65.174225 -35.815002 -0.042948
88.207611 -65.174225 -35.815002 -0.026592
101.690918 -65.174225 -35.815002 -0.018550
115.174225 -65.174225 -35.815002 -0.018916
128.657501 -65.174225 -35.815002 -0.015377
142.140808 -65.174225 -35.815002 -0.019499
155.624115 -65.174225 -35.815002 -0.029784
169.107422 -65.174225 -35.815002 -0.036883
182.590698 -65.174225 -35.815002 -0.040593
196.074036 -65.174225 -35.815002 -0.030938
209.557312 -65.174225 -35.815002 -0.016458
223.040588 -65.174225 -35.815002 -0.006871
236.523926 -65.174225 -35.815002 -0.000635
250.007202 -65.174225 -35.815002 -0.000418
263.490540 -65.174225 -35.815002 0.001474
276.973816 -65.174225 -35.815002 0.001822
290.457092 -65.174225 -35.815002 0.000934
303.940430 -65.174225 -35.815002 0.001608
317.423706 -65.174225 -35.815002 0.001963
330.907043 -65.174225 -35.815002 0.000000
344.390320 -65.174225 -35.815002 0.000000
-343.257996 -78.657501 -35.815002 0.000000
-329.774689 -78.657501 -35.815002 0.000000
-316.291382 -78.657501 -35.815002 0.000000
-302.808105 -78.657501 -35.815002 0.000000
-289.324799 -78.657501 -35.815002 0.000000
-275.841492 -78.657501 -35.815002 0.000000
-262.358185 -78.657501 -35.815002 0.000000
-248.874893 -78.657501 -35.815002 0.000000
-235.391602 -78.657501 -35.815002 0.000000
-221.908295 -78.657501 -35.815002 0.000000
-208.424988 -78.657501 -35.815002 0.270052
-194.941696 -78.657501 -35.815002 0.000000
-181.458389 -78.657501 -35.815002 0.000000
-167.975098 -78.657501 -35.815002 0.183986
-154.491791 -78.657501 -35.815002 0.168741
-141.008499 -78.657501 -35.815002 0.121860
-127.525192 -78.657501 -35.815002 0.083713
-114.041885 -78.657501 -35.815002 0.030731
-100.558594 -78.657501 -35.815002 -0.021082
-87.075287 -78.657501 -35.815002 -0.043760
-73.591980 -78.657501 -35.815002 -0.056369
-60.108704 -78.657501 -35.815002 -0.098625
-46.625397 -78.657501 -35.815002 -0.112855
-33.142090 -78.657501 -35.815002 -0.150917
-19.658783 -78.657501 -35.815002 -0.172708
-6.175476 -78.657501 -35.815002 -0.180915
7.307800 -78.657501 -35.815002 -0.190892
20.791107 -78.657501 -35.815002 -0.155229
34.274414 -78.657501 -35.815002 -0.118541
47.757721 -78.657501 -35.815002 -0.075939
61.240997 -78.657501 -35.815002 -0.045962
74.724304 -78.657501 -35.815002 -0.026905
88.207611 -78.657501 -35.815002 -0.018279
101.690918 -78.657501 -35.815002 -0.014180
115.174225 -78.657501 -35.815002 -0.013711
128.657501 -78.657501 -35.815002 -0.013417
142.140808 -78.657501 -35.815002 -0.015092
155.624115 -78.657501 -35.815002 -0.026777
169.107422 -78.657501 -35.815002 -0.033079
182.590698 -78.657501 -35.815002 -0.041952
196.074036 -78.657501 -35.815002 -0.037666
209.557312 -78.657501 -35.815002 -0.019404
223.040588 -78.657501 -35.815002 -0.013076
236.523926 -78.657501 -35.815002 -0.005020
250.007202 -78.657501 -35.815002 -0.001057
263.490540 -78.657501 -35.815002 0.000202
276.973816 -78.657501 -35.815002 0.000942
290.457092 -78.657501 -35.815002 0.001283
303.940430 -78.657501 -35.815002 0.000884
317.423706 -78.657501 -35.815002 0.001267
330.907043 -78.657501 -35.815002 0.000000
344.390320 -78.657501 -35.815002 0.000000
-343.257996 -92.140808 -35.815002 0.000000
-329.774689 -92.140808 -35.815002 0.000000
-316.291382 -92.140808 -35.815002 0.000000
-302.808105 -92.140808 -35.815002 0.000000
-289.324799 -92.140808 -35.815002 0.000000
-275.841492 -92.140808 -35.815002 0.000000
-262.358185 -92.140808 -35.815002 0.000000
-248.874893 -92.140808 -35.815002 0.000000
-235.391602 -92.140808 -35.815002 0.000000
-221.908295 -92.140808 -35.815002 0.000000
-208.424988 -92.140808 -35.815002 0.000000
-194.941696 -92.140808 -35.815002 0.000000
-181.458389 -92.140808 -35.815002 0.211024
-167.975098 -92.140808 -35.815002 0.000000
-154.491791 -92.140808 -35.815002 0.156722
-141.008499 -92.140808 -35.815002 0.126655
-127.525192 -92.140808 -35.815002 0.085959
-114.041885 -92.140808 -35.815002 0.040760
-100.558594 -92.140808 -35.815002 0.014342
-87.075287 -92.140808 -35.815002 -0.035604
-73.591980 -92.140808 -35.815002 -0.055594
-60.108704 -92.140808 -35.815002 -0.080356
-46.625397 -92.140808 -35.815002 -0.106120
-33.142090 -92.140808 -35.815002 -0.140757
-19.658783 -92.140808 -35.815002 -0.144651
-6.175476 -92.140808 -35.815002 -0.139006
7.307800 -92.140808 -35.815002 -0.139743
20.791107 -92.140808 -35.815002 -0.103077
34.274414 -92.140808 -35.815002 -0.075172
47.757721 -92.140808 -35.815002 -0.044602
61.240997 -92.140808 -35.815002 -0.024771
74.724304 -92.140808 -35.815002 -0.017604
88.207611 -92.140808 -35.815002 -0.007162
101.690918 -92.140808 -35.815002 -0.002074
115.174225 -92.140808 -35.815002 -0.007769
128.657501 -92.140808 -35.815002 -0.008847
142.140808 -92.140808 -35.815002 -0.013752
155.624115 -92.140808 -35.815002 -0.020200
169.107422 -92.140808 -35.815002 -0.028507
182.590698 -92.140808 -35.815002 -0.043425
196.074036 -92.140808 -35.815002 -0.039433
209.557312 -92.140808 -35.815002 -0.027197
223.040588 -92.140808 -35.815002 -0.018511
236.523926 -92.140808 -35.815002 -0.009756
250.007202 -92.140808 -35.815002 -0.003883
263.490540 -92.140808 -35.815002 -0.001930
276.973816 -92.140808 -35.815002 -0.001189
290.457092 -92.140808 -35.815002 -0.000456
303.940430 -92.140808 -35.815002 0.000106
317.423706 -92.140808 -35.815002 0.001090
330.907043 -92.140808 -35.815002 0.000000
344.390320 -92.140808 -35.815002 0.000000
-343.257996 -105.624115 -35.815002 0.000000
-329.774689 -105.624115 -35.815002 0.000000
-316.291382 -105.624115 -35.815002 0.000000
-302.808105 -105.624115 -35.815002 0.000000
-289.324799 -105.624115 -35.815002 0.000000
-275.841492 -105.624115 -35.815002 0.000000
-262.358185 -105.624115 -35.815002 0.000000
-248.874893 -105.624115 -35.815002 0.000000
-235.391602 -105.624115 -35.815002 0.000000
-221.908295 -105.624115 -35.815002 0.000000
-208.424988 -105.624115 -35.815002 0.000000
-194.941696 -105.624115 -35.815002 0.220904
-181.458389 -105.624115 -35.815002 0.000000
-167.975098 -105.624115 -35.815002 0.000000
-154.491791 -105.624115 -35.815002 0.138142
-141.008499 -105.624115 -35.815002 0.096661
-127.525192 -105.624115 -35.815002 0.071325
-114.041885 -105.624115 -35.815002 0.032947
-100.558594 -105.624115 -35.815002 -0.014061
-87.075287 -105.624115 -35.815002 0.000000
-73.591980 -105.624115 -35.815002 0.000000
-60.108704 -105.624115 -35.815002 0.000000
-46.625397 -105.624115 -35.815002 -0.066673
-33.142090 -105.624115 -35.815002 -0.096407
-19.658783 -105.624115 -35.815002 -0.100563
-6.175476 -105.624115 -35.815002 -0.095877
7.307800 -105.624115 -35.815002 -0.077436
20.791107 -105.624115 -35.815002 -0.072550
34.274414 -105.624115 -35.815002 -0.058349
47.757721 -105.624115 -35.815002 -0.028953
61.240997 -105.624115 -35.815002 -0.016526
74.724304 -105.624115 -35.815002 -0.012505
88.207611 -105.624115 -35.815002 -0.006452
101.690918 -105.624115 -35.815002 -0.002405
115.174225 -105.624115 -35.815002 0.000029
128.657501 -105.624115 -35.815002 -0.001165
142.140808 -105.624115 -35.815002 -0.009191
155.624115 -105.624115 -35.815002 -0.015098
169.107422 -105.624115 -35.815002 -0.021615
182.590698 -105.624115 -35.815002 -0.035378
196.074036 -105.624115 -35.815002 -0.036475
209.557312 -105.624115 -35.815002 -0.036746
223.040588 -105.624115 -35.815002 -0.021200
236.523926 -105.624115 -35.815002 -0.011864
250.007202 -105.624115 -35.815002 -0.006762
263.490540 -105.624115 -35.815002 -0.005273
276.973816 -105.624115 -35.815002 -0.004242
290.457092 -105.624115 -35.815002 -0.001703
303.940430 -105.624115 -35.815002 -0.000625
317.423706 -105.624115 -35.815002 0.000217
330.907043 -105.624115 -35.815002 0.000000
344.390320 -105.624115 -35.815002 0.000000
-343.257996 -119.107422 -35.815002 0.000000
-329.774689 -119.107422 -35.815002 0.000000
-316.291382 -119.107422 -35.815002 0.000000
-302.808105 -119.107422 -35.815002 0.000000
-289.324799 -119.107422 -35.815002 0.000000
-275.841492 -119.107422 -35.815002 0.000000
-262.358185 -119.107422 -35.815002 0.000000
-248.874893 -119.107422 -35.815002 0.000000
-235.391602 -119.107422 -35.815002 0.000000
-221.908295 -119.107422 -35.815002 0.000000
-208.424988 -119.107422 -35.815002 0.000000
-194.941696 -119.107422 -35.815002 0.000000
-181.458389 -119.107422 -35.815002 0.000000
-167.975098 -119.107422 -35.815002 0.000000
-154.491791 -119.107422 -35.815002 0.148137
-141.008499 -119.107422 -35.815002 0.101824
-127.525192 -119.107422 -35.815002 0.046824
-114.041885 -119.107422 -35.815002 0.000000
-100.558594 -119.107422 -35.815002 -0.067999
-87.075287 -119.107422 -35.815002 0.000000
-73.591980 -119.107422 -35.815002 -0.070719
-60.108704 -119.107422 -35.815002 0.000000
-46.625397 -119.107422 -35.815002 -0.075097
-33.142090 -119.107422 -35.815002 -0.079778
-19.658783 -119.107422 -35.815002 -0.070654
-6.175476 -119.107422 -35.815002 -0.077138
7.307800 -119.107422 -35.815002 -0.063722
20.791107 -119.107422 -35.815002 -0.050943
34.274414 -119.107422 -35.815002 -0.036467
47.757721 -119.107422 -35.815002 -0.027978
61.240997 -119.107422 -35.815002 -0.014712
74.724304 -119.107422 -35.815002 -0.006320
88.207611 -119.107422 -35.815002 -0.002232
101.690918 -119.107422 -35.815002 0.005006
115.174225 -119.107422 -35.815002 0.004626
128.657501 -119.107422 -35.815002 0.002122
142.140808 -119.107422 -35.815002 -0.003225
155.624115 -119.107422 -35.815002 -0.012215
169.107422 -119.107422 -35.815002 -0.021551
182.590698 -119.107422 -35.815002 -0.032946
196.074036 -119.107422 -35.815002 -0.039959
209.557312 -119.107422 -35.815002 -0.034020
223.040588 -119.107422 -35.815002 -0.024041
236.523926 -119.107422 -35.815002 -0.014840
250.007202 -119.107422 -35.815002 -0.009227
263.490540 -119.107422 -35.815002 -0.007031
276.973816 -119.107422 -35.815002 -0.004405
290.457092 -119.107422 -35.815002 -0.004145
303.940430 -119.107422 -35.815002 -0.003423
317.423706 -119.107422 -35.815002 -0.002592
330.907043 -119.107422 -35.815002 0.000000
344.390320 -119.107422 -35.815002 0.000000
-343.257996 -132.590698 -35.815002 0.000000
-329.774689 -132.590698 -35.815002 0.000000
-316.291382 -132.590698 -35.815002 0.000000
-302.808105 -132.590698 -35.815002 0.000000
-289.324799 -132.590698 -35.815002 0.000000
-275.841492 -132.590698 -35.815002 0.000000
-262.358185 -132.590698 -35.815002 0.000000
-248.874893 -132.590698 -35.815002 0.000000
-235.391602 -132.590698 -35.815002 0.000000
-221.908295 -132.590698 -35.815002 0.000000
-208.424988 -132.590698 -35.815002 0.000000
-194.941696 -132.590698 -35.815002 0.000000
-181.458389 -132.590698 -35.815002 0.220725
-167.975098 -132.590698 -35.815002 0.200520
-154.491791 -132.590698 -35.815002 0.000000
-141.008499 -132.590698 -35.815002 0.122808
-127.525192 -132.590698 -35.815002 0.017524
-114.041885 -132.590698 -35.815002 -0.043633
-100.558594 -132.590698 -35.815002 -0.081772
-87.075287 -132.590698 -35.815002 -0.086413
-73.591980 -132.590698 -35.815002 -0.079075
-60.108704 -132.590698 -35.815002 0.000000
-46.625397 -132.590698 -35.815002 0.000000
-33.142090 -132.590698 -35.815002 0.000000
-19.658783 -132.590698 -35.815002 -0.076609
-6.175476 -132.590698 -35.815002 -0.071167
7.307800 -132.590698 -35.815002 -0.065514
20.791107 -132.590698 -35.815002 -0.044859
34.274414 -132.590698 -35.815002 -0.035186
47.757721 -132.590698 -35.815002 -0.019433
61.240997 -132.590698 -35.815002 -0.006175
74.724304 -132.590698 -35.815002 0.004599
88.207611 -132.590698 -35.815002 0.004562
101.690918 -132.590698 -35.815002 0.010328
115.174225 -132.590698 -35.815002 0.006656
128.657501 -132.590698 -35.815002 0.003058
142.140808 -132.590698 -35.815002 -0.000454
155.624115 -132.590698 -35.815002 -0.004510
169.107422 -132.590698 -35.815002 -0.020822
182.590698 -132.590698 -35.815002 -0.036436
196.074036 -132.590698 -35.815002 -0.041321
209.557312 -132.590698 -35.815002 -0.038583
223.040588 -132.590698 -35.815002 -0.031372
236.523926 -132.590698 -35.815002 -0.022806
250.007202 -132.590698 -35.815002 -0.013401
263.490540 -132.590698 -35.815002 -0.009240
276.973816 -132.590698 -35.815002 -0.008563
290.457092 -132.590698 -35.815002 -0.010531
303.940430 -132.590698 -35.815002 -0.006899
317.423706 -132.590698 -35.815002 0.000000
330.907043 -132.590698 -35.815002 0.000000
344.390320 -132.590698 -35.815002 0.000000
-343.257996 -146.074036 -35.815002 0.000000
-329.774689 -146.074036 -35.815002 0.000000
-316.291382 -146.074036 -35.815002 0.000000
-302.808105 -146.074036 -35.815002 0.000000
-289.324799 -146.074036 -35.815002 0.000000
-275.841492 -146.074036 -35.815002 0.000000
-262.358185 -146.074036 -35.815002 0.000000
-248.874893 -146.074036 -35.815002 0.000000
-235.391602 -146.074036 -35.815002 0.000000
-221.908295 -146.074036 -35.815002 0.000000
-208.424988 -146.074036 -35.815002 0.000000
-194.941696 -146.074036 -35.815002 0.000000
-181.458389 -146.074036 -35.815002 0.000000
-167.975098 -146.074036 -35.815002 0.000000
-154.491791 -146.074036 -35.815002 0.000000
-141.008499 -146.074036 -35.815002 0.000000
-127.525192 -146.074036 -35.815002 0.000000
-114.041885 -146.074036 -35.815002 0.000000
-100.558594 -146.074036 -35.815002 0.000000
-87.075287 -146.074036 -35.815002 0.000000
-73.591980 -146.074036 -35.815002 0.000000
-60.108704 -146.074036 -35.815002 0.000000
-46.625397 -146.074036 -35.815002 0.000000
-33.142090 -146.074036 -35.815002 0.000000
-19.658783 -146.074036 -35.815002 0.000000
-6.175476 -146.074036 -35.815002 0.000000
7.307800 -146.074036 -35.815002 0.000000
20.791107 -146.074036 -35.815002 0.000000
34.274414 -146.074036 -35.815002 0.000000
47.757721 -146.074036 -35.815002 0.000000
61.240997 -146.074036 -35.815002 0.000000
74.724304 -146.074036 -35.815002 0.000000
88.207611 -146.074036 -35.815002 0.000000
101.690918 -146.074036 -35.815002 0.000000
115.174225 -146.074036 -35.815002 0.000000
128.657501 -146.074036 -35.815002 0.001312
142.140808 -146.074036 -35.815002 -0.001061
155.624115 -146.074036 -35.815002 -0.008671
169.107422 -146.074036 -35.815002 -0.022659
182.590698 -146.074036 -35.815002 -0.038229
196.074036 -146.074036 -35.815002 -0.045216
209.557312 -146.074036 -35.815002 -0.044849
223.040588 -146.074036 -35.815002 -0.043529
236.523926 -146.074036 -35.815002 -0.030064
250.007202 -146.074036 -35.815002 -0.019592
263.490540 -146.074036 -35.815002 -0.018665
276.973816 -146.074036 -35.815002 0.000000
290.457092 -146.074036 -35.815002 0.000000
303.940430 -146.074036 -35.815002 0.000000
317.423706 -146.074036 -35.815002 0.000000
330.907043 -146.074036 -35.815002 0.000000
344.390320 -146.074036 -35.815002 0.000000
-343.257996 -159.557312 -35.815002 0.000000
-329.774689 -159.557312 -35.815002 0.000000
-316.291382 -159.557312 -35.815002 0.000000
-302.808105 -159.557312 -35.815002 0.000000
-289.324799 -159.557312 -35.815002 0.000000
-275.841492 -159.557312 -35.815002 0.000000
-262.358185 -159.557312 -35.815002 0.000000
-248.874893 -159.557312 -35.815002 0.000000
-235.391602 -159.557312 -35.815002 0.000000
-221.908295 -159.557312 -35.815002 0.000000
-208.424988 -159.557312 -35.815002 0.000000
-194.941696 -159.557312 -35.815002 0.000000
-181.458389 -159.557312 -35.815002 0.000000
-167.975098 -159.557312 -35.815002 0.000000
-154.491791 -159.557312 -35.815002 0.000000
-141.008499 -159.557312 -35.815002 0.000000
-127.525192 -159.557312 -35.815002 0.000000
-114.041885 -159.557312 -35.815002 0.000000
-100.558594 -159.557312 -35.815002 0.000000
-87.075287 -159.557312 -35.815002 0.000000
-73.591980 -159.557312 -35.815002 0.000000
-60.108704 -159.557312 -35.815002 0.000000
-46.625397 -159.557312 -35.815002 0.000000
-33.142090 -159.557312 -35.815002 0.000000
-19.658783 -159.557312 -35.815002 0.000000
-6.175476 -159.557312 -35.815002 0.000000
7.307800 -159.557312 -35.815002 0.000000
20.791107 -159.557312 -35.815002 0.000000
34.274414 -159.557312 -35.815002 0.000000
47.757721 -159.557312 -35.815002 0.000000
61.240997 -159.557312 -35.815002 0.000000
74.724304 -159.557312 -35.815002 0.000000
88.207611 -159.557312 -35.815002 0.000000
101.690918 -159.557312 -35.815002 0.000000
115.174225 -159.557312 -35.815002 0.000000
128.657501 -159.557312 -35.815002 0.000000
142.140808 -159.557312 -35.815002 0.000000
155.624115 -159.557312 -35.815002 0.000000
169.107422 -159.557312 -35.815002 0.000000
182.590698 -159.557312 -35.815002 0.000000
196.074036 -159.557312 -35.815002 0.000000
209.557312 -159.557312 -35.815002 0.000000
223.040588 -159.557312 -35.815002 0.000000
236.523926 -159.557312 -35.815002 0.000000
250.007202 -159.557312 -35.815002 0.000000
263.490540 -159.557312 -35.815002 0.000000
276.973816 -159.557312 -35.815002 0.000000
290.457092 -159.557312 -35.815002 0.000000
303.940430 -159.557312 -35.815002 0.000000
317.423706 -159.557312 -35.815002 0.000000
330.907043 -159.557312 -35.815002 0.000000
344.390320 -159.557312 -35.815002 0.000000
-343.257996 -173.040588 -35.815002 0.000000
-329.774689 -173.040588 -35.815002 0.000000
-316.291382 -173.040588 -35.815002 0.000000
-302.808105 -173.040588 -35.815002 0.000000
-289.324799 -173.040588 -35.815002 0.000000
-275.841492 -173.040588 -35.815002 0.000000
-262.358185 -173.040588 -35.815002 0.000000
-248.874893 -173.040588 -35.815002 0.000000
-235.391602 -173.040588 -35.815002 0.000000
-221.908295 -173.040588 -35.815002 0.000000
-208.424988 -173.040588 -35.815002 0.000000
-194.941696 -173.040588 -35.815002 0.000000
-181.458389 -173.040588 -35.815002 0.000000
-167.975098 -173.040588 -35.815002 0.000000
-154.491791 -173.040588 -35.815002 0.000000
-141.008499 -173.040588 -35.815002 0.000000
-127.525192 -173.040588 -35.815002 0.000000
-114.041885 -173.040588 -35.815002 0.000000
-100.558594 -173.040588 -35.815002 0.000000
-87.075287 -173.040588 -35.815002 0.000000
-73.591980 -173.040588 -35.815002 0.000000
-60.108704 -173.040588 -35.815002 0.000000
-46.625397 -173.040588 -35.815002 0.000000
-33.142090 -173.040588 -35.815002 0.000000
-19.658783 -173.040588 -35.815002 0.000000
-6.175476 -173.040588 -35.815002 0.000000
7.307800 -173.040588 -35.815002 0.000000
20.791107 -173.040588 -35.815002 0.000000
34.274414 -173.040588 -35.815002 0.000000
47.757721 -173.040588 -35.815002 0.000000
61.240997 -173.040588 -35.815002 0.000000
74.724304 -173.040588 -35.815002 0.000000
88.207611 -173.040588 -35.815002 0.000000
101.690918 -173.040588 -35.815002 0.000000
115.174225 -173.040588 -35.815002 0.000000
128.657501 -173.040588 -35.815002 0.000000
142.140808 -173.040588 -35.815002 0.000000
155.624115 -173.040588 -35.815002 0.000000
169.107422 -173.040588 -35.815002 0.000000
182.590698 -173.040588 -35.815002 0.000000
196.074036 -173.040588 -35.815002 0.000000
209.557312 -173.040588 -35.815002 0.000000
223.040588 -173.040588 -35.815002 0.000000
236.523926 -173.040588 -35.815002 0.000000
250.007202 -173.040588 -35.815002 0.000000
263.490540 -173.040588 -35.815002 0.000000
276.973816 -173.040588 -35.815002 0.000000
290.457092 -173.040588 -35.815002 0.000000
303.940430 -173.040588 -35.815002 0.000000
317.423706 -173.040588 -35.815002 0.000000
330.907043 -173.040588 -35.815002 0.000000
344.390320 -173.040588 -35.815002 0.000000
-343.257996 -186.523926 -35.815002 0.000000
-329.774689 -186.523926 -35.815002 0.000000
-316.291382 -186.523926 -35.815002 0.000000
-302.808105 -186.523926 -35.815002 0.000000
-289.324799 -186.523926 -35.815002 0.000000
-275.841492 -186.523926 -35.815002 0.000000
-262.358185 -186.523926 -35.815002 0.000000
-248.874893 -186.523926 -35.815002 0.000000
-235.391602 -186.523926 -35.815002 0.000000
-221.908295 -186.523926 -35.815002 0.000000
-208.424988 -186.523926 -35.815002 0.000000
-194.941696 -186.523926 -35.815002 0.000000
-181.458389 -186.523926 -35.815002 0.000000
-167.975098 -186.523926 -35.815002 0.000000
-154.491791 -186.523926 -35.815002 0.000000
-141.008499 -186.523926 -35.815002 0.000000
-127.525192 -186.523926 -35.815002 0.000000
-114.041885 -186.523926 -35.815002 0.000000
-100.558594 -186.523926 -35.815002 0.000000
-87.075287 -186.523926 -35.815002 0.000000
-73.591980 -186.523926 -35.815002 0.000000
-60.108704 -186.523926 -35.815002 0.000000
-46.625397 -186.523926 -35.815002 0.000000
-33.142090 -186.523926 -35.815002 0.000000
-19.658783 -186.523926 -35.815002 0.000000
-6.175476 -186.523926 -35.815002 0.000000
7.307800 -186.523926 -35.815002 0.000000
20.791107 -186.523926 -35.815002 0.000000
34.274414 -186.523926 -35.815002 0.000000
47.757721 -186.523926 -35.815002 0.000000
61.240997 -186.523926 -35.815002 0.000000
74.724304 -186.523926 -35.815002 0.000000
88.207611 -186.523926 -35.815002 0.000000
101.690918 -186.523926 -35.815002 0.000000
115.174225 -186.523926 -35.815002 0.000000
128.657501 -186.523926 -35.815002 0.000000
142.140808 -186.523926 -35.815002 0.000000
155.624115 -186.523926 -35.815002 0.000000
169.107422 -186.523926 -35.815002 0.000000
182.590698 -186.523926 -35.815002 0.000000
196.074036 -186.523926 -35.815002 0.000000
209.557312 -186.523926 -35.815002 0.000000
223.040588 -186.523926 -35.815002 0.000000
236.523926 -186.523926 -35.815002 0.000000
250.007202 -186.523926 -35.815002 0.000000
263.490540 -186.523926 -35.815002 0.000000
276.973816 -186.523926 -35.815002 0.000000
290.457092 -186.523926 -35.815002 0.000000
303.940430 -186.523926 -35.815002 0.000000
317.423706 -186.523926 -35.815002 0.000000
330.907043 -186.523926 -35.815002 0.000000
344.390320 -186.523926 -35.815002 0.000000
-343.257996 -200.007202 -35.815002 0.000000
-329.774689 -200.007202 -35.815002 0.000000
-316.291382 -200.007202 -35.815002 0.000000
-302.808105 -200.007202 -35.815002 0.000000
-289.324799 -200.007202 -35.815002 0.000000
-275.841492 -200.007202 -35.815002 0.000000
-262.358185 -200.007202 -35.815002 0.000000
-248.874893 -200.007202 -35.815002 0.000000
-235.391602 -200.007202 -35.815002 0.000000
-221.908295 -200.007202 -35.815002 0.000000
-208.424988 -200.007202 -35.815002 0.000000
-194.941696 -200.007202 -35.815002 0.000000
-181.458389 -200.007202 -35.815002 0.000000
-167.975098 -200.007202 -35.815002 0.000000
-154.491791 -200.007202 -35.815002 0.000000
-141.008499 -200.007202 -35.815002 0.000000
-127.525192 -200.007202 -35.815002 0.000000
-114.041885 -200.007202 -35.815002 0.000000
-100.558594 -200.007202 -35.815002 0.000000
-87.075287 -200.007202 -35.815002 0.000000
-73.591980 -200.007202 -35.815002 0.000000
-60.108704 -200.007202 -35.815002 0.000000
-46.625397 -200.007202 -35.815002 0.000000
-33.142090 -200.007202 -35.815002 0.000000
-19.658783 -200.007202 -35.815002 0.000000
-6.175476 -200.007202 -35.815002 0.000000
7.307800 -200.007202 -35.815002 0.000000
20.791107 -200.007202 -35.815002 0.000000
34.274414 -200.007202 -35.815002 0.000000
47.757721 -200.007202 -35.815002 0.000000
61.240997 -200.007202 -35.815002 0.000000
74.724304 -200.007202 -35.815002 0.000000
88.207611 -200.007202 -35.815002 0.000000
101.690918 -200.007202 -35.815002 0.000000
115.174225 -200.007202 -35.815002 0.000000
128.657501 -200.007202 -35.815002 0.000000
142.140808 -200.007202 -35.815002 0.000000
155.624115 -200.007202 -35.815002 0.000000
169.107422 -200.007202 -35.815002 0.000000
182.590698 -200.007202 -35.815002 0.000000
196.074036 -200.007202 -35.815002 0.000000
209.557312 -200.007202 -35.815002 0.000000
223.040588 -200.007202 -35.815002 0.000000
236.523926 -200.007202 -35.815002 0.000000
250.007202 -200.007202 -35.815002 0.000000
263.490540 -200.007202 -35.815002 0.000000
276.973816 -200.007202 -35.815002 0.000000
290.457092 -200.007202 -35.815002 0.000000
303.940430 -200.007202 -35.815002 0.000000
317.423706 -200.007202 -35.815002 0.000000
330.907043 -200.007202 -35.815002 0.000000
344.390320 -200.007202 -35.815002 0.000000
-343.257996 393.257996 -22.331701 0.000000
-329.774689 393.257996 -22.331701 0.000000
-316.291382 393.257996 -22.331701 0.000000
-302.808105 393.257996 -22.331701 0.000000
-289.324799 393.257996 -22.331701 0.000000
-275.841492 393.257996 -22.331701 0.000000
-262.358185 393.257996 -22.331701 0.000000
-248.874893 393.257996 -22.331701 0.000000
-235.391602 393.257996 -22.331701 0.000000
-221.908295 393.257996 -22.331701 0.000000
-208.424988 393.257996 -22.331701 0.000000
-194.941696 393.257996 -22.331701 0.000000
-181.458389 393.257996 -22.331701 0.000000
-167.975098 393.257996 -22.331701 0.000000
-154.491791 393.257996 -22.331701 0.000000
-141.008499 393.257996 -22.331701 0.000000
-127.525192 393.257996 -22.331701 0.000000
-114.041885 393.257996 -22.331701 0.000000
-100.558594 393.257996 -22.331701 0.000000
-87.075287 393.257996 -22.331701 0.000000
-73.591980 393.257996 -22.331701 0.000000
-60.108704 393.257996 -22.331701 0.000000
-46.625397 393.257996 -22.331701 0.000000
-33.142090 393.257996 -22.331701 0.000000
-19.658783 393.257996 -22.331701 0.000000
-6.175476 393.257996 -22.331701 0.000000
7.307800 393.257996 -22.331701 0.000000
20.791107 393.257996 -22.331701 0.000000
34.274414 393.257996 -22.331701 0.000000
47.757721 393.257996 -22.331701 0.000000
61.240997 393.257996 -22.331701 0.000000
74.724304 393.257996 -22.331701 0.000000
88.207611 393.257996 -22.331701 0.000000
101.690918 393.257996 -22.331701 0.000000
115.174225 393.257996 -22.331701 0.000000
128.657501 393.257996 -22.331701 0.000000
142.140808 393.257996 -22.331701 0.000000
155.624115 393.257996 -22.331701 0.000000
169.107422 393.257996 -22.331701 0.000000
182.590698 393.257996 -22.331701 0.000000
196.074036 393.257996 -22.331701 0.000000
209.557312 393.257996 -22.331701 0.000000
223.040588 393.257996 -22.331701 0.000000
236.523926 393.257996 -22.331701 0.000000
250.007202 393.257996 -22.331701 0.000000
263.490540 393.257996 -22.331701 0.000000
276.973816 393.257996 -22.331701 0.000000
290.457092 393.257996 -22.331701 0.000000
303.940430 393.257996 -22.331701 0.000000
317.423706 393.257996 -22.331701 0.000000
330.907043 393.257996 -22.331701 0.000000
344.390320 393.257996 -22.331701 0.000000
-343.257996 379.774689 -22.331701 0.000000
-329.774689 379.774689 -22.331701 0.000000
-316.291382 379.774689 -22.331701 0.000000
-302.808105 379.774689 -22.331701 0.000000
-289.324799 379.774689 -22.331701 0.000000
-275.841492 379.774689 -22.331701 0.000000
-262.358185 379.774689 -22.331701 0.000000
-248.874893 379.774689 -22.331701 0.000000
-235.391602 379.774689 -22.331701 0.000000
-221.908295 379.774689 -22.331701 0.000000
-208.424988 379.774689 -22.331701 0.000000
-194.941696 379.774689 -22.331701 0.000000
-181.458389 379.774689 -22.331701 0.000000
-167.975098 379.774689 -22.331701 0.000000
-154.491791 379.774689 -22.331701 0.000000
-141.008499 379.774689 -22.331701 0.000000
-127.525192 379.774689 -22.331701 0.000000
-114.041885 379.774689 -22.331701 0.000000
-100.558594 379.774689 -22.331701 0.000000
-87.075287 379.774689 -22.331701 0.000000
-73.591980 379.774689 -22.331701 0.000000
-60.108704 379.774689 -22.331701 0.000000
-46.625397 379.774689 -22.331701 0.000000
-33.142090 379.774689 -22.331701 0.000000
-19.658783 379.774689 -22.331701 0.000000
-6.175476 379.774689 -22.331701 0.000000
7.307800 379.774689 -22.331701 0.000000
20.791107 379.774689 -22.331701 0.000000
34.274414 379.774689 -22.331701 0.000000
47.757721 379.774689 -22.331701 0.000000
61.240997 379.774689 -22.331701 0.000000
74.724304 379.774689 -22.331701 0.000000
88.207611 379.774689 -22.331701 0.000000
101.690918 379.774689 -22.331701 0.000000
115.174225 379.774689 -22.331701 0.000000
128.657501 379.774689 -22.331701 0.000000
142.140808 379.774689 -22.331701 0.000000
155.624115 379.774689 -22.331701 0.000000
169.107422 379.774689 -22.331701 0.000000
182.590698 379.774689 -22.331701 0.000000
196.074036 379.774689 -22.331701 0.000000
209.557312 379.774689 -22.331701 0.000000
223.040588 379.774689 -22.331701 0.000000
236.523926 379.774689 -22.331701 0.000000
250.007202 379.774689 -22.331701 0.000000
263.490540 379.774689 -22.331701 0.000000
276.973816 379.774689 -22.331701 0.000000
290.457092 379.774689 -22.331701 0.000000
303.940430 379.774689 -22.331701 0.000000
317.423706 379.774689 -22.331701 0.000000
330.907043 379.774689 -22.331701 0.000000
344.390320 379.774689 -22.331701 0.000000
-343.257996 366.291382 -22.331701 0.000000
-329.774689 366.291382 -22.331701 0.000000
-316.291382 366.291382 -22.331701 0.000000
-302.808105 366.291382 -22.331701 0.000000
-289.324799 366.291382 -22.331701 0.000000
-275.841492 366.291382 -22.331701 0.000000
-262.358185 366.291382 -22.331701 0.000000
-248.874893 366.291382 -22.331701 0.000000
-235.391602 366.291382 -22.331701 0.000000
-221.908295 366.291382 -22.331701 0.000000
-208.424988 366.291382 -22.331701 0.000000
-194.941696 366.291382 -22.331701 0.000000
-181.458389 366.291382 -22.331701 0.000000
-167.975098 366.291382 -22.331701 0.000000
-154.491791 366.291382 -22.331701 0.000000
-141.008499 366.291382 -22.331701 0.000000
-127.525192 366.291382 -22.331701 0.000000
-114.041885 366.291382 -22.331701 0.000000
-100.558594 366.291382 -22.331701 0.000000
-87.075287 366.291382 -22.331701 0.000000
-73.591980 366.291382 -22.331701 0.000000
-60.108704 366.291382 -22.331701 0.000000
-46.625397 366.291382 -22.331701 0.000000
-33.142090 366.291382 -22.331701 0.000000
-19.658783 366.291382 -22.331701 0.000000
-6.175476 366.291382 -22.331701 0.000000
7.307800 366.291382 -22.331701 0.000000
20.791107 366.291382 -22.331701 0.000000
34.274414 366.291382 -22.331701 0.000000
47.757721 366.291382 -22.331701 0.000000
61.240997 366.291382 -22.331701 0.000000
74.724304 366.291382 -22.331701 0.000000
88.207611 366.291382 -22.331701 0.000000
101.690918 366.291382 -22.331701 0.000000
115.174225 366.291382 -22.331701 0.000000
128.657501 366.291382 -22.331701 0.000000
142.140808 366.291382 -22.331701 0.000000
155.624115 366.291382 -22.331701 0.000000
169.107422 366.291382 -22.331701 0.000000
182.590698 366.291382 -22.331701 0.000000
196.074036 366.291382 -22.331701 0.000000
209.557312 366.291382 -22.331701 0.000000
223.040588 366.291382 -22.331701 0.000000
236.523926 366.291382 -22.331701 0.000000
250.007202 366.291382 -22.331701 0.000000
263.490540 366.291382 -22.331701 0.000000
276.973816 366.291382 -22.331701 0.000000
290.457092 366.291382 -22.331701 0.000000
303.940430 366.291382 -22.331701 0.000000
317.423706 366.291382 -22.331701 0.000000
330.907043 366.291382 -22.331701 0.000000
344.390320 366.291382 -22.331701 0.000000
-343.257996 352.808105 -22.331701 0.000000
-329.774689 352.808105 -22.331701 0.000000
-316.291382 352.808105 -22.331701 0.000000
-302.808105 352.808105 -22.331701 -0.005023
-289.324799 352.808105 -22.331701 -0.005071
-275.841492 352.808105 -22.331701 -0.002495
-262.358185 352.808105 -22.331701 0.000984
-248.874893 352.808105 -22.331701 0.002990
-235.391602 352.808105 -22.331701 0.002602
-221.908295 352.808105 -22.331701 0.002175
-208.424988 352.808105 -22.331701 0.008188
-194.941696 352.808105 -22.331701 0.016592
-181.458389 352.808105 -22.331701 0.000000
-167.975098 352.808105 -22.331701 0.000000
-154.491791 352.808105 -22.331701 0.000000
-141.008499 352.808105 -22.331701 0.000000
-127.525192 352.808105 -22.331701 0.000000
-114.041885 352.808105 -22.331701 0.000000
-100.558594 352.808105 -22.331701 0.000000
-87.075287 352.808105 -22.331701 0.000000
-73.591980 352.808105 -22.331701 0.000000
-60.108704 352.808105 -22.331701 0.000000
-46.625397 352.808105 -22.331701 0.000000
-33.142090 352.808105 -22.331701 0.000000
-19.658783 352.808105 -22.331701 0.000000
-6.175476 352.808105 -22.331701 0.000000
7.307800 352.808105 -22.331701 0.000000
20.791107 352.808105 -22.331701 0.000000
34.274414 352.808105 -22.331701 -0.056269
47.757721 352.808105 -22.331701 -0.049381
61.240997 352.808105 -22.331701 -0.046966
74.724304 352.808105 -22.331701 -0.050470
88.207611 352.808105 -22.331701 0.000000
101.690918 352.808105 -22.331701 0.000000
115.174225 352.808105 -22.331701 0.000000
128.657501 352.808105 -22.331701 0.000000
142.140808 352.808105 -22.331701 0.000000
155.624115 352.808105 -22.331701 0.000000
169.107422 352.808105 -22.331701 0.000000
182.590698 352.808105 -22.331701 0.000000
196.074036 352.808105 -22.331701 0.000000
209.557312 352.808105 -22.331701 0.000000
223.040588 352.808105 -22.331701 0.000000
236.523926 352.808105 -22.331701 0.000000
250.007202 352.808105 -22.331701 0.000000
263.490540 352.808105 -22.331701 0.000000
276.973816 352.808105 -22.331701 0.000000
290.457092 352.808105 -22.331701 0.000000
303.940430 352.808105 -22.331701 0.000000
317.423706 352.808105 -22.331701 0.000000
330.907043 352.808105 -22.331701 0.000000
344.390320 352.808105 -22.331701 0.000000
-343.257996 339.324799 -22.331701 0.000000
-329.774689 339.324799 -22.331701 0.000000
-316.291382 339.324799 -22.331701 0.000000
-302.808105 339.324799 -22.331701 -0.005292
-289.324799 339.324799 -22.331701 -0.004595
-275.841492 339.324799 -22.331701 -0.002049
-262.358185 339.324799 -22.331701 0.002309
-248.874893 339.324799 -22.331701 0.000539
-235.391602 339.324799 -22.331701 0.000625
-221.908295 339.324799 -22.331701 0.002860
-208.424988 339.324799 -22.331701 0.006848
-194.941696 339.324799 -22.331701 0.016625
-181.458389 339.324799 -22.331701 0.032014
-167.975098 339.324799 -22.331701 0.047735
-154.491791 339.324799 -22.331701 0.070561
-141.008499 339.324799 -22.331701 0.092144
-127.525192 339.324799 -22.331701 0.095001
-114.041885 339.324799 -22.331701 0.082314
-100.558594 339.324799 -22.331701 0.072461
-87.075287 339.324799 -22.331701 0.054388
-73.591980 339.324799 -22.331701 0.019368
-60.108704 339.324799 -22.331701 -0.003524
-46.625397 339.324799 -22.331701 -0.035943
-33.142090 339.324799 -22.331701 -0.050919
-19.658783 339.324799 -22.331701 -0.047110
-6.175476 339.324799 -22.331701 -0.057259
7.307800 339.324799 -22.331701 -0.052470
20.791107 339.324799 -22.331701 -0.055813
34.274414 339.324799 -22.331701 -0.059041
47.757721 339.324799 -22.331701 -0.052986
61.240997 339.324799 -22.331701 -0.057931
74.724304 339.324799 -22.331701 -0.049835
88.207611 339.324799 -22.331701 -0.037737
101.690918 339.324799 -22.331701 -0.019498
115.174225 339.324799 -22.331701 -0.008122
128.657501 339.324799 -22.331701 -0.016950
142.140808 339.324799 -22.331701 -0.038216
155.624115 339.324799 -22.331701 -0.045348
169.107422 339.324799 -22.331701 -0.050252
182.590698 339.324799 -22.331701 -0.050708
196.074036 339.324799 -22.331701 -0.054808
209.557312 339.324799 -22.331701 -0.043143
223.040588 339.324799 -22.331701 -0.041362
236.523926 339.324799 -22.331701 -0.035750
250.007202 339.324799 -22.331701 -0.028642
263.490540 339.324799 -22.331701 -0.024768
276.973816 339.324799 -22.331701 -0.024567
290.457092 339.324799 -22.331701 0.000000
303.940430 339.324799 -22.331701 0.000000
317.423706 339.324799 -22.331701 0.000000
330.907043 339.324799 -22.331701 0.000000
344.390320 339.324799 -22.331701 0.000000
-343.257996 325.841492 -22.331701 0.000000
-329.774689 325.841492 -22.331701 0.000000
-316.291382 325.841492 -22.331701 -0.004475
-302.808105 325.841492 -22.331701 -0.004637
-289.324799 325.841492 -22.331701 -0.003945
-275.841492 325.841492 -22.331701 -0.002613
-262.358185 325.841492 -22.331701 -0.000651
-248.874893 325.841492 -22.331701 -0.000678
-235.391602 325.841492 -22.331701 -0.001325
-221.908295 325.841492 -22.331701 0.000647
-208.424988 325.841492 -22.331701 -0.001172
-194.941696 325.841492 -22.331701 0.007866
-181.458389 325.841492 -22.331701 0.024078
-167.975098 325.841492 -22.331701 0.042146
-154.491791 325.841492 -22.331701 0.065928
-141.008499 325.841492 -22.331701 0.087398
-127.525192 325.841492 -22.331701 0.088550
-114.041885 325.841492 -22.331701 0.093390
-100.558594 325.841492 -22.331701 0.076087
-87.075287 325.841492 -22.331701 0.058984
-73.591980 325.841492 -22.331701 0.040151
-60.108704 325.841492 -22.331701 0.004543
-46.625397 325.841492 -22.331701 -0.025212
-33.142090 325.841492 -22.331701 -0.037068
-19.658783 325.841492 -22.331701 -0.054672
-6.175476 325.841492 -22.331701 -0.073309
7.307800 325.841492 -22.331701 -0.053500
20.791107 325.841492 -22.331701 -0.053545
34.274414 325.841492 -22.331701 -0.057708
47.757721 325.841492 -22.331701 -0.053618
61.240997 325.841492 -22.331701 -0.050546
74.724304 325.841492 -22.331701 -0.048599
88.207611 325.841492 -22.331701 -0.037737
101.690918 325.841492 -22.331701 -0.022024
115.174225 325.841492 -22.331701 -0.013169
128.657501 325.841492 -22.331701 -0.020872
142.140808 325.841492 -22.331701 -0.046988
155.624115 325.841492 -22.331701 -0.087689
169.107422 325.841492 -22.331701 -0.086201
182.590698 325.841492 -22.331701 -0.085903
196.074036 325.841492 -22.331701 -0.077746
209.557312 325.841492 -22.331701 -0.063822
223.040588 325.841492 -22.331701 -0.052862
236.523926 325.841492 -22.331701 -0.042308
250.007202 325.841492 -22.331701 -0.032920
263.490540 325.841492 -22.331701 -0.031706
276.973816 325.841492 -22.331701 -0.025018
290.457092 325.841492 -22.331701 0.000000
303.940430 325.841492 -22.331701 0.000000
317.423706 325.841492 -22.331701 0.000000
330.907043 325.841492 -22.331701 0.000000
344.390320 325.841492 -22.331701 0.000000
-343.257996 312.358185 -22.331701 0.000000
-329.774689 312.358185 -22.331701 0.000000
-316.291382 312.358185 -22.331701 -0.003884
-302.808105 312.358185 -22.331701 -0.004333
-289.324799 312.358185 -22.331701 -0.003433
-275.841492 312.358185 -22.331701 -0.002488
-262.358185 312.358185 -22.331701 -0.001492
-248.874893 312.358185 -22.331701 -0.002117
-235.391602 312.358185 -22.331701 -0.001669
-221.908295 312.358185 -22.331701 -0.001325
-208.424988 312.358185 -22.331701 -0.000490
-194.941696 312.358185 -22.331701 0.005746
-181.458389 312.358185 -22.331701 0.018834
-167.975098 312.358185 -22.331701 0.041481
-154.491791 312.358185 -22.331701 0.068128
-141.008499 312.358185 -22.331701 0.093952
-127.525192 312.358185 -22.331701 0.102409
-114.041885 312.358185 -22.331701 0.097779
-100.558594 312.358185 -22.331701 0.083755
-87.075287 312.358185 -22.331701 0.075278
-73.591980 312.358185 -22.331701 0.057596
-60.108704 312.358185 -22.331701 0.026978
-46.625397 312.358185 -22.331701 -0.017235
-33.142090 312.358185 -22.331701 -0.024149
-19.658783 312.358185 -22.331701 -0.051472
-6.175476 312.358185 -22.331701 -0.060098
7.307800 312.358185 -22.331701 -0.063559
20.791107 312.358185 -22.331701 -0.063230
34.274414 312.358185 -22.331701 -0.061168
47.757721 312.358185 -22.331701 -0.060273
61.240997 312.358185 -22.331701 -0.055447
74.724304 312.358185 -22.331701 -0.052029
88.207611 312.358185 -22.331701 -0.043159
101.690918 312.358185 -22.331701 -0.034924
115.174225 312.358185 -22.331701 -0.033871
128.657501 312.358185 -22.331701 -0.044567
142.140808 312.358185 -22.331701 -0.077641
155.624115 312.358185 -22.331701 -0.110282
169.107422 312.358185 -22.331701 -0.113995
182.590698 312.358185 -22.331701 -0.104415
196.074036 312.358185 -22.331701 -0.106676
209.557312 312.358185 -22.331701 -0.093533
223.040588 312.358185 -22.331701 -0.070206
236.523926 312.358185 -22.331701 -0.055192
250.007202 312.358185 -22.331701 -0.038824
263.490540 312.358185 -22.331701 -0.024842
276.973816 312.358185 -22.331701 -0.017389
290.457092 312.358185 -22.331701 -0.015946
303.940430 312.358185 -22.331701 0.000000
317.423706 312.358185 -22.331701 0.000000
330.907043 312.358185 -22.331701 0.000000
344.390320 312.358185 -22.331701 0.000000
-343.257996 298.874878 -22.331701 0.000000
-329.774689 298.874878 -22.331701 0.000000
-316.291382 298.874878 -22.331701 -0.005223
-302.808105 298.874878 -22.331701 -0.004838
-289.324799 298.874878 -22.331701 -0.003909
-275.841492 298.874878 -22.331701 -0.003143
-262.358185 298.874878 -22.331701 -0.001452
-248.874893 298.874878 -22.331701 -0.001794
-235.391602 298.874878 -22.331701 -0.002605
-221.908295 298.874878 -22.331701 -0.003405
-208.424988 298.874878 -22.331701 -0.001856
-194.941696 298.874878 -22.331701 0.009250
-181.458389 298.874878 -22.331701 0.024326
-167.975098 298.874878 -22.331701 0.046335
-154.491791 298.874878 -22.331701 0.061899
-141.008499 298.874878 -22.331701 0.087080
-127.525192 298.874878 -22.331701 0.095215
-114.041885 298.874878 -22.331701 0.096204
-100.558594 298.874878 -22.331701 0.078422
-87.075287 298.874878 -22.331701 0.080959
-73.591980 298.874878 -22.331701 0.062824
-60.108704 298.874878 -22.331701 0.041944
-46.625397 298.874878 -22.331701 0.009442
-33.142090 298.874878 -22.331701 -0.013011
-19.658783 298.874878 -22.331701 -0.046826
-6.175476 298.874878 -22.331701 -0.059755
7.307800 298.874878 -22.331701 -0.065171
20.791107 298.874878 -22.331701 -0.078327
34.274414 298.874878 -22.331701 -0.063889
47.757721 298.874878 -22.331701 -0.056563
61.240997 298.874878 -22.331701 -0.044993
74.724304 298.874878 -22.331701 -0.041416
88.207611 298.874878 -22.331701 -0.038794
101.690918 298.874878 -22.331701 -0.026230
115.174225 298.874878 -22.331701 -0.038687
128.657501 298.874878 -22.331701 -0.055071
142.140808 298.874878 -22.331701 -0.078743
155.624115 298.874878 -22.331701 -0.112974
169.107422 298.874878 -22.331701 -0.130895
182.590698 298.874878 -22.331701 -0.129095
196.074036 298.874878 -22.331701 -0.127226
209.557312 298.874878 -22.331701 -0.111180
223.040588 298.874878 -22.331701 -0.088076
236.523926 298.874878 -22.331701 -0.061832
250.007202 298.874878 -22.331701 -0.041729
263.490540 298.874878 -22.331701 -0.026096
276.973816 298.874878 -22.331701 -0.017195
290.457092 298.874878 -22.331701 -0.009701
303.940430 298.874878 -22.331701 0.000000
317.423706 298.874878 -22.331701 0.000000
330.907043 298.874878 -22.331701 0.000000
344.390320 298.874878 -22.331701 0.000000
-343.257996 285.391602 -22.331701 0.000000
-329.774689 285.391602 -22.331701 0.000000
-316.291382 285.391602 -22.331701 -0.004349
-302.808105 285.391602 -22.331701 -0.004784
-289.324799 285.391602 -22.331701 -0.004627
-275.841492 285.391602 -22.331701 -0.004093
-262.358185 285.391602 -22.331701 -0.005113
-248.874893 285.391602 -22.331701 -0.003182
-235.391602 285.391602 -22.331701 -0.003558
-221.908295 285.391602 -22.331701 -0.003991
-208.424988 285.391602 -22.331701 0.004626
-194.941696 285.391602 -22.331701 0.019392
-181.458389 285.391602 -22.331701 0.031973
-167.975098 285.391602 -22.331701 0.054676
-154.491791 285.391602 -22.331701 0.065061
-141.008499 285.391602 -22.331701 0.084710
-127.525192 285.391602 -22.331701 0.088986
-114.041885 285.391602 -22.331701 0.097514
-100.558594 285.391602 -22.331701 0.089040
-87.075287 285.391602 -22.331701 0.093728
-73.591980 285.391602 -22.331701 0.095768
-60.108704 285.391602 -22.331701 0.064870
-46.625397 285.391602 -22.331701 0.027802
-33.142090 285.391602 -22.331701 -0.013981
-19.658783 285.391602 -22.331701 -0.039855
-6.175476 285.391602 -22.331701 -0.064997
7.307800 285.391602 -22.331701 -0.060490
20.791107 285.391602 -22.331701 -0.066524
34.274414 285.391602 -22.331701 -0.068567
47.757721 285.391602 -22.331701 -0.053199
61.240997 285.391602 -22.331701 -0.035462
74.724304 285.391602 -22.331701 -0.031661
88.207611 285.391602 -22.331701 -0.022451
101.690918 285.391602 -22.331701 -0.018700
115.174225 285.391602 -22.331701 -0.037847
128.657501 285.391602 -22.331701 -0.043172
142.140808 285.391602 -22.331701 -0.066590
155.624115 285.391602 -22.331701 -0.105093
169.107422 285.391602 -22.331701 -0.126495
182.590698 285.391602 -22.331701 -0.128142
196.074036 285.391602 -22.331701 -0.138701
209.557312 285.391602 -22.331701 -0.125377
223.040588 285.391602 -22.331701 -0.105229
236.523926 285.391602 -22.331701 -0.075296
250.007202 285.391602 -22.331701 -0.047403
263.490540 285.391602 -22.331701 -0.026900
276.973816 285.391602 -22.331701 -0.021165
290.457092 285.391602 -22.331701 -0.004893
303.940430 285.391602 -22.331701 -0.002119
317.423706 285.391602 -22.331701 0.000000
330.907043 285.391602 -22.331701 0.000000
344.390320 285.391602 -22.331701 0.000000
-343.257996 271.908295 -22.331701 0.000000
-329.774689 271.908295 -22.331701 0.000000
-316.291382 271.908295 -22.331701 -0.004706
-302.808105 271.908295 -22.331701 -0.004393
-289.324799 271.908295 -22.331701 -0.005136
-275.841492 271.908295 -22.331701 -0.006221
-262.358185 271.908295 -22.331701 -0.005423
-248.874893 271.908295 -22.331701 -0.006900
-235.391602 271.908295 -22.331701 -0.004580
-221.908295 271.908295 -22.331701 0.001336
-208.424988 271.908295 -22.331701 0.008804
-194.941696 271.908295 -22.331701 0.021492
-181.458389 271.908295 -22.331701 0.041500
-167.975098 271.908295 -22.331701 0.055830
-154.491791 271.908295 -22.331701 0.064811
-141.008499 271.908295 -22.331701 0.076189
-127.525192 271.908295 -22.331701 0.088242
-114.041885 271.908295 -22.331701 0.096367
-100.558594 271.908295 -22.331701 0.098425
-87.075287 271.908295 -22.331701 0.119976
-73.591980 271.908295 -22.331701 0.121195
-60.108704 271.908295 -22.331701 0.095075
-46.625397 271.908295 -22.331701 0.041313
-33.142090 271.908295 -22.331701 -0.004550
-19.658783 271.908295 -22.331701 -0.028969
-6.175476 271.908295 -22.331701 -0.038645
7.307800 271.908295 -22.331701 -0.055395
20.791107 271.908295 -22.331701 -0.052069
34.274414 271.908295 -22.331701 -0.050260
47.757721 271.908295 -22.331701 -0.037475
61.240997 271.908295 -22.331701 -0.039464
74.724304 271.908295 -22.331701 -0.023658
88.207611 271.908295 -22.331701 -0.006139
101.690918 271.908295 -22.331701 -0.006865
115.174225 271.908295 -22.331701 -0.019730
128.657501 271.908295 -22.331701 -0.025382
142.140808 271.908295 -22.331701 -0.058626
155.624115 271.908295 -22.331701 -0.087772
169.107422 271.908295 -22.331701 -0.122246
182.590698 271.908295 -22.331701 -0.139539
196.074036 271.908295 -22.331701 -0.145942
209.557312 271.908295 -22.331701 -0.142907
223.040588 271.908295 -22.331701 -0.126002
236.523926 271.908295 -22.331701 -0.085017
250.007202 271.908295 -22.331701 -0.054112
263.490540 271.908295 -22.331701 -0.036592
276.973816 271.908295 -22.331701 -0.016945
290.457092 271.908295 -22.331701 -0.010039
303.940430 271.908295 -22.331701 -0.002131
317.423706 271.908295 -22.331701 0.000000
330.907043 271.908295 -22.331701 0.000000
344.390320 271.908295 -22.331701 0.000000
-343.257996 258.424988 -22.331701 0.000000
-329.774689 258.424988 -22.331701 0.000000
-316.291382 258.424988 -22.331701 -0.004536
-302.808105 258.424988 -22.331701 -0.005463
-289.324799 258.424988 -22.331701 -0.006408
-275.841492 258.424988 -22.331701 -0.007010
-262.358185 258.424988 -22.331701 -0.007597
-248.874893 258.424988 -22.331701 -0.008344
-235.391602 258.424988 -22.331701 -0.006919
-221.908295 258.424988 -22.331701 -0.002119
-208.424988 258.424988 -22.331701 0.011354
-194.941696 258.424988 -22.331701 0.024040
-181.458389 258.424988 -22.331701 0.044528
-167.975098 258.424988 -22.331701 0.053392
-154.491791 258.424988 -22.331701 0.072996
-141.008499 258.424988 -22.331701 0.078378
-127.525192 258.424988 -22.331701 0.088440
-114.041885 258.424988 -22.331701 0.100831
-100.558594 258.424988 -22.331701 0.125992
-87.075287 258.424988 -22.331701 0.149639
-73.591980 258.424988 -22.331701 0.144898
-60.108704 258.424988 -22.331701 0.114742
-46.625397 258.424988 -22.331701 0.065586
-33.142090 258.424988 -22.331701 0.019954
-19.658783 258.424988 -22.331701 -0.012264
-6.175476 258.424988 -22.331701 -0.037038
7.307800 258.424988 -22.331701 -0.054769
20.791107 258.424988 -22.331701 -0.048052
34.274414 258.424988 -22.331701 -0.037704
47.757721 258.424988 -22.331701 -0.037725
61.240997 258.424988 -22.331701 -0.029410
74.724304 258.424988 -22.331701 -0.014720
88.207611 258.424988 -22.331701 0.000527
101.690918 258.424988 -22.331701 0.001766
115.174225 258.424988 -22.331701 -0.022405
128.657501 258.424988 -22.331701 -0.033199
142.140808 258.424988 -22.331701 -0.066538
155.624115 258.424988 -22.331701 -0.084366
169.107422 258.424988 -22.331701 -0.113734
182.590698 258.424988 -22.331701 -0.139108
196.074036 258.424988 -22.331701 -0.146560
209.557312 258.424988 -22.331701 -0.143256
223.040588 258.424988 -22.331701 -0.128979
236.523926 258.424988 -22.331701 -0.101688
250.007202 258.424988 -22.331701 -0.059463
263.490540 258.424988 -22.331701 -0.034742
276.973816 258.424988 -22.331701 -0.018257
290.457092 258.424988 -22.331701 -0.005111
303.940430 258.424988 -22.331701 -0.001742
317.423706 258.424988 -22.331701 0.000000
330.907043 258.424988 -22.331701 0.000000
344.390320 258.424988 -22.331701 0.000000
-343.257996 244.941696 -22.331701 0.000000
-329.774689 244.941696 -22.331701 0.000000
-316.291382 244.941696 -22.331701 -0.006169
-302.808105 244.941696 -22.331701 -0.006663
-289.324799 244.941696 -22.331701 -0.007337
-275.841492 244.941696 -22.331701 -0.008342
-262.358185 244.941696 -22.331701 -0.008854
-248.874893 244.941696 -22.331701 -0.010967
-235.391602 244.941696 -22.331701 -0.005711
-221.908295 244.941696 -22.331701 0.006317
-208.424988 244.941696 -22.331701 0.019876
-194.941696 244.941696 -22.331701 0.037097
-181.458389 244.941696 -22.331701 0.047761
-167.975098 244.941696 -22.331701 0.057824
-154.491791 244.941696 -22.331701 0.073144
-141.008499 244.941696 -22.331701 0.083402
-127.525192 244.941696 -22.331701 0.099611
-114.041885 244.941696 -22.331701 0.119818
-100.558594 244.941696 -22.331701 0.144708
-87.075287 244.941696 -22.331701 0.169411
-73.591980 244.941696 -22.331701 0.158775
-60.108704 244.941696 -22.331701 0.104188
-46.625397 244.941696 -22.331701 0.075666
-33.142090 244.941696 -22.331701 0.029943
-19.658783 244.941696 -22.331701 -0.005674
-6.175476 244.941696 -22.331701 -0.041500
7.307800 244.941696 -22.331701 -0.047585
20.791107 244.941696 -22.331701 -0.030438
34.274414 244.941696 -22.331701 -0.035492
47.757721 244.941696 -22.331701 0.000000
61.240997 244.941696 -22.331701 -0.026167
74.724304 244.941696 -22.331701 -0.009403
88.207611 244.941696 -22.331701 -0.000885
101.690918 244.941696 -22.331701 -0.011679
115.174225 244.941696 -22.331701 -0.038729
128.657501 244.941696 -22.331701 -0.050435
142.140808 244.941696 -22.331701 -0.079355
155.624115 244.941696 -22.331701 -0.098865
169.107422 244.941696 -22.331701 -0.126499
182.590698 244.941696 -22.331701 -0.128772
196.074036 244.941696 -22.331701 -0.145572
209.557312 244.941696 -22.331701 -0.153474
223.040588 244.941696 -22.331701 -0.123319
236.523926 244.941696 -22.331701 -0.091428
250.007202 244.941696 -22.331701 -0.062554
263.490540 244.941696 -22.331701 -0.030966
276.973816 244.941696 -22.331701 -0.012883
290.457092 244.941696 -22.331701 -0.005265
303.940430 244.941696 -22.331701 0.000113
317.423706 244.941696 -22.331701 0.001738
330.907043 244.941696 -22.331701 0.000000
344.390320 244.941696 -22.331701 0.000000
-343.257996 231.458389 -22.331701 0.000000
-329.774689 231.458389 -22.331701 0.000000
-316.291382 231.458389 -22.331701 -0.005993
-302.808105 231.458389 -22.331701 -0.007654
-289.324799 231.458389 -22.331701 -0.010401
-275.841492 231.458389 -22.331701 -0.010298
-262.358185 231.458389 -22.331701 -0.009092
-248.874893 231.458389 -22.331701 -0.011720
-235.391602 231.458389 -22.331701 -0.005508
-221.908295 231.458389 -22.331701 0.011781
-208.424988 231.458389 -22.331701 0.030610
-194.941696 231.458389 -22.331701 0.039532
-181.458389 231.458389 -22.331701 0.050204
-167.975098 231.458389 -22.331701 0.063324
-154.491791 231.458389 -22.331701 0.070363
-141.008499 231.458389 -22.331701 0.090424
-127.525192 231.458389 -22.331701 0.102316
-114.041885 231.458389 -22.331701 0.125153
-100.558594 231.458389 -22.331701 0.166743
-87.075287 231.458389 -22.331701 0.185736
-73.591980 231.458389 -22.331701 0.164544
-60.108704 231.458389 -22.331701 0.113651
-46.625397 231.458389 -22.331701 0.085089
-33.142090 231.458389 -22.331701 0.053758
-19.658783 231.458389 -22.331701 -0.001366
-6.175476 231.458389 -22.331701 -0.033801
7.307800 231.458389 -22.331701 -0.039343
20.791107 231.458389 -22.331701 -0.027593
34.274414 231.458389 -22.331701 -0.029353
47.757721 231.458389 -22.331701 -0.018547
61.240997 231.458389 -22.331701 0.000000
74.724304 231.458389 -22.331701 -0.007098
88.207611 231.458389 -22.331701 -0.019278
101.690918 231.458389 -22.331701 -0.032009
115.174225 231.458389 -22.331701 -0.044659
128.657501 231.458389 -22.331701 0.000000
142.140808 231.458389 -22.331701 -0.089091
155.624115 231.458389 -22.331701 -0.106756
169.107422 231.458389 -22.331701 -0.145515
182.590698 231.458389 -22.331701 -0.151130
196.074036 231.458389 -22.331701 -0.160000
209.557312 231.458389 -22.331701 -0.148436
223.040588 231.458389 -22.331701 -0.118831
236.523926 231.458389 -22.331701 -0.094694
250.007202 231.458389 -22.331701 -0.063365
263.490540 231.458389 -22.331701 -0.034502
276.973816 231.458389 -22.331701 -0.012613
290.457092 231.458389 -22.331701 -0.000467
303.940430 231.458389 -22.331701 0.002505
317.423706 231.458389 -22.331701 0.003441
330.907043 231.458389 -22.331701 0.000000
344.390320 231.458389 -22.331701 0.000000
-343.257996 217.975098 -22.331701 0.000000
-329.774689 217.975098 -22.331701 0.000000
-316.291382 217.975098 -22.331701 -0.005608
-302.808105 217.975098 -22.331701 -0.007258
-289.324799 217.975098 -22.331701 -0.009720
-275.841492 217.975098 -22.331701 -0.011294
-262.358185 217.975098 -22.331701 -0.014087
-248.874893 217.975098 -22.331701 -0.010503
-235.391602 217.975098 -22.331701 -0.005392
-221.908295 217.975098 -22.331701 0.014059
-208.424988 217.975098 -22.331701 0.030646
-194.941696 217.975098 -22.331701 0.042476
-181.458389 217.975098 -22.331701 0.054257
-167.975098 217.975098 -22.331701 0.075224
-154.491791 217.975098 -22.331701 0.079457
-141.008499 217.975098 -22.331701 0.090018
-127.525192 217.975098 -22.331701 0.124089
-114.041885 217.975098 -22.331701 0.156850
-100.558594 217.975098 -22.331701 0.191140
-87.075287 217.975098 -22.331701 0.193281
-73.591980 217.975098 -22.331701 0.168409
-60.108704 217.975098 -22.331701 0.126326
-46.625397 217.975098 -22.331701 0.081890
-33.142090 217.975098 -22.331701 0.037445
-19.658783 217.975098 -22.331701 0.003475
-6.175476 217.975098 -22.331701 -0.035151
7.307800 217.975098 -22.331701 -0.041337
20.791107 217.975098 -22.331701 -0.043699
34.274414 217.975098 -22.331701 -0.035126
47.757721 217.975098 -22.331701 -0.030572
61.240997 217.975098 -22.331701 -0.025150
74.724304 217.975098 -22.331701 -0.024250
88.207611 217.975098 -22.331701 -0.037372
101.690918 217.975098 -22.331701 -0.049355
115.174225 217.975098 -22.331701 -0.070771
128.657501 217.975098 -22.331701 -0.088957
142.140808 217.975098 -22.331701 -0.114461
155.624115 217.975098 -22.331701 -0.137665
169.107422 217.975098 -22.331701 -0.149894
182.590698 217.975098 -22.331701 -0.146184
196.074036 217.975098 -22.331701 -0.151049
209.557312 217.975098 -22.331701 -0.136738
223.040588 217.975098 -22.331701 -0.109976
236.523926 217.975098 -22.331701 -0.084150
250.007202 217.975098 -22.331701 -0.058686
263.490540 217.975098 -22.331701 -0.033157
276.973816 217.975098 -22.331701 -0.011521
290.457092 217.975098 -22.331701 -0.003951
303.940430 217.975098 -22.331701 0.001365
317.423706 217.975098 -22.331701 0.001930
330.907043 217.975098 -22.331701 0.000000
344.390320 217.975098 -22.331701 0.000000
-343.257996 204.491791 -22.331701 0.000000
-329.774689 204.491791 -22.331701 0.000000
-316.291382 204.491791 -22.331701 -0.004788
-302.808105 204.491791 -22.331701 -0.006002
-289.324799 204.491791 -22.331701 -0.008719
-275.841492 204.491791 -22.331701 -0.010442
-262.358185 204.491791 -22.331701 -0.012446
-248.874893 204.491791 -22.331701 -0.011450
-235.391602 204.491791 -22.331701 -0.000868
-221.908295 204.491791 -22.331701 0.020267
-208.424988 204.491791 -22.331701 0.033846
-194.941696 204.491791 -22.331701 0.051088
-181.458389 204.491791 -22.331701 0.060090
-167.975098 204.491791 -22.331701 0.085120
-154.491791 204.491791 -22.331701 0.092234
-141.008499 204.491791 -22.331701 0.125996
-127.525192 204.491791 -22.331701 0.143979
-114.041885 204.491791 -22.331701 0.180001
-100.558594 204.491791 -22.331701 0.209322
-87.075287 204.491791 -22.331701 0.222134
-73.591980 204.491791 -22.331701 0.174730
-60.108704 204.491791 -22.331701 0.129538
-46.625397 204.491791 -22.331701 0.075689
-33.142090 204.491791 -22.331701 0.029418
-19.658783 204.491791 -22.331701 -0.005477
-6.175476 204.491791 -22.331701 -0.046072
7.307800 204.491791 -22.331701 -0.059388
20.791107 204.491791 -22.331701 -0.056500
34.274414 204.491791 -22.331701 -0.051113
47.757721 204.491791 -22.331701 -0.032058
61.240997 204.491791 -22.331701 -0.034703
74.724304 204.491791 -22.331701 -0.045619
88.207611 204.491791 -22.331701 -0.051810
101.690918 204.491791 -22.331701 -0.068835
115.174225 204.491791 -22.331701 -0.088470
128.657501 204.491791 -22.331701 -0.123831
142.140808 204.491791 -22.331701 -0.137558
155.624115 204.491791 -22.331701 -0.143018
169.107422 204.491791 -22.331701 -0.137961
182.590698 204.491791 -22.331701 -0.130485
196.074036 204.491791 -22.331701 -0.120831
209.557312 204.491791 -22.331701 -0.108712
223.040588 204.491791 -22.331701 -0.088307
236.523926 204.491791 -22.331701 -0.063094
250.007202 204.491791 -22.331701 -0.038371
263.490540 204.491791 -22.331701 -0.016989
276.973816 204.491791 -22.331701 -0.005118
290.457092 204.491791 -22.331701 -0.001710
303.940430 204.491791 -22.331701 0.001187
317.423706 204.491791 -22.331701 0.000326
330.907043 204.491791 -22.331701 0.000000
344.390320 204.491791 -22.331701 0.000000
-343.257996 191.008499 -22.331701 0.000000
-329.774689 191.008499 -22.331701 0.000000
-316.291382 191.008499 -22.331701 -0.004285
-302.808105 191.008499 -22.331701 -0.004577
-289.324799 191.008499 -22.331701 -0.006071
-275.841492 191.008499 -22.331701 -0.007994
-262.358185 191.008499 -22.331701 -0.008132
-248.874893 191.008499 -22.331701 -0.011143
-235.391602 191.008499 -22.331701 0.002385
-221.908295 191.008499 -22.331701 0.023894
-208.424988 191.008499 -22.331701 0.042814
-194.941696 191.008499 -22.331701 0.057414
-181.458389 191.008499 -22.331701 0.073400
-167.975098 191.008499 -22.331701 0.089731
-154.491791 191.008499 -22.331701 0.126762
-141.008499 191.008499 -22.331701 0.156852
-127.525192 191.008499 -22.331701 0.200946
-114.041885 191.008499 -22.331701 0.220456
-100.558594 191.008499 -22.331701 0.244394
-87.075287 191.008499 -22.331701 0.223556
-73.591980 191.008499 -22.331701 0.193263
-60.108704 191.008499 -22.331701 0.132854
-46.625397 191.008499 -22.331701 0.080641
-33.142090 191.008499 -22.331701 0.026133
-19.658783 191.008499 -22.331701 -0.011619
-6.175476 191.008499 -22.331701 -0.060179
7.307800 191.008499 -22.331701 -0.055116
20.791107 191.008499 -22.331701 -0.058435
34.274414 191.008499 -22.331701 -0.044627
47.757721 191.008499 -22.331701 -0.048079
61.240997 191.008499 -22.331701 -0.058783
74.724304 191.008499 -22.331701 -0.073269
88.207611 191.008499 -22.331701 -0.096521
101.690918 191.008499 -22.331701 -0.103806
115.174225 191.008499 -22.331701 -0.122571
128.657501 191.008499 -22.331701 -0.141103
142.140808 191.008499 -22.331701 -0.146211
155.624115 191.008499 -22.331701 -0.133064
169.107422 191.008499 -22.331701 -0.118968
182.590698 191.008499 -22.331701 -0.112125
196.074036 191.008499 -22.331701 -0.099234
209.557312 191.008499 -22.331701 -0.089098
223.040588 191.008499 -22.331701 -0.066258
236.523926 191.008499 -22.331701 -0.042550
250.007202 191.008499 -22.331701 -0.021205
263.490540 191.008499 -22.331701 -0.010158
276.973816 191.008499 -22.331701 -0.005367
290.457092 191.008499 -22.331701 -0.000036
303.940430 191.008499 -22.331701 -0.000198
317.423706 191.008499 -22.331701 -0.000526
330.907043 191.008499 -22.331701 0.000000
344.390320 191.008499 -22.331701 0.000000
-343.257996 177.525192 -22.331701 0.000000
-329.774689 177.525192 -22.331701 0.000000
-316.291382 177.525192 -22.331701 -0.003495
-302.808105 177.525192 -22.331701 -0.003710
-289.324799 177.525192 -22.331701 -0.004737
-275.841492 177.525192 -22.331701 -0.005735
-262.358185 177.525192 -22.331701 -0.004203
-248.874893 177.525192 -22.331701 -0.003279
-235.391602 177.525192 -22.331701 0.010690
-221.908295 177.525192 -22.331701 0.023296
-208.424988 177.525192 -22.331701 0.048681
-194.941696 177.525192 -22.331701 0.064116
-181.458389 177.525192 -22.331701 0.073616
-167.975098 177.525192 -22.331701 0.107579
-154.491791 177.525192 -22.331701 0.149715
-141.008499 177.525192 -22.331701 0.189118
-127.525192 177.525192 -22.331701 0.235373
-114.041885 177.525192 -22.331701 0.256953
-100.558594 177.525192 -22.331701 0.257661
-87.075287 177.525192 -22.331701 0.238912
-73.591980 177.525192 -22.331701 0.201448
-60.108704 177.525192 -22.331701 0.149240
-46.625397 177.525192 -22.331701 0.095720
-33.142090 177.525192 -22.331701 0.028926
-19.658783 177.525192 -22.331701 -0.021898
-6.175476 177.525192 -22.331701 -0.044648
7.307800 177.525192 -22.331701 -0.066914
20.791107 177.525192 -22.331701 -0.072139
34.274414 177.525192 -22.331701 -0.077965
47.757721 177.525192 -22.331701 -0.094388
61.240997 177.525192 -22.331701 -0.091897
74.724304 177.525192 -22.331701 -0.102371
88.207611 177.525192 -22.331701 -0.125076
101.690918 177.525192 -22.331701 -0.125205
115.174225 177.525192 -22.331701 -0.126890
128.657501 177.525192 -22.331701 -0.133080
142.140808 177.525192 -22.331701 -0.115303
155.624115 177.525192 -22.331701 -0.101730
169.107422 177.525192 -22.331701 -0.102271
182.590698 177.525192 -22.331701 -0.082725
196.074036 177.525192 -22.331701 -0.066385
209.557312 177.525192 -22.331701 -0.060031
223.040588 177.525192 -22.331701 -0.049264
236.523926 177.525192 -22.331701 -0.028868
250.007202 177.525192 -22.331701 -0.013213
263.490540 177.525192 -22.331701 -0.008253
276.973816 177.525192 -22.331701 -0.002745
290.457092 177.525192 -22.331701 -0.000344
303.940430 177.525192 -22.331701 -0.000518
317.423706 177.525192 -22.331701 -0.001063
330.907043 177.525192 -22.331701 0.000000
344.390320 177.525192 -22.331701 0.000000
-343.257996 164.041885 -22.331701 0.000000
-329.774689 164.041885 -22.331701 0.000000
-316.291382 164.041885 -22.331701 -0.001492
-302.808105 164.041885 -22.331701 -0.002637
-289.324799 164.041885 -22.331701 -0.002852
-275.841492 164.041885 -22.331701 -0.000934
-262.358185 164.041885 -22.331701 0.001220
-248.874893 164.041885 -22.331701 0.006188
-235.391602 164.041885 -22.331701 0.014971
-221.908295 164.041885 -22.331701 0.026687
-208.424988 164.041885 -22.331701 0.049812
-194.941696 164.041885 -22.331701 0.081740
-181.458389 164.041885 -22.331701 0.115653
-167.975098 164.041885 -22.331701 0.150681
-154.491791 164.041885 -22.331701 0.198300
-141.008499 164.041885 -22.331701 0.256950
-127.525192 164.041885 -22.331701 0.265586
-114.041885 164.041885 -22.331701 0.269159
-100.558594 164.041885 -22.331701 0.279275
-87.075287 164.041885 -22.331701 0.245394
-73.591980 164.041885 -22.331701 0.198222
-60.108704 164.041885 -22.331701 0.134418
-46.625397 164.041885 -22.331701 0.072773
-33.142090 164.041885 -22.331701 0.010647
-19.658783 164.041885 -22.331701 -0.028709
-6.175476 164.041885 -22.331701 -0.056723
7.307800 164.041885 -22.331701 -0.086303
20.791107 164.041885 -22.331701 -0.117374
34.274414 164.041885 -22.331701 -0.119913
47.757721 164.041885 -22.331701 -0.138795
61.240997 164.041885 -22.331701 -0.134632
74.724304 164.041885 -22.331701 -0.126040
88.207611 164.041885 -22.331701 -0.134016
101.690918 164.041885 -22.331701 -0.120492
115.174225 164.041885 -22.331701 -0.114404
128.657501 164.041885 -22.331701 -0.101366
142.140808 164.041885 -22.331701 -0.093331
155.624115 164.041885 -22.331701 -0.082406
169.107422 164.041885 -22.331701 -0.075010
182.590698 164.041885 -22.331701 -0.056304
196.074036 164.041885 -22.331701 -0.041025
209.557312 164.041885 -22.331701 -0.034016
223.040588 164.041885 -22.331701 -0.024450
236.523926 164.041885 -22.331701 -0.014620
250.007202 164.041885 -22.331701 -0.005700
263.490540 164.041885 -22.331701 -0.004424
276.973816 164.041885 -22.331701 -0.002646
290.457092 164.041885 -22.331701 -0.000489
303.940430 164.041885 -22.331701 -0.001013
317.423706 164.041885 -22.331701 -0.001631
330.907043 164.041885 -22.331701 0.000000
344.390320 164.041885 -22.331701 0.000000
-343.257996 150.558594 -22.331701 0.000000
-329.774689 150.558594 -22.331701 0.000000
-316.291382 150.558594 -22.331701 -0.001763
-302.808105 150.558594 -22.331701 -0.001888
-289.324799 150.558594 -22.331701 -0.001127
-275.841492 150.558594 -22.331701 0.001597
-262.358185 150.558594 -22.331701 0.007311
-248.874893 150.558594 -22.331701 0.011990
-235.391602 150.558594 -22.331701 0.022541
-221.908295 150.558594 -22.331701 0.033221
-208.424988 150.558594 -22.331701 0.050444
-194.941696 150.558594 -22.331701 0.091184
-181.458389 150.558594 -22.331701 0.140693
-167.975098 150.558594 -22.331701 0.198006
-154.491791 150.558594 -22.331701 0.259496
-141.008499 150.558594 -22.331701 0.312334
-127.525192 150.558594 -22.331701 0.326043
-114.041885 150.558594 -22.331701 0.310488
-100.558594 150.558594 -22.331701 0.276435
-87.075287 150.558594 -22.331701 0.229892
-73.591980 150.558594 -22.331701 0.172628
-60.108704 150.558594 -22.331701 0.101022
-46.625397 150.558594 -22.331701 0.050486
-33.142090 150.558594 -22.331701 -0.008039
-19.658783 150.558594 -22.331701 -0.041783
-6.175476 150.558594 -22.331701 -0.063011
7.307800 150.558594 -22.331701 -0.100300
20.791107 150.558594 -22.331701 -0.134298
34.274414 150.558594 -22.331701 -0.151887
47.757721 150.558594 -22.331701 -0.158405
61.240997 150.558594 -22.331701 -0.157498
74.724304 150.558594 -22.331701 -0.147900
88.207611 150.558594 -22.331701 -0.137180
101.690918 150.558594 -22.331701 -0.121468
115.174225 150.558594 -22.331701 -0.103395
128.657501 150.558594 -22.331701 -0.075304
142.140808 150.558594 -22.331701 -0.069795
155.624115 150.558594 -22.331701 -0.060601
169.107422 150.558594 -22.331701 -0.044377
182.590698 150.558594 -22.331701 -0.033308
196.074036 150.558594 -22.331701 -0.028188
209.557312 150.558594 -22.331701 -0.015972
223.040588 150.558594 -22.331701 -0.010276
236.523926 150.558594 -22.331701 -0.007761
250.007202 150.558594 -22.331701 -0.006727
263.490540 150.558594 -22.331701 -0.004705
276.973816 150.558594 -22.331701 -0.003001
290.457092 150.558594 -22.331701 -0.000192
303.940430 150.558594 -22.331701 -0.001409
317.423706 150.558594 -22.331701 -0.001861
330.907043 150.558594 -22.331701 0.000000
344.390320 150.558594 -22.331701 0.000000
-343.257996 137.075287 -22.331701 0.000000
-329.774689 137.075287 -22.331701 0.000000
-316.291382 137.075287 -22.331701 -0.002274
-302.808105 137.075287 -22.331701 -0.002210
-289.324799 137.075287 -22.331701 0.000170
-275.841492 137.075287 -22.331701 0.004510
-262.358185 137.075287 -22.331701 0.012605
-248.874893 137.075287 -22.331701 0.019360
-235.391602 137.075287 -22.331701 0.036121
-221.908295 137.075287 -22.331701 0.060081
-208.424988 137.075287 -22.331701 0.083847
-194.941696 137.075287 -22.331701 0.130312
-181.458389 137.075287 -22.331701 0.197184
-167.975098 137.075287 -22.331701 0.265058
-154.491791 137.075287 -22.331701 0.331560
-141.008499 137.075287 -22.331701 0.365618
-127.525192 137.075287 -22.331701 0.356595
-114.041885 137.075287 -22.331701 0.338926
-100.558594 137.075287 -22.331701 0.311317
-87.075287 137.075287 -22.331701 0.240995
-73.591980 137.075287 -22.331701 0.158746
-60.108704 137.075287 -22.331701 0.100042
-46.625397 137.075287 -22.331701 0.037705
-33.142090 137.075287 -22.331701 -0.017722
-19.658783 137.075287 -22.331701 -0.056759
-6.175476 137.075287 -22.331701 -0.081939
7.307800 137.075287 -22.331701 -0.111952
20.791107 137.075287 -22.331701 -0.138753
34.274414 137.075287 -22.331701 -0.174012
47.757721 137.075287 -22.331701 -0.170292
61.240997 137.075287 -22.331701 -0.168233
74.724304 137.075287 -22.331701 -0.153521
88.207611 137.075287 -22.331701 -0.132293
101.690918 137.075287 -22.331701 -0.106895
115.174225 137.075287 -22.331701 -0.084249
128.657501 137.075287 -22.331701 -0.054494
142.140808 137.075287 -22.331701 -0.050279
155.624115 137.075287 -22.331701 -0.048044
169.107422 137.075287 -22.331701 -0.035223
182.590698 137.075287 -22.331701 -0.024034
196.074036 137.075287 -22.331701 -0.016118
209.557312 137.075287 -22.331701 -0.011669
223.040588 137.075287 -22.331701 -0.008032
236.523926 137.075287 -22.331701 -0.005896
250.007202 137.075287 -22.331701 -0.003488
263.490540 137.075287 -22.331701 -0.004079
276.973816 137.075287 -22.331701 -0.002806
290.457092 137.075287 -22.331701 -0.000815
303.940430 137.075287 -22.331701 -0.001344
317.423706 137.075287 -22.331701 -0.001347
330.907043 137.075287 -22.331701 0.000000
344.390320 137.075287 -22.331701 0.000000
-343.257996 123.591980 -22.331701 0.000000
-329.774689 123.591980 -22.331701 0.000000
-316.291382 123.591980 -22.331701 -0.002418
-302.808105 123.591980 -22.331701 -0.002173
-289.324799 123.591980 -22.331701 0.001141
-275.841492 123.591980 -22.331701 0.007996
-262.358185 123.591980 -22.331701 0.017762
-248.874893 123.591980 -22.331701 0.031120
-235.391602 123.591980 -22.331701 0.058977
-221.908295 123.591980 -22.331701 0.091837
-208.424988 123.591980 -22.331701 0.123832
-194.941696 123.591980 -22.331701 0.177679
-181.458389 123.591980 -22.331701 0.260952
-167.975098 123.591980 -22.331701 0.340301
-154.491791 123.591980 -22.331701 0.384216
-141.008499 123.591980 -22.331701 0.412872
-127.525192 123.591980 -22.331701 0.398310
-114.041885 123.591980 -22.331701 0.379573
-100.558594 123.591980 -22.331701 0.323771
-87.075287 123.591980 -22.331701 0.247046
-73.591980 123.591980 -22.331701 0.160285
-60.108704 123.591980 -22.331701 0.093838
-46.625397 123.591980 -22.331701 0.020083
-33.142090 123.591980 -22.331701 -0.040281
-19.658783 123.591980 -22.331701 -0.071403
-6.175476 123.591980 -22.331701 -0.098967
7.307800 123.591980 -22.331701 -0.121104
20.791107 123.591980 -22.331701 -0.137612
34.274414 123.591980 -22.331701 -0.160229
47.757721 123.591980 -22.331701 -0.164956
61.240997 123.591980 -22.331701 -0.155453
74.724304 123.591980 -22.331701 -0.137806
88.207611 123.591980 -22.331701 -0.116755
101.690918 123.591980 -22.331701 -0.094252
115.174225 123.591980 -22.331701 -0.070108
128.657501 123.591980 -22.331701 -0.048811
142.140808 123.591980 -22.331701 -0.030488
155.624115 123.591980 -22.331701 -0.025325
169.107422 123.591980 -22.331701 -0.021200
182.590698 123.591980 -22.331701 -0.012534
196.074036 123.591980 -22.331701 -0.008498
209.557312 123.591980 -22.331701 -0.006218
223.040588 123.591980 -22.331701 -0.005067
236.523926 123.591980 -22.331701 -0.002922
250.007202 123.591980 -22.331701 -0.002568
263.490540 123.591980 -22.331701 -0.002433
276.973816 123.591980 -22.331701 -0.001492
290.457092 123.591980 -22.331701 -0.001440
303.940430 123.591980 -22.331701 -0.000904
317.423706 123.591980 -22.331701 -0.000459
330.907043 123.591980 -22.331701 0.000000
344.390320 123.591980 -22.331701 0.000000
-343.257996 110.108704 -22.331701 0.000000
-329.774689 110.108704 -22.331701 0.000000
-316.291382 110.108704 -22.331701 -0.002082
-302.808105 110.108704 -22.331701 -0.000103
-289.324799 110.108704 -22.331701 0.003102
-275.841492 110.108704 -22.331701 0.010174
-262.358185 110.108704 -22.331701 0.021822
-248.874893 110.108704 -22.331701 0.042568
-235.391602 110.108704 -22.331701 0.067063
-221.908295 110.108704 -22.331701 0.099793
-208.424988 110.108704 -22.331701 0.140805
-194.941696 110.108704 -22.331701 0.225338
-181.458389 110.108704 -22.331701 0.318885
-167.975098 110.108704 -22.331701 0.372384
-154.491791 110.108704 -22.331701 0.431468
-141.008499 110.108704 -22.331701 0.460989
-127.525192 110.108704 -22.331701 0.451648
-114.041885 110.108704 -22.331701 0.395964
-100.558594 110.108704 -22.331701 0.296070
-87.075287 110.108704 -22.331701 0.228845
-73.591980 110.108704 -22.331701 0.154979
-60.108704 110.108704 -22.331701 0.061056
-46.625397 110.108704 -22.331701 -0.011140
-33.142090 110.108704 -22.331701 -0.060030
-19.658783 110.108704 -22.331701 -0.093147
-6.175476 110.108704 -22.331701 -0.102504
7.307800 110.108704 -22.331701 -0.114446
20.791107 110.108704 -22.331701 -0.130683
34.274414 110.108704 -22.331701 -0.157391
47.757721 110.108704 -22.331701 -0.147341
61.240997 110.108704 -22.331701 -0.134601
74.724304 110.108704 -22.331701 -0.117168
88.207611 110.108704 -22.331701 -0.091121
101.690918 110.108704 -22.331701 -0.076844
115.174225 110.108704 -22.331701 -0.057747
128.657501 110.108704 -22.331701 -0.041853
142.140808 110.108704 -22.331701 -0.024289
155.624115 110.108704 -22.331701 -0.019825
169.107422 110.108704 -22.331701 -0.010743
182.590698 110.108704 -22.331701 -0.009052
196.074036 110.108704 -22.331701 -0.007084
209.557312 110.108704 -22.331701 -0.003879
223.040588 110.108704 -22.331701 -0.004092
236.523926 110.108704 -22.331701 -0.002268
250.007202 110.108704 -22.331701 -0.002292
263.490540 110.108704 -22.331701 -0.002701
276.973816 110.108704 -22.331701 -0.001781
290.457092 110.108704 -22.331701 -0.000740
303.940430 110.108704 -22.331701 -0.000276
317.423706 110.108704 -22.331701 -0.000388
330.907043 110.108704 -22.331701 0.000000
344.390320 110.108704 -22.331701 0.000000
-343.257996 96.625397 -22.331701 0.000000
-329.774689 96.625397 -22.331701 0.000000
-316.291382 96.625397 -22.331701 -0.001265
-302.808105 96.625397 -22.331701 0.000171
-289.324799 96.625397 -22.331701 0.003979
-275.841492 96.625397 -22.331701 0.012214
-262.358185 96.625397 -22.331701 0.026131
-248.874893 96.625397 -22.331701 0.047473
-235.391602 96.625397 -22.331701 0.071393
-221.908295 96.625397 -22.331701 0.123808
-208.424988 96.625397 -22.331701 0.164980
-194.941696 96.625397 -22.331701 0.266425
-181.458389 96.625397 -22.331701 0.331836
-167.975098 96.625397 -22.331701 0.436741
-154.491791 96.625397 -22.331701 0.496727
-141.008499 96.625397 -22.331701 0.500905
-127.525192 96.625397 -22.331701 0.451457
-114.041885 96.625397 -22.331701 0.360515
-100.558594 96.625397 -22.331701 0.279597
-87.075287 96.625397 -22.331701 0.188802
-73.591980 96.625397 -22.331701 0.110723
-60.108704 96.625397 -22.331701 0.040099
-46.625397 96.625397 -22.331701 -0.031645
-33.142090 96.625397 -22.331701 -0.075853
-19.658783 96.625397 -22.331701 -0.091102
-6.175476 96.625397 -22.331701 -0.107060
7.307800 96.625397 -22.331701 -0.115786
20.791107 96.625397 -22.331701 -0.144717
34.274414 96.625397 -22.331701 -0.153909
47.757721 96.625397 -22.331701 -0.152590
61.240997 96.625397 -22.331701 -0.119895
74.724304 96.625397 -22.331701 -0.092077
88.207611 96.625397 -22.331701 -0.076959
101.690918 96.625397 -22.331701 -0.062369
115.174225 96.625397 -22.331701 -0.045686
128.657501 96.625397 -22.331701 -0.031434
142.140808 96.625397 -22.331701 -0.021912
155.624115 96.625397 -22.331701 -0.017064
169.107422 96.625397 -22.331701 -0.011463
182.590698 96.625397 -22.331701 -0.006235
196.074036 96.625397 -22.331701 -0.003807
209.557312 96.625397 -22.331701 -0.003558
223.040588 96.625397 -22.331701 -0.002351
236.523926 96.625397 -22.331701 -0.001843
250.007202 96.625397 -22.331701 -0.002361
263.490540 96.625397 -22.331701 -0.002028
276.973816 96.625397 -22.331701 -0.001565
290.457092 96.625397 -22.331701 -0.000672
303.940430 96.625397 -22.331701 -0.000188
317.423706 96.625397 -22.331701 -0.000104
330.907043 96.625397 -22.331701 0.000000
344.390320 96.625397 -22.331701 0.000000
-343.257996 83.142090 -22.331701 0.000000
-329.774689 83.142090 -22.331701 0.000000
-316.291382 83.142090 -22.331701 -0.000862
-302.808105 83.142090 -22.331701 0.000596
-289.324799 83.142090 -22.331701 0.006211
-275.841492 83.142090 -22.331701 0.015077
-262.358185 83.142090 -22.331701 0.031555
-248.874893 83.142090 -22.331701 0.054476
-235.391602 83.142090 -22.331701 0.094462
-221.908295 83.142090 -22.331701 0.155193
-208.424988 83.142090 -22.331701 0.200744
-194.941696 83.142090 -22.331701 0.296243
-181.458389 83.142090 -22.331701 0.394906
-167.975098 83.142090 -22.331701 0.501952
-154.491791 83.142090 -22.331701 0.540702
-141.008499 83.142090 -22.331701 0.514563
-127.525192 83.142090 -22.331701 0.446589
-114.041885 83.142090 -22.331701 0.322861
-100.558594 83.142090 -22.331701 0.236362
-87.075287 83.142090 -22.331701 0.164192
-73.591980 83.142090 -22.331701 0.086770
-60.108704 83.142090 -22.331701 0.012175
-46.625397 83.142090 -22.331701 -0.051067
-33.142090 83.142090 -22.331701 -0.080939
-19.658783 83.142090 -22.331701 -0.089656
-6.175476 83.142090 -22.331701 -0.100372
7.307800 83.142090 -22.331701 -0.131905
20.791107 83.142090 -22.331701 -0.170949
34.274414 83.142090 -22.331701 -0.174054
47.757721 83.142090 -22.331701 -0.153279
61.240997 83.142090 -22.331701 -0.128410
74.724304 83.142090 -22.331701 -0.086032
88.207611 83.142090 -22.331701 -0.063961
101.690918 83.142090 -22.331701 -0.047387
115.174225 83.142090 -22.331701 -0.038071
128.657501 83.142090 -22.331701 -0.029519
142.140808 83.142090 -22.331701 -0.020450
155.624115 83.142090 -22.331701 -0.013858
169.107422 83.142090 -22.331701 -0.009900
182.590698 83.142090 -22.331701 -0.007503
196.074036 83.142090 -22.331701 -0.003589
209.557312 83.142090 -22.331701 -0.002933
223.040588 83.142090 -22.331701 -0.002130
236.523926 83.142090 -22.331701 -0.001766
250.007202 83.142090 -22.331701 -0.001962
263.490540 83.142090 -22.331701 -0.001333
276.973816 83.142090 -22.331701 -0.001124
290.457092 83.142090 -22.331701 -0.000543
303.940430 83.142090 -22.331701 -0.000114
317.423706 83.142090 -22.331701 0.000132
330.907043 83.142090 -22.331701 0.000000
344.390320 83.142090 -22.331701 0.000000
-343.257996 69.658783 -22.331701 0.000000
-329.774689 69.658783 -22.331701 0.000000
-316.291382 69.658783 -22.331701 -0.000455
-302.808105 69.658783 -22.331701 0.000866
-289.324799 69.658783 -22.331701 0.008147
-275.841492 69.658783 -22.331701 0.019275
-262.358185 69.658783 -22.331701 0.039249
-248.874893 69.658783 -22.331701 0.071135
-235.391602 69.658783 -22.331701 0.106757
-221.908295 69.658783 -22.331701 0.161314
-208.424988 69.658783 -22.331701 0.249735
-194.941696 69.658783 -22.331701 0.326975
-181.458389 69.658783 -22.331701 0.458560
-167.975098 69.658783 -22.331701 0.561558
-154.491791 69.658783 -22.331701 0.599514
-141.008499 69.658783 -22.331701 0.547248
-127.525192 69.658783 -22.331701 0.448415
-114.041885 69.658783 -22.331701 0.334298
-100.558594 69.658783 -22.331701 0.205071
-87.075287 69.658783 -22.331701 0.128604
-73.591980 69.658783 -22.331701 0.045652
-60.108704 69.658783 -22.331701 -0.000885
-46.625397 69.658783 -22.331701 -0.055384
-33.142090 69.658783 -22.331701 -0.081455
-19.658783 69.658783 -22.331701 -0.095107
-6.175476 69.658783 -22.331701 -0.121894
7.307800 69.658783 -22.331701 -0.161521
20.791107 69.658783 -22.331701 -0.198770
34.274414 69.658783 -22.331701 -0.205056
47.757721 69.658783 -22.331701 -0.186389
61.240997 69.658783 -22.331701 -0.158978
74.724304 69.658783 -22.331701 -0.102961
88.207611 69.658783 -22.331701 -0.062774
101.690918 69.658783 -22.331701 -0.048175
115.174225 69.658783 -22.331701 -0.033997
128.657501 69.658783 -22.331701 -0.024459
142.140808 69.658783 -22.331701 -0.018905
155.624115 69.658783 -22.331701 -0.014531
169.107422 69.658783 -22.331701 -0.010325
182.590698 69.658783 -22.331701 -0.007365
196.074036 69.658783 -22.331701 -0.003863
209.557312 69.658783 -22.331701 -0.003127
223.040588 69.658783 -22.331701 -0.002026
236.523926 69.658783 -22.331701 -0.001385
250.007202 69.658783 -22.331701 -0.001344
263.490540 69.658783 -22.331701 -0.000919
276.973816 69.658783 -22.331701 -0.000715
290.457092 69.658783 -22.331701 -0.000438
303.940430 69.658783 -22.331701 0.000002
317.423706 69.658783 -22.331701 0.000243
330.907043 69.658783 -22.331701 0.000000
344.390320 69.658783 -22.331701 0.000000
-343.257996 56.175476 -22.331701 0.000000
-329.774689 56.175476 -22.331701 0.000000
-316.291382 56.175476 -22.331701 -0.000970
-302.808105 56.175476 -22.331701 0.003111
-289.324799 56.175476 -22.331701 0.009204
-275.841492 56.175476 -22.331701 0.025853
-262.358185 56.175476 -22.331701 0.046942
-248.874893 56.175476 -22.331701 0.084809
-235.391602 56.175476 -22.331701 0.127667
-221.908295 56.175476 -22.331701 0.193868
-208.424988 56.175476 -22.331701 0.283418
-194.941696 56.175476 -22.331701 0.380999
-181.458389 56.175476 -22.331701 0.497869
-167.975098 56.175476 -22.331701 0.598516
-154.491791 56.175476 -22.331701 0.622824
-141.008499 56.175476 -22.331701 0.553833
-127.525192 56.175476 -22.331701 0.432562
-114.041885 56.175476 -22.331701 0.252988
-100.558594 56.175476 -22.331701 0.164494
-87.075287 56.175476 -22.331701 0.077315
-73.591980 56.175476 -22.331701 0.029967
-60.108704 56.175476 -22.331701 -0.000035
-46.625397 56.175476 -22.331701 -0.057448
-33.142090 56.175476 -22.331701 -0.089284
-19.658783 56.175476 -22.331701 -0.095713
-6.175476 56.175476 -22.331701 -0.138127
7.307800 56.175476 -22.331701 -0.170965
20.791107 56.175476 -22.331701 -0.221899
34.274414 56.175476 -22.331701 -0.243906
47.757721 56.175476 -22.331701 -0.222114
61.240997 56.175476 -22.331701 -0.187509
74.724304 56.175476 -22.331701 -0.122280
88.207611 56.175476 -22.331701 -0.085174
101.690918 56.175476 -22.331701 -0.053855
115.174225 56.175476 -22.331701 -0.041612
128.657501 56.175476 -22.331701 -0.032939
142.140808 56.175476 -22.331701 -0.025875
155.624115 56.175476 -22.331701 -0.017077
169.107422 56.175476 -22.331701 -0.010672
182.590698 56.175476 -22.331701 -0.007195
196.074036 56.175476 -22.331701 -0.005208
209.557312 56.175476 -22.331701 -0.003458
223.040588 56.175476 -22.331701 -0.001727
236.523926 56.175476 -22.331701 -0.001109
250.007202 56.175476 -22.331701 -0.000869
263.490540 56.175476 -22.331701 -0.000565
276.973816 56.175476 -22.331701 -0.000370
290.457092 56.175476 -22.331701 -0.000094
303.940430 56.175476 -22.331701 0.000179
317.423706 56.175476 -22.331701 0.000291
330.907043 56.175476 -22.331701 0.000000
344.390320 56.175476 -22.331701 0.000000
-343.257996 42.692200 -22.331701 0.000000
-329.774689 42.692200 -22.331701 0.000000
-316.291382 42.692200 -22.331701 -0.000408
-302.808105 42.692200 -22.331701 0.003702
-289.324799 42.692200 -22.331701 0.011772
-275.841492 42.692200 -22.331701 0.030963
-262.358185 42.692200 -22.331701 0.053404
-248.874893 42.692200 -22.331701 0.092515
-235.391602 42.692200 -22.331701 0.155477
-221.908295 42.692200 -22.331701 0.224638
-208.424988 42.692200 -22.331701 0.315859
-194.941696 42.692200 -22.331701 0.402997
-181.458389 42.692200 -22.331701 0.535991
-167.975098 42.692200 -22.331701 0.606574
-154.491791 42.692200 -22.331701 0.605894
-141.008499 42.692200 -22.331701 0.508810
-127.525192 42.692200 -22.331701 0.361699
-114.041885 42.692200 -22.331701 0.235655
-100.558594 42.692200 -22.331701 0.150949
-87.075287 42.692200 -22.331701 0.066755
-73.591980 42.692200 -22.331701 0.025913
-60.108704 42.692200 -22.331701 -0.009910
-46.625397 42.692200 -22.331701 -0.058382
-33.142090 42.692200 -22.331701 -0.089751
-19.658783 42.692200 -22.331701 -0.090041
-6.175476 42.692200 -22.331701 -0.119993
7.307800 42.692200 -22.331701 -0.183169
20.791107 42.692200 -22.331701 -0.215254
34.274414 42.692200 -22.331701 -0.271753
47.757721 42.692200 -22.331701 -0.261600
61.240997 42.692200 -22.331701 -0.223721
74.724304 42.692200 -22.331701 -0.157133
88.207611 42.692200 -22.331701 -0.117058
101.690918 42.692200 -22.331701 -0.085624
115.174225 42.692200 -22.331701 -0.062082
128.657501 42.692200 -22.331701 -0.049385
142.140808 42.692200 -22.331701 -0.036733
155.624115 42.692200 -22.331701 -0.027197
169.107422 42.692200 -22.331701 -0.016662
182.590698 42.692200 -22.331701 -0.009287
196.074036 42.692200 -22.331701 -0.005908
209.557312 42.692200 -22.331701 -0.003601
223.040588 42.692200 -22.331701 -0.001592
236.523926 42.692200 -22.331701 -0.000827
250.007202 42.692200 -22.331701 -0.000358
263.490540 42.692200 -22.331701 -0.000289
276.973816 42.692200 -22.331701 -0.000207
290.457092 42.692200 -22.331701 -0.000010
303.940430 42.692200 -22.331701 0.000266
317.423706 42.692200 -22.331701 0.000283
330.907043 42.692200 -22.331701 0.000000
344.390320 42.692200 -22.331701 0.000000
-343.257996 29.208893 -22.331701 0.000000
-329.774689 29.208893 -22.331701 0.000000
-316.291382 29.208893 -22.331701 0.000179
-302.808105 29.208893 -22.331701 0.006324
-289.324799 29.208893 -22.331701 0.015642
-275.841492 29.208893 -22.331701 0.034398
-262.358185 29.208893 -22.331701 0.063406
-248.874893 29.208893 -22.331701 0.109061
-235.391602 29.208893 -22.331701 0.165501
-221.908295 29.208893 -22.331701 0.241113
-208.424988 29.208893 -22.331701 0.350976
-194.941696 29.208893 -22.331701 0.478442
-181.458389 29.208893 -22.331701 0.563933
-167.975098 29.208893 -22.331701 0.586980
-154.491791 29.208893 -22.331701 0.526985
-141.008499 29.208893 -22.331701 0.391048
-127.525192 29.208893 -22.331701 0.277582
-114.041885 29.208893 -22.331701 0.192866
-100.558594 29.208893 -22.331701 0.110271
-87.075287 29.208893 -22.331701 0.044817
-73.591980 29.208893 -22.331701 -0.001904
-60.108704 29.208893 -22.331701 -0.032373
-46.625397 29.208893 -22.331701 -0.054085
-33.142090 29.208893 -22.331701 -0.081507
-19.658783 29.208893 -22.331701 -0.121170
-6.175476 29.208893 -22.331701 -0.140841
7.307800 29.208893 -22.331701 -0.196659
20.791107 29.208893 -22.331701 -0.233219
34.274414 29.208893 -22.331701 -0.276034
47.757721 29.208893 -22.331701 -0.287199
61.240997 29.208893 -22.331701 -0.250321
74.724304 29.208893 -22.331701 -0.191781
88.207611 29.208893 -22.331701 -0.143603
101.690918 29.208893 -22.331701 -0.107810
115.174225 29.208893 -22.331701 -0.091172
128.657501 29.208893 -22.331701 -0.069993
142.140808 29.208893 -22.331701 -0.060124
155.624115 29.208893 -22.331701 -0.043944
169.107422 29.208893 -22.331701 -0.024860
182.590698 29.208893 -22.331701 -0.016284
196.074036 29.208893 -22.331701 -0.008479
209.557312 29.208893 -22.331701 -0.004008
223.040588 29.208893 -22.331701 -0.001165
236.523926 29.208893 -22.331701 -0.000275
250.007202 29.208893 -22.331701 -0.000288
263.490540 29.208893 -22.331701 -0.000262
276.973816 29.208893 -22.331701 -0.000201
290.457092 29.208893 -22.331701 0.000204
303.940430 29.208893 -22.331701 0.000438
317.423706 29.208893 -22.331701 0.000255
330.907043 29.208893 -22.331701 0.000000
344.390320 29.208893 -22.331701 0.000000
-343.257996 15.725586 -22.331701 0.000000
-329.774689 15.725586 -22.331701 0.000000
-316.291382 15.725586 -22.331701 -0.000862
-302.808105 15.725586 -22.331701 0.005951
-289.324799 15.725586 -22.331701 0.018421
-275.841492 15.725586 -22.331701 0.040193
-262.358185 15.725586 -22.331701 0.064889
-248.874893 15.725586 -22.331701 0.116085
-235.391602 15.725586 -22.331701 0.175230
-221.908295 15.725586 -22.331701 0.275964
-208.424988 15.725586 -22.331701 0.357402
-194.941696 15.725586 -22.331701 0.456963
-181.458389 15.725586 -22.331701 0.547315
-167.975098 15.725586 -22.331701 0.522161
-154.491791 15.725586 -22.331701 0.448873
-141.008499 15.725586 -22.331701 0.314016
-127.525192 15.725586 -22.331701 0.211756
-114.041885 15.725586 -22.331701 0.146010
-100.558594 15.725586 -22.331701 0.102887
-87.075287 15.725586 -22.331701 0.035149
-73.591980 15.725586 -22.331701 -0.003187
-60.108704 15.725586 -22.331701 -0.040923
-46.625397 15.725586 -22.331701 -0.050134
-33.142090 15.725586 -22.331701 -0.075235
-19.658783 15.725586 -22.331701 -0.116597
-6.175476 15.725586 -22.331701 -0.151558
7.307800 15.725586 -22.331701 -0.206645
20.791107 15.725586 -22.331701 -0.243930
34.274414 15.725586 -22.331701 -0.295566
47.757721 15.725586 -22.331701 -0.301668
61.240997 15.725586 -22.331701 -0.254486
74.724304 15.725586 -22.331701 -0.198273
88.207611 15.725586 -22.331701 -0.150688
101.690918 15.725586 -22.331701 -0.117916
115.174225 15.725586 -22.331701 -0.099168
128.657501 15.725586 -22.331701 -0.084397
142.140808 15.725586 -22.331701 -0.078097
155.624115 15.725586 -22.331701 -0.057089
169.107422 15.725586 -22.331701 -0.036024
182.590698 15.725586 -22.331701 -0.022651
196.074036 15.725586 -22.331701 -0.010023
209.557312 15.725586 -22.331701 -0.005525
223.040588 15.725586 -22.331701 -0.001683
236.523926 15.725586 -22.331701 -0.000784
250.007202 15.725586 -22.331701 -0.000022
263.490540 15.725586 -22.331701 -0.000002
276.973816 15.725586 -22.331701 -0.000446
290.457092 15.725586 -22.331701 -0.000282
303.940430 15.725586 -22.331701 0.000053
317.423706 15.725586 -22.331701 0.000456
330.907043 15.725586 -22.331701 0.000000
344.390320 15.725586 -22.331701 0.000000
-343.257996 2.242279 -22.331701 0.000000
-329.774689 2.242279 -22.331701 0.000000
-316.291382 2.242279 -22.331701 -0.000942
-302.808105 2.242279 -22.331701 0.006078
-289.324799 2.242279 -22.331701 0.016794
-275.841492 2.242279 -22.331701 0.043427
-262.358185 2.242279 -22.331701 0.075749
-248.874893 2.242279 -22.331701 0.127793
-235.391602 2.242279 -22.331701 0.191168
-221.908295 2.242279 -22.331701 0.266751
-208.424988 2.242279 -22.331701 0.345061
-194.941696 2.242279 -22.331701 0.443542
-181.458389 2.242279 -22.331701 0.505330
-167.975098 2.242279 -22.331701 0.460187
-154.491791 2.242279 -22.331701 0.395391
-141.008499 2.242279 -22.331701 0.277529
-127.525192 2.242279 -22.331701 0.162607
-114.041885 2.242279 -22.331701 0.118811
-100.558594 2.242279 -22.331701 0.076620
-87.075287 2.242279 -22.331701 0.023844
-73.591980 2.242279 -22.331701 -0.004020
-60.108704 2.242279 -22.331701 -0.031843
-46.625397 2.242279 -22.331701 -0.051138
-33.142090 2.242279 -22.331701 -0.078989
-19.658783 2.242279 -22.331701 -0.110669
-6.175476 2.242279 -22.331701 -0.164588
7.307800 2.242279 -22.331701 -0.230992
20.791107 2.242279 -22.331701 -0.272352
34.274414 2.242279 -22.331701 -0.306393
47.757721 2.242279 -22.331701 -0.300986
61.240997 2.242279 -22.331701 -0.246834
74.724304 2.242279 -22.331701 -0.195209
88.207611 2.242279 -22.331701 -0.151064
101.690918 2.242279 -22.331701 -0.095135
115.174225 2.242279 -22.331701 -0.079936
128.657501 2.242279 -22.331701 -0.069447
142.140808 2.242279 -22.331701 -0.062702
155.624115 2.242279 -22.331701 -0.062992
169.107422 2.242279 -22.331701 -0.042826
182.590698 2.242279 -22.331701 -0.028472
196.074036 2.242279 -22.331701 -0.015176
209.557312 2.242279 -22.331701 -0.006545
223.040588 2.242279 -22.331701 -0.002496
236.523926 2.242279 -22.331701 0.000104
250.007202 2.242279 -22.331701 0.000109
263.490540 2.242279 -22.331701 -0.000164
276.973816 2.242279 -22.331701 -0.000316
290.457092 2.242279 -22.331701 -0.000297
303.940430 2.242279 -22.331701 -0.000074
317.423706 2.242279 -22.331701 -0.000063
330.907043 2.242279 -22.331701 0.000000
344.390320 2.242279 -22.331701 0.000000
-343.257996 -11.240997 -22.331701 0.000000
-329.774689 -11.240997 -22.331701 0.000000
-316.291382 -11.240997 -22.331701 -0.002579
-302.808105 -11.240997 -22.331701 0.003966
-289.324799 -11.240997 -22.331701 0.015486
-275.841492 -11.240997 -22.331701 0.039698
-262.358185 -11.240997 -22.331701 0.076190
-248.874893 -11.240997 -22.331701 0.124217
-235.391602 -11.240997 -22.331701 0.182688
-221.908295 -11.240997 -22.331701 0.243650
-208.424988 -11.240997 -22.331701 0.344512
-194.941696 -11.240997 -22.331701 0.438709
-181.458389 -11.240997 -22.331701 0.424218
-167.975098 -11.240997 -22.331701 0.393311
-154.491791 -11.240997 -22.331701 0.314152
-141.008499 -11.240997 -22.331701 0.240145
-127.525192 -11.240997 -22.331701 0.142712
-114.041885 -11.240997 -22.331701 0.097042
-100.558594 -11.240997 -22.331701 0.068797
-87.075287 -11.240997 -22.331701 0.031860
-73.591980 -11.240997 -22.331701 -0.011046
-60.108704 -11.240997 -22.331701 -0.037260
-46.625397 -11.240997 -22.331701 -0.056135
-33.142090 -11.240997 -22.331701 -0.078568
-19.658783 -11.240997 -22.331701 -0.117689
-6.175476 -11.240997 -22.331701 -0.166399
7.307800 -11.240997 -22.331701 -0.227767
20.791107 -11.240997 -22.331701 -0.288525
34.274414 -11.240997 -22.331701 -0.308473
47.757721 -11.240997 -22.331701 -0.277668
61.240997 -11.240997 -22.331701 -0.225374
74.724304 -11.240997 -22.331701 -0.164977
88.207611 -11.240997 -22.331701 -0.110988
101.690918 -11.240997 -22.331701 -0.070467
115.174225 -11.240997 -22.331701 -0.059574
128.657501 -11.240997 -22.331701 -0.053868
142.140808 -11.240997 -22.331701 -0.047435
155.624115 -11.240997 -22.331701 -0.047173
169.107422 -11.240997 -22.331701 -0.040364
182.590698 -11.240997 -22.331701 -0.030228
196.074036 -11.240997 -22.331701 -0.018435
209.557312 -11.240997 -22.331701 -0.007152
223.040588 -11.240997 -22.331701 -0.001367
236.523926 -11.240997 -22.331701 0.001673
250.007202 -11.240997 -22.331701 0.001054
263.490540 -11.240997 -22.331701 0.000169
276.973816 -11.240997 -22.331701 -0.000285
290.457092 -11.240997 -22.331701 -0.000072
303.940430 -11.240997 -22.331701 0.000201
317.423706 -11.240997 -22.331701 0.000040
330.907043 -11.240997 -22.331701 0.000000
344.390320 -11.240997 -22.331701 0.000000
-343.257996 -24.724304 -22.331701 0.000000
-329.774689 -24.724304 -22.331701 0.000000
-316.291382 -24.724304 -22.331701 -0.004087
-302.808105 -24.724304 -22.331701 0.001082
-289.324799 -24.724304 -22.331701 0.013788
-275.841492 -24.724304 -22.331701 0.028919
-262.358185 -24.724304 -22.331701 0.065169
-248.874893 -24.724304 -22.331701 0.102941
-235.391602 -24.724304 -22.331701 0.182019
-221.908295 -24.724304 -22.331701 0.262921
-208.424988 -24.724304 -22.331701 0.330988
-194.941696 -24.724304 -22.331701 0.420456
-181.458389 -24.724304 -22.331701 0.383212
-167.975098 -24.724304 -22.331701 0.343169
-154.491791 -24.724304 -22.331701 0.263937
-141.008499 -24.724304 -22.331701 0.192732
-127.525192 -24.724304 -22.331701 0.111162
-114.041885 -24.724304 -22.331701 0.073723
-100.558594 -24.724304 -22.331701 0.053653
-87.075287 -24.724304 -22.331701 0.018010
-73.591980 -24.724304 -22.331701 -0.003751
-60.108704 -24.724304 -22.331701 -0.038374
-46.625397 -24.724304 -22.331701 0.000000
-33.142090 -24.724304 -22.331701 -0.091218
-19.658783 -24.724304 -22.331701 -0.128548
-6.175476 -24.724304 -22.331701 -0.165370
7.307800 -24.724304 -22.331701 -0.241008
20.791107 -24.724304 -22.331701 -0.277098
34.274414 -24.724304 -22.331701 -0.298014
47.757721 -24.724304 -22.331701 -0.234922
61.240997 -24.724304 -22.331701 -0.174013
74.724304 -24.724304 -22.331701 -0.115836
88.207611 -24.724304 -22.331701 -0.074378
101.690918 -24.724304 -22.331701 -0.048037
115.174225 -24.724304 -22.331701 -0.039147
128.657501 -24.724304 -22.331701 -0.037263
142.140808 -24.724304 -22.331701 -0.037526
155.624115 -24.724304 -22.331701 -0.037984
169.107422 -24.724304 -22.331701 -0.039457
182.590698 -24.724304 -22.331701 -0.031753
196.074036 -24.724304 -22.331701 -0.017985
209.557312 -24.724304 -22.331701 -0.006640
223.040588 -24.724304 -22.331701 -0.000417
236.523926 -24.724304 -22.331701 0.001877
250.007202 -24.724304 -22.331701 0.001677
263.490540 -24.724304 -22.331701 0.001385
276.973816 -24.724304 -22.331701 0.000543
290.457092 -24.724304 -22.331701 0.000629
303.940430 -24.724304 -22.331701 0.000696
317.423706 -24.724304 -22.331701 0.000421
330.907043 -24.724304 -22.331701 0.000000
344.390320 -24.724304 -22.331701 0.000000
-343.257996 -38.207611 -22.331701 0.000000
-329.774689 -38.207611 -22.331701 0.000000
-316.291382 -38.207611 -22.331701 -0.009221
-302.808105 -38.207611 -22.331701 0.001546
-289.324799 -38.207611 -22.331701 0.015144
-275.841492 -38.207611 -22.331701 0.038961
-262.358185 -38.207611 -22.331701 0.074157
-248.874893 -38.207611 -22.331701 0.127184
-235.391602 -38.207611 -22.331701 0.214579
-221.908295 -38.207611 -22.331701 0.282805
-208.424988 -38.207611 -22.331701 0.335668
-194.941696 -38.207611 -22.331701 0.367538
-181.458389 -38.207611 -22.331701 0.341167
-167.975098 -38.207611 -22.331701 0.281922
-154.491791 -38.207611 -22.331701 0.227175
-141.008499 -38.207611 -22.331701 0.157510
-127.525192 -38.207611 -22.331701 0.105891
-114.041885 -38.207611 -22.331701 0.063480
-100.558594 -38.207611 -22.331701 0.049762
-87.075287 -38.207611 -22.331701 0.012229
-73.591980 -38.207611 -22.331701 -0.024523
-60.108704 -38.207611 -22.331701 -0.056405
-46.625397 -38.207611 -22.331701 -0.084005
-33.142090 -38.207611 -22.331701 -0.121559
-19.658783 -38.207611 -22.331701 -0.169092
-6.175476 -38.207611 -22.331701 -0.205652
7.307800 -38.207611 -22.331701 -0.239898
20.791107 -38.207611 -22.331701 -0.270868
34.274414 -38.207611 -22.331701 -0.264563
47.757721 -38.207611 -22.331701 -0.191805
61.240997 -38.207611 -22.331701 -0.125208
74.724304 -38.207611 -22.331701 -0.074291
88.207611 -38.207611 -22.331701 -0.053209
101.690918 -38.207611 -22.331701 -0.031548
115.174225 -38.207611 -22.331701 -0.029064
128.657501 -38.207611 -22.331701 -0.026911
142.140808 -38.207611 -22.331701 -0.029158
155.624115 -38.207611 -22.331701 -0.042977
169.107422 -38.207611 -22.331701 -0.044476
182.590698 -38.207611 -22.331701 -0.033249
196.074036 -38.207611 -22.331701 -0.021826
209.557312 -38.207611 -22.331701 -0.009836
223.040588 -38.207611 -22.331701 -0.000871
236.523926 -38.207611 -22.331701 0.001109
250.007202 -38.207611 -22.331701 0.002017
263.490540 -38.207611 -22.331701 0.002178
276.973816 -38.207611 -22.331701 0.001989
290.457092 -38.207611 -22.331701 0.001607
303.940430 -38.207611 -22.331701 0.001051
317.423706 -38.207611 -22.331701 0.001081
330.907043 -38.207611 -22.331701 0.000000
344.390320 -38.207611 -22.331701 0.000000
-343.257996 -51.690918 -22.331701 0.000000
-329.774689 -51.690918 -22.331701 0.000000
-316.291382 -51.690918 -22.331701 0.000000
-302.808105 -51.690918 -22.331701 -0.007703
-289.324799 -51.690918 -22.331701 0.014215
-275.841492 -51.690918 -22.331701 0.044885
-262.358185 -51.690918 -22.331701 0.084618
-248.874893 -51.690918 -22.331701 0.129531
-235.391602 -51.690918 -22.331701 0.222092
-221.908295 -51.690918 -22.331701 0.285246
-208.424988 -51.690918 -22.331701 0.341233
-194.941696 -51.690918 -22.331701 0.332295
-181.458389 -51.690918 -22.331701 0.332584
-167.975098 -51.690918 -22.331701 0.252701
-154.491791 -51.690918 -22.331701 0.189286
-141.008499 -51.690918 -22.331701 0.127497
-127.525192 -51.690918 -22.331701 0.078950
-114.041885 -51.690918 -22.331701 0.061179
-100.558594 -51.690918 -22.331701 0.023385
-87.075287 -51.690918 -22.331701 -0.002994
-73.591980 -51.690918 -22.331701 -0.030726
-60.108704 -51.690918 -22.331701 -0.067470
-46.625397 -51.690918 -22.331701 -0.106940
-33.142090 -51.690918 -22.331701 -0.137205
-19.658783 -51.690918 -22.331701 -0.186035
-6.175476 -51.690918 -22.331701 -0.230972
7.307800 -51.690918 -22.331701 -0.248731
20.791107 -51.690918 -22.331701 -0.247741
34.274414 -51.690918 -22.331701 -0.216542
47.757721 -51.690918 -22.331701 -0.154390
61.240997 -51.690918 -22.331701 -0.093052
74.724304 -51.690918 -22.331701 -0.054987
88.207611 -51.690918 -22.331701 -0.035373
101.690918 -51.690918 -22.331701 -0.022621
115.174225 -51.690918 -22.331701 -0.023949
128.657501 -51.690918 -22.331701 -0.022502
142.140808 -51.690918 -22.331701 -0.025106
155.624115 -51.690918 -22.331701 -0.034176
169.107422 -51.690918 -22.331701 -0.044322
182.590698 -51.690918 -22.331701 -0.041987
196.074036 -51.690918 -22.331701 -0.026585
209.557312 -51.690918 -22.331701 -0.014270
223.040588 -51.690918 -22.331701 -0.004288
236.523926 -51.690918 -22.331701 -0.000644
250.007202 -51.690918 -22.331701 0.001451
263.490540 -51.690918 -22.331701 0.002565
276.973816 -51.690918 -22.331701 0.002168
290.457092 -51.690918 -22.331701 0.001629
303.940430 -51.690918 -22.331701 0.001721
317.423706 -51.690918 -22.331701 0.001506
330.907043 -51.690918 -22.331701 0.000000
344.390320 -51.690918 -22.331701 0.000000
-343.257996 -65.174225 -22.331701 0.000000
-329.774689 -65.174225 -22.331701 0.000000
-316.291382 -65.174225 -22.331701 0.000000
-302.808105 -65.174225 -22.331701 0.000000
-289.324799 -65.174225 -22.331701 0.006187
-275.841492 -65.174225 -22.331701 0.000000
-262.358185 -65.174225 -22.331701 0.000000
-248.874893 -65.174225 -22.331701 0.000000
-235.391602 -65.174225 -22.331701 0.000000
-221.908295 -65.174225 -22.331701 0.250563
-208.424988 -65.174225 -22.331701 0.304502
-194.941696 -65.174225 -22.331701 0.296823
-181.458389 -65.174225 -22.331701 0.281694
-167.975098 -65.174225 -22.331701 0.215370
-154.491791 -65.174225 -22.331701 0.149319
-141.008499 -65.174225 -22.331701 0.113893
-127.525192 -65.174225 -22.331701 0.064754
-114.041885 -65.174225 -22.331701 0.051667
-100.558594 -65.174225 -22.331701 0.013250
-87.075287 -65.174225 -22.331701 -0.041650
-73.591980 -65.174225 -22.331701 -0.065460
-60.108704 -65.174225 -22.331701 -0.080952
-46.625397 -65.174225 -22.331701 -0.128565
-33.142090 -65.174225 -22.331701 -0.160524
-19.658783 -65.174225 -22.331701 -0.193527
-6.175476 -65.174225 -22.331701 -0.203303
7.307800 -65.174225 -22.331701 -0.228173
20.791107 -65.174225 -22.331701 -0.210649
34.274414 -65.174225 -22.331701 -0.170029
47.757721 -65.174225 -22.331701 -0.117569
61.240997 -65.174225 -22.331701 -0.060236
74.724304 -65.174225 -22.331701 -0.041086
88.207611 -65.174225 -22.331701 -0.026939
101.690918 -65.174225 -22.331701 -0.018326
115.174225 -65.174225 -22.331701 -0.016782
128.657501 -65.174225 -22.331701 -0.014204
142.140808 -65.174225 -22.331701 -0.020737
155.624115 -65.174225 -22.331701 -0.028675
169.107422 -65.174225 -22.331701 -0.036635
182.590698 -65.174225 -22.331701 -0.041178
196.074036 -65.174225 -22.331701 -0.030203
209.557312 -65.174225 -22.331701 -0.017741
223.040588 -65.174225 -22.331701 -0.006728
236.523926 -65.174225 -22.331701 -0.000921
250.007202 -65.174225 -22.331701 -0.000683
263.490540 -65.174225 -22.331701 0.001549
276.973816 -65.174225 -22.331701 0.001382
290.457092 -65.174225 -22.331701 0.001314
303.940430 -65.174225 -22.331701 0.001496
317.423706 -65.174225 -22.331701 0.001866
330.907043 -65.174225 -22.331701 0.000000
344.390320 -65.174225 -22.331701 0.000000
-343.257996 -78.657501 -22.331701 0.000000
-329.774689 -78.657501 -22.331701 0.000000
-316.291382 -78.657501 -22.331701 0.000000
-302.808105 -78.657501 -22.331701 0.000000
-289.324799 -78.657501 -22.331701 0.000000
-275.841492 -78.657501 -22.331701 0.000000
-262.358185 -78.657501 -22.331701 0.000000
-248.874893 -78.657501 -22.331701 0.000000
-235.391602 -78.657501 -22.331701 0.000000
-221.908295 -78.657501 -22.331701 0.000000
-208.424988 -78.657501 -22.331701 0.261342
-194.941696 -78.657501 -22.331701 0.257227
-181.458389 -78.657501 -22.331701 0.228007
-167.975098 -78.657501 -22.331701 0.180994
-154.491791 -78.657501 -22.331701 0.163224
-141.008499 -78.657501 -22.331701 0.121913
-127.525192 -78.657501 -22.331701 0.000000
-114.041885 -78.657501 -22.331701 0.023662
-100.558594 -78.657501 -22.331701 -0.020591
-87.075287 -78.657501 -22.331701 -0.049927
-73.591980 -78.657501 -22.331701 -0.064538
-60.108704 -78.657501 -22.331701 -0.095966
-46.625397 -78.657501 -22.331701 -0.113432
-33.142090 -78.657501 -22.331701 -0.146174
-19.658783 -78.657501 -22.331701 -0.171095
-6.175476 -78.657501 -22.331701 -0.166997
7.307800 -78.657501 -22.331701 -0.184826
20.791107 -78.657501 -22.331701 -0.159269
34.274414 -78.657501 -22.331701 -0.114486
47.757721 -78.657501 -22.331701 -0.067101
61.240997 -78.657501 -22.331701 -0.043697
74.724304 -78.657501 -22.331701 -0.026311
88.207611 -78.657501 -22.331701 -0.018221
101.690918 -78.657501 -22.331701 -0.012871
115.174225 -78.657501 -22.331701 -0.012857
128.657501 -78.657501 -22.331701 -0.011246
142.140808 -78.657501 -22.331701 -0.015284
155.624115 -78.657501 -22.331701 -0.027052
169.107422 -78.657501 -22.331701 -0.031824
182.590698 -78.657501 -22.331701 -0.041615
196.074036 -78.657501 -22.331701 -0.036660
209.557312 -78.657501 -22.331701 -0.022420
223.040588 -78.657501 -22.331701 -0.012310
236.523926 -78.657501 -22.331701 -0.005065
250.007202 -78.657501 -22.331701 -0.000679
263.490540 -78.657501 -22.331701 0.000496
276.973816 -78.657501 -22.331701 0.000863
290.457092 -78.657501 -22.331701 0.000972
303.940430 -78.657501 -22.331701 0.000711
317.423706 -78.657501 -22.331701 0.001231
330.907043 -78.657501 -22.331701 0.000000
344.390320 -78.657501 -22.331701 0.000000
-343.257996 -92.140808 -22.331701 0.000000
-329.774689 -92.140808 -22.331701 0.000000
-316.291382 -92.140808 -22.331701 0.000000
-302.808105 -92.140808 -22.331701 0.000000
-289.324799 -92.140808 -22.331701 0.000000
-275.841492 -92.140808 -22.331701 0.000000
-262.358185 -92.140808 -22.331701 0.000000
-248.874893 -92.140808 -22.331701 0.000000
-235.391602 -92.140808 -22.331701 0.000000
-221.908295 -92.140808 -22.331701 0.000000
-208.424988 -92.140808 -22.331701 0.000000
-194.941696 -92.140808 -22.331701 0.251424
-181.458389 -92.140808 -22.331701 0.000000
-167.975098 -92.140808 -22.331701 0.000000
-154.491791 -92.140808 -22.331701 0.000000
-141.008499 -92.140808 -22.331701 0.123179
-127.525192 -92.140808 -22.331701 0.000000
-114.041885 -92.140808 -22.331701 0.047763
-100.558594 -92.140808 -22.331701 0.010376
-87.075287 -92.140808 -22.331701 -0.041513
-73.591980 -92.140808 -22.331701 -0.047846
-60.108704 -92.140808 -22.331701 -0.078164
-46.625397 -92.140808 -22.331701 -0.109510
-33.142090 -92.140808 -22.331701 -0.145397
-19.658783 -92.140808 -22.331701 -0.144509
-6.175476 -92.140808 -22.331701 -0.134031
7.307800 -92.140808 -22.331701 -0.128061
20.791107 -92.140808 -22.331701 -0.100038
34.274414 -92.140808 -22.331701 -0.076960
47.757721 -92.140808 -22.331701 -0.044642
61.240997 -92.140808 -22.331701 -0.025870
74.724304 -92.140808 -22.331701 -0.017673
88.207611 -92.140808 -22.331701 -0.007239
101.690918 -92.140808 -22.331701 -0.002806
115.174225 -92.140808 -22.331701 -0.006013
128.657501 -92.140808 -22.331701 -0.008882
142.140808 -92.140808 -22.331701 -0.011563
155.624115 -92.140808 -22.331701 -0.018747
169.107422 -92.140808 -22.331701 -0.028921
182.590698 -92.140808 -22.331701 -0.041376
196.074036 -92.140808 -22.331701 -0.036344
209.557312 -92.140808 -22.331701 -0.026201
223.040588 -92.140808 -22.331701 -0.018870
236.523926 -92.140808 -22.331701 -0.011101
250.007202 -92.140808 -22.331701 -0.002927
263.490540 -92.140808 -22.331701 -0.001887
276.973816 -92.140808 -22.331701 -0.001580
290.457092 -92.140808 -22.331701 -0.000814
303.940430 -92.140808 -22.331701 0.000262
317.423706 -92.140808 -22.331701 0.000734
330.907043 -92.140808 -22.331701 0.000000
344.390320 -92.140808 -22.331701 0.000000
-343.257996 -105.624115 -22.331701 0.000000
-329.774689 -105.624115 -22.331701 0.000000
-316.291382 -105.624115 -22.331701 0.000000
-302.808105 -105.624115 -22.331701 0.000000
-289.324799 -105.624115 -22.331701 0.000000
-275.841492 -105.624115 -22.331701 0.000000
-262.358185 -105.624115 -22.331701 0.000000
-248.874893 -105.624115 -22.331701 0.000000
-235.391602 -105.624115 -22.331701 0.000000
-221.908295 -105.624115 -22.331701 0.000000
-208.424988 -105.624115 -22.331701 0.000000
-194.941696 -105.624115 -22.331701 0.239126
-181.458389 -105.624115 -22.331701 0.000000
-167.975098 -105.624115 -22.331701 0.000000
-154.491791 -105.624115 -22.331701 0.000000
-141.008499 -105.624115 -22.331701 0.082822
-127.525192 -105.624115 -22.331701 0.000000
-114.041885 -105.624115 -22.331701 0.000000
-100.558594 -105.624115 -22.331701 -0.002595
-87.075287 -105.624115 -22.331701 0.000000
-73.591980 -105.624115 -22.331701 0.000000
-60.108704 -105.624115 -22.331701 0.000000
-46.625397 -105.624115 -22.331701 -0.058447
-33.142090 -105.624115 -22.331701 -0.102221
-19.658783 -105.624115 -22.331701 -0.095467
-6.175476 -105.624115 -22.331701 -0.086483
7.307800 -105.624115 -22.331701 -0.077178
20.791107 -105.624115 -22.331701 -0.069331
34.274414 -105.624115 -22.331701 -0.059875
47.757721 -105.624115 -22.331701 -0.029599
61.240997 -105.624115 -22.331701 -0.018732
74.724304 -105.624115 -22.331701 -0.015435
88.207611 -105.624115 -22.331701 -0.005044
101.690918 -105.624115 -22.331701 -0.002071
115.174225 -105.624115 -22.331701 0.001849
128.657501 -105.624115 -22.331701 0.000739
142.140808 -105.624115 -22.331701 -0.006394
155.624115 -105.624115 -22.331701 -0.016603
169.107422 -105.624115 -22.331701 -0.021837
182.590698 -105.624115 -22.331701 -0.034113
196.074036 -105.624115 -22.331701 -0.036997
209.557312 -105.624115 -22.331701 -0.035478
223.040588 -105.624115 -22.331701 -0.021450
236.523926 -105.624115 -22.331701 -0.013205
250.007202 -105.624115 -22.331701 -0.006116
263.490540 -105.624115 -22.331701 -0.004058
276.973816 -105.624115 -22.331701 -0.004469
290.457092 -105.624115 -22.331701 -0.002001
303.940430 -105.624115 -22.331701 -0.000782
317.423706 -105.624115 -22.331701 0.000402
330.907043 -105.624115 -22.331701 0.000000
344.390320 -105.624115 -22.331701 0.000000
-343.257996 -119.107422 -22.331701 0.000000
-329.774689 -119.107422 -22.331701 0.000000
-316.291382 -119.107422 -22.331701 0.000000
-302.808105 -119.107422 -22.331701 0.000000
-289.324799 -119.107422 -22.331701 0.000000
-275.841492 -119.107422 -22.331701 0.000000
-262.358185 -119.107422 -22.331701 0.000000
-248.874893 -119.107422 -22.331701 0.000000
-235.391602 -119.107422 -22.331701 0.000000
-221.908295 -119.107422 -22.331701 0.000000
-208.424988 -119.107422 -22.331701 0.000000
-194.941696 -119.107422 -22.331701 0.000000
-181.458389 -119.107422 -22.331701 0.000000
-167.975098 -119.107422 -22.331701 0.000000
-154.491791 -119.107422 -22.331701 0.143028
-141.008499 -119.107422 -22.331701 0.088786
-127.525192 -119.107422 -22.331701 0.000000
-114.041885 -119.107422 -22.331701 0.000000
-100.558594 -119.107422 -22.331701 -0.047862
-87.075287 -119.107422 -22.331701 0.000000
-73.591980 -119.107422 -22.331701 -0.066761
-60.108704 -119.107422 -22.331701 0.000000
-46.625397 -119.107422 -22.331701 -0.064758
-33.142090 -119.107422 -22.331701 -0.081136
-19.658783 -119.107422 -22.331701 -0.080961
-6.175476 -119.107422 -22.331701 -0.071408
7.307800 -119.107422 -22.331701 -0.059668
20.791107 -119.107422 -22.331701 -0.044565
34.274414 -119.107422 -22.331701 -0.035544
47.757721 -119.107422 -22.331701 -0.028650
61.240997 -119.107422 -22.331701 -0.018023
74.724304 -119.107422 -22.331701 -0.009196
88.207611 -119.107422 -22.331701 -0.003433
101.690918 -119.107422 -22.331701 0.004553
115.174225 -119.107422 -22.331701 0.005682
128.657501 -119.107422 -22.331701 0.003326
142.140808 -119.107422 -22.331701 -0.004929
155.624115 -119.107422 -22.331701 -0.014287
169.107422 -119.107422 -22.331701 -0.022975
182.590698 -119.107422 -22.331701 -0.034433
196.074036 -119.107422 -22.331701 -0.041164
209.557312 -119.107422 -22.331701 -0.037090
223.040588 -119.107422 -22.331701 -0.026019
236.523926 -119.107422 -22.331701 -0.016171
250.007202 -119.107422 -22.331701 -0.009893
263.490540 -119.107422 -22.331701 -0.007479
276.973816 -119.107422 -22.331701 -0.005705
290.457092 -119.107422 -22.331701 -0.005036
303.940430 -119.107422 -22.331701 -0.002630
317.423706 -119.107422 -22.331701 -0.002346
330.907043 -119.107422 -22.331701 0.000000
344.390320 -119.107422 -22.331701 0.000000
-343.257996 -132.590698 -22.331701 0.000000
-329.774689 -132.590698 -22.331701 0.000000
-316.291382 -132.590698 -22.331701 0.000000
-302.808105 -132.590698 -22.331701 0.000000
-289.324799 -132.590698 -22.331701 0.000000
-275.841492 -132.590698 -22.331701 0.000000
-262.358185 -132.590698 -22.331701 0.000000
-248.874893 -132.590698 -22.331701 0.000000
-235.391602 -132.590698 -22.331701 0.000000
-221.908295 -132.590698 -22.331701 0.000000
-208.424988 -132.590698 -22.331701 0.000000
-194.941696 -132.590698 -22.331701 0.000000
-181.458389 -132.590698 -22.331701 0.204472
-167.975098 -132.590698 -22.331701 0.194171
-154.491791 -132.590698 -22.331701 0.177497
-141.008499 -132.590698 -22.331701 0.119481
-127.525192 -132.590698 -22.331701 0.040454
-114.041885 -132.590698 -22.331701 -0.035941
-100.558594 -132.590698 -22.331701 -0.071517
-87.075287 -132.590698 -22.331701 -0.087008
-73.591980 -132.590698 -22.331701 -0.084346
-60.108704 -132.590698 -22.331701 0.000000
-46.625397 -132.590698 -22.331701 0.000000
-33.142090 -132.590698 -22.331701 0.000000
-19.658783 -132.590698 -22.331701 -0.079950
-6.175476 -132.590698 -22.331701 0.000000
7.307800 -132.590698 -22.331701 0.000000
20.791107 -132.590698 -22.331701 -0.043476
34.274414 -132.590698 -22.331701 0.000000
47.757721 -132.590698 -22.331701 -0.019000
61.240997 -132.590698 -22.331701 -0.007389
74.724304 -132.590698 -22.331701 0.002352
88.207611 -132.590698 -22.331701 0.003036
101.690918 -132.590698 -22.331701 0.009764
115.174225 -132.590698 -22.331701 0.007442
128.657501 -132.590698 -22.331701 0.005856
142.140808 -132.590698 -22.331701 -0.000766
155.624115 -132.590698 -22.331701 -0.005720
169.107422 -132.590698 -22.331701 -0.022343
182.590698 -132.590698 -22.331701 -0.035138
196.074036 -132.590698 -22.331701 -0.043914
209.557312 -132.590698 -22.331701 -0.036985
223.040588 -132.590698 -22.331701 -0.033055
236.523926 -132.590698 -22.331701 -0.025798
250.007202 -132.590698 -22.331701 -0.012337
263.490540 -132.590698 -22.331701 -0.008347
276.973816 -132.590698 -22.331701 -0.009497
290.457092 -132.590698 -22.331701 -0.009686
303.940430 -132.590698 -22.331701 0.000000
317.423706 -132.590698 -22.331701 0.000000
330.907043 -132.590698 -22.331701 0.000000
344.390320 -132.590698 -22.331701 0.000000
-343.257996 -146.074036 -22.331701 0.000000
-329.774689 -146.074036 -22.331701 0.000000
-316.291382 -146.074036 -22.331701 0.000000
-302.808105 -146.074036 -22.331701 0.000000
-289.324799 -146.074036 -22.331701 0.000000
-275.841492 -146.074036 -22.331701 0.000000
-262.358185 -146.074036 -22.331701 0.000000
-248.874893 -146.074036 -22.331701 0.000000
-235.391602 -146.074036 -22.331701 0.000000
-221.908295 -146.074036 -22.331701 0.000000
-208.424988 -146.074036 -22.331701 0.000000
-194.941696 -146.074036 -22.331701 0.000000
-181.458389 -146.074036 -22.331701 0.000000
-167.975098 -146.074036 -22.331701 0.000000
-154.491791 -146.074036 -22.331701 0.000000
-141.008499 -146.074036 -22.331701 0.000000
-127.525192 -146.074036 -22.331701 0.000000
-114.041885 -146.074036 -22.331701 0.000000
-100.558594 -146.074036 -22.331701 0.000000
-87.075287 -146.074036 -22.331701 0.000000
-73.591980 -146.074036 -22.331701 0.000000
-60.108704 -146.074036 -22.331701 0.000000
-46.625397 -146.074036 -22.331701 0.000000
-33.142090 -146.074036 -22.331701 0.000000
-19.658783 -146.074036 -22.331701 0.000000
-6.175476 -146.074036 -22.331701 0.000000
7.307800 -146.074036 -22.331701 0.000000
20.791107 -146.074036 -22.331701 0.000000
34.274414 -146.074036 -22.331701 0.000000
47.757721 -146.074036 -22.331701 0.000000
61.240997 -146.074036 -22.331701 0.000000
74.724304 -146.074036 -22.331701 0.000000
88.207611 -146.074036 -22.331701 0.000000
101.690918 -146.074036 -22.331701 0.000000
115.174225 -146.074036 -22.331701 0.000000
128.657501 -146.074036 -22.331701 0.004864
142.140808 -146.074036 -22.331701 -0.003682
155.624115 -146.074036 -22.331701 -0.011320
169.107422 -146.074036 -22.331701 -0.021506
182.590698 -146.074036 -22.331701 -0.039035
196.074036 -146.074036 -22.331701 -0.044339
209.557312 -146.074036 -22.331701 -0.044562
223.040588 -146.074036 -22.331701 -0.043800
236.523926 -146.074036 -22.331701 0.000000
250.007202 -146.074036 -22.331701 -0.023953
263.490540 -146.074036 -22.331701 -0.023850
276.973816 -146.074036 -22.331701 0.000000
290.457092 -146.074036 -22.331701 0.000000
303.940430 -146.074036 -22.331701 0.000000
317.423706 -146.074036 -22.331701 0.000000
330.907043 -146.074036 -22.331701 0.000000
344.390320 -146.074036 -22.331701 0.000000
-343.257996 -159.557312 -22.331701 0.000000
-329.774689 -159.557312 -22.331701 0.000000
-316.291382 -159.557312 -22.331701 0.000000
-302.808105 -159.557312 -22.331701 0.000000
-289.324799 -159.557312 -22.331701 0.000000
-275.841492 -159.557312 -22.331701 0.000000
-262.358185 -159.557312 -22.331701 0.000000
-248.874893 -159.557312 -22.331701 0.000000
-235.391602 -159.557312 -22.331701 0.000000
-221.908295 -159.557312 -22.331701 0.000000
-208.424988 -159.557312 -22.331701 0.000000
-194.941696 -159.557312 -22.331701 0.000000
-181.458389 -159.557312 -22.331701 0.000000
-167.975098 -159.557312 -22.331701 0.000000
-154.491791 -159.557312 -22.331701 0.000000
-141.008499 -159.557312 -22.331701 0.000000
-127.525192 -159.557312 -22.331701 0.000000
-114.041885 -159.557312 -22.331701 0.000000
-100.558594 -159.557312 -22.331701 0.000000
-87.075287 -159.557312 -22.331701 0.000000
-73.591980 -159.557312 -22.331701 0.000000
-60.108704 -159.557312 -22.331701 0.000000
-46.625397 -159.557312 -22.331701 0.000000
-33.142090 -159.557312 -22.331701 0.000000
-19.658783 -159.557312 -22.331701 0.000000
-6.175476 -159.557312 -22.331701 0.000000
7.307800 -159.557312 -22.331701 0.000000
20.791107 -159.557312 -22.331701 0.000000
34.274414 -159.557312 -22.331701 0.000000
47.757721 -159.557312 -22.331701 0.000000
61.240997 -159.557312 -22.331701 0.000000
74.724304 -159.557312 -22.331701 0.000000
88.207611 -159.557312 -22.331701 0.000000
101.690918 -159.557312 -22.331701 0.000000
115.174225 -159.557312 -22.331701 0.000000
128.657501 -159.557312 -22.331701 0.000000
142.140808 -159.557312 -22.331701 0.000000
155.624115 -159.557312 -22.331701 0.000000
169.107422 -159.557312 -22.331701 0.000000
182.590698 -159.557312 -22.331701 0.000000
196.074036 -159.557312 -22.331701 0.000000
209.557312 -159.557312 -22.331701 0.000000
223.040588 -159.557312 -22.331701 0.000000
236.523926 -159.557312 -22.331701 0.000000
250.007202 -159.557312 -22.331701 0.000000
263.490540 -159.557312 -22.331701 0.000000
276.973816 -159.557312 -22.331701 0.000000
290.457092 -159.557312 -22.331701 0.000000
303.940430 -159.557312 -22.331701 0.000000
317.423706 -159.557312 -22.331701 0.000000
330.907043 -159.557312 -22.331701 0.000000
344.390320 -159.557312 -22.331701 0.000000
-343.257996 -173.040588 -22.331701 0.000000
-329.774689 -173.040588 -22.331701 0.000000
-316.291382 -173.040588 -22.331701 0.000000
-302.808105 -173.040588 -22.331701 0.000000
-289.324799 -173.040588 -22.331701 0.000000
-275.841492 -173.040588 -22.331701 0.000000
-262.358185 -173.040588 -22.331701 0.000000
-248.874893 -173.040588 -22.331701 0.000000
-235.391602 -173.040588 -22.331701 0.000000
-221.908295 -173.040588 -22.331701 0.000000
-208.424988 -173.040588 -22.331701 0.000000
-194.941696 -173.040588 -22.331701 0.000000
-181.458389 -173.040588 -22.331701 0.000000
-167.975098 -173.040588 -22.331701 0.000000
-154.491791 -173.040588 -22.331701 0.000000
-141.008499 -173.040588 -22.331701 0.000000
-127.525192 -173.040588 -22.331701 0.000000
-114.041885 -173.040588 -22.331701 0.000000
-100.558594 -173.040588 -22.331701 0.000000
-87.075287 -173.040588 -22.331701 0.000000
-73.591980 -173.040588 -22.331701 0.000000
-60.108704 -173.040588 -22.331701 0.000000
-46.625397 -173.040588 -22.331701 0.000000
-33.142090 -173.040588 -22.331701 0.000000
-19.658783 -173.040588 -22.331701 0.000000
-6.175476 -173.040588 -22.331701 0.000000
7.307800 -173.040588 -22.331701 0.000000
20.791107 -173.040588 -22.331701 0.000000
34.274414 -173.040588 -22.331701 0.000000
47.757721 -173.040588 -22.331701 0.000000
61.240997 -173.040588 -22.331701 0.000000
74.724304 -173.040588 -22.331701 0.000000
88.207611 -173.040588 -22.331701 0.000000
101.690918 -173.040588 -22.331701 0.000000
115.174225 -173.040588 -22.331701 0.000000
128.657501 -173.040588 -22.331701 0.000000
142.140808 -173.040588 -22.331701 0.000000
155.624115 -173.040588 -22.331701 0.000000
169.107422 -173.040588 -22.331701 0.000000
182.590698 -173.040588 -22.331701 0.000000
196.074036 -173.040588 -22.331701 0.000000
209.557312 -173.040588 -22.331701 0.000000
223.040588 -173.040588 -22.331701 0.000000
236.523926 -173.040588 -22.331701 0.000000
250.007202 -173.040588 -22.331701 0.000000
263.490540 -173.040588 -22.331701 0.000000
276.973816 -173.040588 -22.331701 0.000000
290.457092 -173.040588 -22.331701 0.000000
303.940430 -173.040588 -22.331701 0.000000
317.423706 -173.040588 -22.331701 0.000000
330.907043 -173.040588 -22.331701 0.000000
344.390320 -173.040588 -22.331701 0.000000
-343.257996 -186.523926 -22.331701 0.000000
-329.774689 -186.523926 -22.331701 0.000000
-316.291382 -186.523926 -22.331701 0.000000
-302.808105 -186.523926 -22.331701 0.000000
-289.324799 -186.523926 -22.331701 0.000000
-275.841492 -186.523926 -22.331701 0.000000
-262.358185 -186.523926 -22.331701 0.000000
-248.874893 -186.523926 -22.331701 0.000000
-235.391602 -186.523926 -22.331701 0.000000
-221.908295 -186.523926 -22.331701 0.000000
-208.424988 -186.523926 -22.331701 0.000000
-194.941696 -186.523926 -22.331701 0.000000
-181.458389 -186.523926 -22.331701 0.000000
-167.975098 -186.523926 -22.331701 0.000000
-154.491791 -186.523926 -22.331701 0.000000
-141.008499 -186.523926 -22.331701 0.000000
-127.525192 -186.523926 -22.331701 0.000000
-114.041885 -186.523926 -22.331701 0.000000
-100.558594 -186.523926 -22.331701 0.000000
-87.075287 -186.523926 -22.331701 0.000000
-73.591980 -186.523926 -22.331701 0.000000
-60.108704 -186.523926 -22.331701 0.000000
-46.625397 -186.523926 -22.331701 0.000000
-33.142090 -186.523926 -22.331701 0.000000
-19.658783 -186.523926 -22.331701 0.000000
-6.175476 -186.523926 -22.331701 0.000000
7.307800 -186.523926 -22.331701 0.000000
20.791107 -186.523926 -22.331701 0.000000
34.274414 -186.523926 -22.331701 0.000000
47.757721 -186.523926 -22.331701 0.000000
61.240997 -186.523926 -22.331701 0.000000
74.724304 -186.523926 -22.331701 0.000000
88.207611 -186.523926 -22.331701 0.000000
101.690918 -186.523926 -22.331701 0.000000
115.174225 -186.523926 -22.331701 0.000000
128.657501 -186.523926 -22.331701 0.000000
142.140808 -186.523926 -22.331701 0.000000
155.624115 -186.523926 -22.331701 0.000000
169.107422 -186.523926 -22.331701 0.000000
182.590698 -186.523926 -22.331701 0.000000
196.074036 -186.523926 -22.331701 0.000000
209.557312 -186.523926 -22.331701 0.000000
223.040588 -186.523926 -22.331701 0.000000
236.523926 -186.523926 -22.331701 0.000000
250.007202 -186.523926 -22.331701 0.000000
263.490540 -186.523926 -22.331701 0.000000
276.973816 -186.523926 -22.331701 0.000000
290.457092 -186.523926 -22.331701 0.000000
303.940430 -186.523926 -22.331701 0.000000
317.423706 -186.523926 -22.331701 0.000000
330.907043 -186.523926 -22.331701 0.000000
344.390320 -186.523926 -22.331701 0.000000
-343.257996 -200.007202 -22.331701 0.000000
-329.774689 -200.007202 -22.331701 0.000000
-316.291382 -200.007202 -22.331701 0.000000
-302.808105 -200.007202 -22.331701 0.000000
-289.324799 -200.007202 -22.331701 0.000000
-275.841492 -200.007202 -22.331701 0.000000
-262.358185 -200.007202 -22.331701 0.000000
-248.874893 -200.007202 -22.331701 0.000000
-235.391602 -200.007202 -22.331701 0.000000
-221.908295 -200.007202 -22.331701 0.000000
-208.424988 -200.007202 -22.331701 0.000000
-194.941696 -200.007202 -22.331701 0.000000
-181.458389 -200.007202 -22.331701 0.000000
-167.975098 -200.007202 -22.331701 0.000000
-154.491791 -200.007202 -22.331701 0.000000
-141.008499 -200.007202 -22.331701 0.000000
-127.525192 -200.007202 -22.331701 0.000000
-114.041885 -200.007202 -22.331701 0.000000
-100.558594 -200.007202 -22.331701 0.000000
-87.075287 -200.007202 -22.331701 0.000000
-73.591980 -200.007202 -22.331701 0.000000
-60.108704 -200.007202 -22.331701 0.000000
-46.625397 -200.007202 -22.331701 0.000000
-33.142090 -200.007202 -22.331701 0.000000
-19.658783 -200.007202 -22.331701 0.000000
-6.175476 -200.007202 -22.331701 0.000000
7.307800 -200.007202 -22.331701 0.000000
20.791107 -200.007202 -22.331701 0.000000
34.274414 -200.007202 -22.331701 0.000000
47.757721 -200.007202 -22.331701 0.000000
61.240997 -200.007202 -22.331701 0.000000
74.724304 -200.007202 -22.331701 0.000000
88.207611 -200.007202 -22.331701 0.000000
101.690918 -200.007202 -22.331701 0.000000
115.174225 -200.007202 -22.331701 0.000000
128.657501 -200.007202 -22.331701 0.000000
142.140808 -200.007202 -22.331701 0.000000
155.624115 -200.007202 -22.331701 0.000000
169.107422 -200.007202 -22.331701 0.000000
182.590698 -200.007202 -22.331701 0.000000
196.074036 -200.007202 -22.331701 0.000000
209.557312 -200.007202 -22.331701 0.000000
223.040588 -200.007202 -22.331701 0.000000
236.523926 -200.007202 -22.331701 0.000000
250.007202 -200.007202 -22.331701 0.000000
263.490540 -200.007202 -22.331701 0.000000
276.973816 -200.007202 -22.331701 0.000000
290.457092 -200.007202 -22.331701 0.000000
303.940430 -200.007202 -22.331701 0.000000
317.423706 -200.007202 -22.331701 0.000000
330.907043 -200.007202 -22.331701 0.000000
344.390320 -200.007202 -22.331701 0.000000
-343.257996 393.257996 -8.848400 0.000000
-329.774689 393.257996 -8.848400 0.000000
-316.291382 393.257996 -8.848400 0.000000
-302.808105 393.257996 -8.848400 0.000000
-289.324799 393.257996 -8.848400 0.000000
-275.841492 393.257996 -8.848400 0.000000
-262.358185 393.257996 -8.848400 0.000000
-248.874893 393.257996 -8.848400 0.000000
-235.391602 393.257996 -8.848400 0.000000
-221.908295 393.257996 -8.848400 0.000000
-208.424988 393.257996 -8.848400 0.000000
-194.941696 393.257996 -8.848400 0.000000
-181.458389 393.257996 -8.848400 0.000000
-167.975098 393.257996 -8.848400 0.000000
-154.491791 393.257996 -8.848400 0.000000
-141.008499 393.257996 -8.848400 0.000000
-127.525192 393.257996 -8.848400 0.000000
-114.041885 393.257996 -8.848400 0.000000
-100.558594 393.257996 -8.848400 0.000000
-87.075287 393.257996 -8.848400 0.000000
-73.591980 393.257996 -8.848400 0.000000
-60.108704 393.257996 -8.848400 0.000000
-46.625397 393.257996 -8.848400 0.000000
-33.142090 393.257996 -8.848400 0.000000
-19.658783 393.257996 -8.848400 0.000000
-6.175476 393.257996 -8.848400 0.000000
7.307800 393.257996 -8.848400 0.000000
20.791107 393.257996 -8.848400 0.000000
34.274414 393.257996 -8.848400 0.000000
47.757721 393.257996 -8.848400 0.000000
61.240997 393.257996 -8.848400 0.000000
74.724304 393.257996 -8.848400 0.000000
88.207611 393.257996 -8.848400 0.000000
101.690918 393.257996 -8.848400 0.000000
115.174225 393.257996 -8.848400 0.000000
128.657501 393.257996 -8.848400 0.000000
142.140808 393.257996 -8.848400 0.000000
155.624115 393.257996 -8.848400 0.000000
169.107422 393.257996 -8.848400 0.000000
182.590698 393.257996 -8.848400 0.000000
196.074036 393.257996 -8.848400 0.000000
209.557312 393.257996 -8.848400 0.000000
223.040588 393.257996 -8.848400 0.000000
236.523926 393.257996 -8.848400 0.000000
250.007202 393.257996 -8.848400 0.000000
263.490540 393.257996 -8.848400 0.000000
276.973816 393.257996 -8.848400 0.000000
290.457092 393.257996 -8.848400 0.000000
303.940430 393.257996 -8.848400 0.000000
317.423706 393.257996 -8.848400 0.000000
330.907043 393.257996 -8.848400 0.000000
344.390320 393.257996 -8.848400 0.000000
-343.257996 379.774689 -8.848400 0.000000
-329.774689 379.774689 -8.848400 0.000000
-316.291382 379.774689 -8.848400 0.000000
-302.808105 379.774689 -8.848400 0.000000
-289.324799 379.774689 -8.848400 0.000000
-275.841492 379.774689 -8.848400 0.000000
-262.358185 379.774689 -8.848400 0.000000
-248.874893 379.774689 -8.848400 0.000000
-235.391602 379.774689 -8.848400 0.000000
-221.908295 379.774689 -8.848400 0.000000
-208.424988 379.774689 -8.848400 0.000000
-194.941696 379.774689 -8.848400 0.000000
-181.458389 379.774689 -8.848400 0.000000
-167.975098 379.774689 -8.848400 0.000000
-154.491791 379.774689 -8.848400 0.000000
-141.008499 379.774689 -8.848400 0.000000
-127.525192 379.774689 -8.848400 0.000000
-114.041885 379.774689 -8.848400 0.000000
-100.558594 379.774689 -8.848400 0.000000
-87.075287 379.774689 -8.848400 0.000000
-73.591980 379.774689 -8.848400 0.000000
-60.108704 379.774689 -8.848400 0.000000
-46.625397 379.774689 -8.848400 0.000000
-33.142090 379.774689 -8.848400 0.000000
-19.658783 379.774689 -8.848400 0.000000
-6.175476 379.774689 -8.848400 0.000000
7.307800 379.774689 -8.848400 0.000000
20.791107 379.774689 -8.848400 0.000000
34.274414 379.774689 -8.848400 0.000000
47.757721 379.774689 -8.848400 0.000000
61.240997 379.774689 -8.848400 0.000000
74.724304 379.774689 -8.848400 0.000000
88.207611 379.774689 -8.848400 0.000000
101.690918 379.774689 -8.848400 0.000000
115.174225 379.774689 -8.848400 0.000000
128.657501 379.774689 -8.848400 0.000000
142.140808 379.774689 -8.848400 0.000000
155.624115 379.774689 -8.848400 0.000000
169.107422 379.774689 -8.848400 0.000000
182.590698 379.774689 -8.848400 0.000000
196.074036 379.774689 -8.848400 0.000000
209.557312 379.774689 -8.848400 0.000000
223.040588 379.774689 -8.848400 0.000000
236.523926 379.774689 -8.848400 0.000000
250.007202 379.774689 -8.848400 0.000000
263.490540 379.774689 -8.848400 0.000000
276.973816 379.774689 -8.848400 0.000000
290.457092 379.774689 -8.848400 0.000000
303.940430 379.774689 -8.848400 0.000000
317.423706 379.774689 -8.848400 0.000000
330.907043 379.774689 -8.848400 0.000000
344.390320 379.774689 -8.848400 0.000000
-343.257996 366.291382 -8.848400 0.000000
-329.774689 366.291382 -8.848400 0.000000
-316.291382 366.291382 -8.848400 0.000000
-302.808105 366.291382 -8.848400 0.000000
-289.324799 366.291382 -8.848400 0.000000
-275.841492 366.291382 -8.848400 0.000000
-262.358185 366.291382 -8.848400 0.000000
-248.874893 366.291382 -8.848400 0.000000
-235.391602 366.291382 -8.848400 0.000000
-221.908295 366.291382 -8.848400 0.000000
-208.424988 366.291382 -8.848400 0.000000
-194.941696 366.291382 -8.848400 0.000000
-181.458389 366.291382 -8.848400 0.000000
-167.975098 366.291382 -8.848400 0.000000
-154.491791 366.291382 -8.848400 0.000000
-141.008499 366.291382 -8.848400 0.000000
-127.525192 366.291382 -8.848400 0.000000
-114.041885 366.291382 -8.848400 0.000000
-100.558594 366.291382 -8.848400 0.000000
-87.075287 366.291382 -8.848400 0.000000
-73.591980 366.291382 -8.848400 0.000000
-60.108704 366.291382 -8.848400 0.000000
-46.625397 366.291382 -8.848400 0.000000
-33.142090 366.291382 -8.848400 0.000000
-19.658783 366.291382 -8.848400 0.000000
-6.175476 366.291382 -8.848400 0.000000
7.307800 366.291382 -8.848400 0.000000
20.791107 366.291382 -8.848400 0.000000
34.274414 366.291382 -8.848400 0.000000
47.757721 366.291382 -8.848400 0.000000
61.240997 366.291382 -8.848400 0.000000
74.724304 366.291382 -8.848400 0.000000
88.207611 366.291382 -8.848400 0.000000
101.690918 366.291382 -8.848400 0.000000
115.174225 366.291382 -8.848400 0.000000
128.657501 366.291382 -8.848400 0.000000
142.140808 366.291382 -8.848400 0.000000
155.624115 366.291382 -8.848400 0.000000
169.107422 366.291382 -8.848400 0.000000
182.590698 366.291382 -8.848400 0.000000
196.074036 366.291382 -8.848400 0.000000
209.557312 366.291382 -8.848400 0.000000
223.040588 366.291382 -8.848400 0.000000
236.523926 366.291382 -8.848400 0.000000
250.007202 366.291382 -8.848400 0.000000
263.490540 366.291382 -8.848400 0.000000
276.973816 366.291382 -8.848400 0.000000
290.457092 366.291382 -8.848400 0.000000
303.940430 366.291382 -8.848400 0.000000
317.423706 366.291382 -8.848400 0.000000
330.907043 366.291382 -8.848400 0.000000
344.390320 366.291382 -8.848400 0.000000
-343.257996 352.808105 -8.848400 0.000000
-329.774689 352.808105 -8.848400 0.000000
-316.291382 352.808105 -8.848400 0.000000
-302.808105 352.808105 -8.848400 0.000000
-289.324799 352.808105 -8.848400 0.000000
-275.841492 352.808105 -8.848400 0.000000
-262.358185 352.808105 -8.848400 0.000000
-248.874893 352.808105 -8.848400 0.000000
-235.391602 352.808105 -8.848400 0.000000
-221.908295 352.808105 -8.848400 0.000000
-208.424988 352.808105 -8.848400 0.000000
-194.941696 352.808105 -8.848400 0.000000
-181.458389 352.808105 -8.848400 0.000000
-167.975098 352.808105 -8.848400 0.000000
-154.491791 352.808105 -8.848400 0.000000
-141.008499 352.808105 -8.848400 0.000000
-127.525192 352.808105 -8.848400 0.000000
-114.041885 352.808105 -8.848400 0.000000
-100.558594 352.808105 -8.848400 0.000000
-87.075287 352.808105 -8.848400 0.000000
-73.591980 352.808105 -8.848400 0.000000
-60.108704 352.808105 -8.848400 0.000000
-46.625397 352.808105 -8.848400 0.000000
-33.142090 352.808105 -8.848400 0.000000
-19.658783 352.808105 -8.848400 0.000000
-6.175476 352.808105 -8.848400 0.000000
7.307800 352.808105 -8.848400 0.000000
20.791107 352.808105 -8.848400 0.000000
34.274414 352.808105 -8.848400 0.000000
47.757721 352.808105 -8.848400 0.000000
61.240997 352.808105 -8.848400 0.000000
74.724304 352.808105 -8.848400 0.000000
88.207611 352.808105 -8.848400 0.000000
101.690918 352.808105 -8.848400 0.000000
115.174225 352.808105 -8.848400 0.000000
128.657501 352.808105 -8.848400 0.000000
142.140808 352.808105 -8.848400 0.000000
155.624115 352.808105 -8.848400 0.000000
169.107422 352.808105 -8.848400 0.000000
182.590698 352.808105 -8.848400 0.000000
196.074036 352.808105 -8.848400 0.000000
209.557312 352.808105 -8.848400 0.000000
223.040588 352.808105 -8.848400 0.000000
236.523926 352.808105 -8.848400 0.000000
250.007202 352.808105 -8.848400 0.000000
263.490540 352.808105 -8.848400 0.000000
276.973816 352.808105 -8.848400 0.000000
290.457092 352.808105 -8.848400 0.000000
303.940430 352.808105 -8.848400 0.000000
317.423706 352.808105 -8.848400 0.000000
330.907043 352.808105 -8.848400 0.000000
344.390320 352.808105 -8.848400 0.000000
-343.257996 339.324799 -8.848400 0.000000
-329.774689 339.324799 -8.848400 0.000000
-316.291382 339.324799 -8.848400 0.000000
-302.808105 339.324799 -8.848400 0.000000
-289.324799 339.324799 -8.848400 0.000000
-275.841492 339.324799 -8.848400 0.000000
-262.358185 339.324799 -8.848400 0.000000
-248.874893 339.324799 -8.848400 0.000000
-235.391602 339.324799 -8.848400 0.000000
-221.908295 339.324799 -8.848400 0.000000
-208.424988 339.324799 -8.848400 0.000000
-194.941696 339.324799 -8.848400 0.000000
-181.458389 339.324799 -8.848400 0.000000
-167.975098 339.324799 -8.848400 0.000000
-154.491791 339.324799 -8.848400 0.000000
-141.008499 339.324799 -8.848400 0.000000
-127.525192 339.324799 -8.848400 0.000000
-114.041885 339.324799 -8.848400 0.000000
-100.558594 339.324799 -8.848400 0.000000
-87.075287 339.324799 -8.848400 0.000000
-73.591980 339.324799 -8.848400 0.000000
-60.108704 339.324799 -8.848400 0.000000
-46.625397 339.324799 -8.848400 -0.025665
-33.142090 339.324799 -8.848400 -0.047142
-19.658783 339.324799 -8.848400 -0.045344
-6.175476 339.324799 -8.848400 -0.047037
7.307800 339.324799 -8.848400 -0.044014
20.791107 339.324799 -8.848400 0.000000
34.274414 339.324799 -8.848400 0.000000
47.757721 339.324799 -8.848400 0.000000
61.240997 339.324799 -8.848400 0.000000
74.724304 339.324799 -8.848400 0.000000
88.207611 339.324799 -8.848400 0.000000
101.690918 339.324799 -8.848400 0.000000
115.174225 339.324799 -8.848400 0.000000
128.657501 339.324799 -8.848400 0.000000
142.140808 339.324799 -8.848400 0.000000
155.624115 339.324799 -8.848400 0.000000
169.107422 339.324799 -8.848400 0.000000
182.590698 339.324799 -8.848400 0.000000
196.074036 339.324799 -8.848400 0.000000
209.557312 339.324799 -8.848400 0.000000
223.040588 339.324799 -8.848400 0.000000
236.523926 339.324799 -8.848400 0.000000
250.007202 339.324799 -8.848400 0.000000
263.490540 339.324799 -8.848400 0.000000
276.973816 339.324799 -8.848400 0.000000
290.457092 339.324799 -8.848400 0.000000
303.940430 339.324799 -8.848400 0.000000
317.423706 339.324799 -8.848400 0.000000
330.907043 339.324799 -8.848400 0.000000
344.390320 339.324799 -8.848400 0.000000
-343.257996 325.841492 -8.848400 0.000000
-329.774689 325.841492 -8.848400 0.000000
-316.291382 325.841492 -8.848400 0.000000
-302.808105 325.841492 -8.848400 0.000000
-289.324799 325.841492 -8.848400 0.000000
-275.841492 325.841492 -8.848400 0.000000
-262.358185 325.841492 -8.848400 0.000000
-248.874893 325.841492 -8.848400 0.000000
-235.391602 325.841492 -8.848400 0.000000
-221.908295 325.841492 -8.848400 0.000000
-208.424988 325.841492 -8.848400 0.000000
-194.941696 325.841492 -8.848400 0.000000
-181.458389 325.841492 -8.848400 0.000000
-167.975098 325.841492 -8.848400 0.000000
-154.491791 325.841492 -8.848400 0.000000
-141.008499 325.841492 -8.848400 0.000000
-127.525192 325.841492 -8.848400 0.000000
-114.041885 325.841492 -8.848400 0.000000
-100.558594 325.841492 -8.848400 0.063987
-87.075287 325.841492 -8.848400 0.051063
-73.591980 325.841492 -8.848400 0.043565
-60.108704 325.841492 -8.848400 0.008803
-46.625397 325.841492 -8.848400 -0.024188
-33.142090 325.841492 -8.848400 -0.031334
-19.658783 325.841492 -8.848400 -0.050407
-6.175476 325.841492 -8.848400 -0.057823
7.307800 325.841492 -8.848400 -0.047545
20.791107 325.841492 -8.848400 -0.042568
34.274414 325.841492 -8.848400 0.000000
47.757721 325.841492 -8.848400 0.000000
61.240997 325.841492 -8.848400 0.000000
74.724304 325.841492 -8.848400 0.000000
88.207611 325.841492 -8.848400 0.000000
101.690918 325.841492 -8.848400 0.000000
115.174225 325.841492 -8.848400 0.000000
128.657501 325.841492 -8.848400 0.000000
142.140808 325.841492 -8.848400 0.000000
155.624115 325.841492 -8.848400 0.000000
169.107422 325.841492 -8.848400 0.000000
182.590698 325.841492 -8.848400 0.000000
196.074036 325.841492 -8.848400 0.000000
209.557312 325.841492 -8.848400 0.000000
223.040588 325.841492 -8.848400 0.000000
236.523926 325.841492 -8.848400 0.000000
250.007202 325.841492 -8.848400 0.000000
263.490540 325.841492 -8.848400 0.000000
276.973816 325.841492 -8.848400 0.000000
290.457092 325.841492 -8.848400 0.000000
303.940430 325.841492 -8.848400 0.000000
317.423706 325.841492 -8.848400 0.000000
330.907043 325.841492 -8.848400 0.000000
344.390320 325.841492 -8.848400 0.000000
-343.257996 312.358185 -8.848400 0.000000
-329.774689 312.358185 -8.848400 0.000000
-316.291382 312.358185 -8.848400 0.000000
-302.808105 312.358185 -8.848400 0.000000
-289.324799 312.358185 -8.848400 0.000000
-275.841492 312.358185 -8.848400 0.000000
-262.358185 312.358185 -8.848400 0.000000
-248.874893 312.358185 -8.848400 0.000000
-235.391602 312.358185 -8.848400 0.000000
-221.908295 312.358185 -8.848400 0.000000
-208.424988 312.358185 -8.848400 0.000000
-194.941696 312.358185 -8.848400 0.000000
-181.458389 312.358185 -8.848400 0.000000
-167.975098 312.358185 -8.848400 0.000000
-154.491791 312.358185 -8.848400 0.000000
-141.008499 312.358185 -8.848400 0.000000
-127.525192 312.358185 -8.848400 0.000000
-114.041885 312.358185 -8.848400 0.072408
-100.558594 312.358185 -8.848400 0.077184
-87.075287 312.358185 -8.848400 0.066329
-73.591980 312.358185 -8.848400 0.047077
-60.108704 312.358185 -8.848400 0.028129
-46.625397 312.358185 -8.848400 -0.022998
-33.142090 312.358185 -8.848400 -0.022129
-19.658783 312.358185 -8.848400 -0.050430
-6.175476 312.358185 -8.848400 -0.058483
7.307800 312.358185 -8.848400 -0.057894
20.791107 312.358185 -8.848400 -0.056826
34.274414 312.358185 -8.848400 -0.056547
47.757721 312.358185 -8.848400 0.000000
61.240997 312.358185 -8.848400 0.000000
74.724304 312.358185 -8.848400 0.000000
88.207611 312.358185 -8.848400 0.000000
101.690918 312.358185 -8.848400 0.000000
115.174225 312.358185 -8.848400 0.000000
128.657501 312.358185 -8.848400 0.000000
142.140808 312.358185 -8.848400 0.000000
155.624115 312.358185 -8.848400 0.000000
169.107422 312.358185 -8.848400 0.000000
182.590698 312.358185 -8.848400 0.000000
196.074036 312.358185 -8.848400 0.000000
209.557312 312.358185 -8.848400 0.000000
223.040588 312.358185 -8.848400 0.000000
236.523926 312.358185 -8.848400 0.000000
250.007202 312.358185 -8.848400 0.000000
263.490540 312.358185 -8.848400 0.000000
276.973816 312.358185 -8.848400 0.000000
290.457092 312.358185 -8.848400 0.000000
303.940430 312.358185 -8.848400 0.000000
317.423706 312.358185 -8.848400 0.000000
330.907043 312.358185 -8.848400 0.000000
344.390320 312.358185 -8.848400 0.000000
-343.257996 298.874878 -8.848400 0.000000
-329.774689 298.874878 -8.848400 0.000000
-316.291382 298.874878 -8.848400 0.000000
-302.808105 298.874878 -8.848400 0.000000
-289.324799 298.874878 -8.848400 0.000000
-275.841492 298.874878 -8.848400 0.000000
-262.358185 298.874878 -8.848400 0.000000
-248.874893 298.874878 -8.848400 0.000000
-235.391602 298.874878 -8.848400 0.000000
-221.908295 298.874878 -8.848400 0.000000
-208.424988 298.874878 -8.848400 0.000000
-194.941696 298.874878 -8.848400 0.000000
-181.458389 298.874878 -8.848400 0.000000
-167.975098 298.874878 -8.848400 0.000000
-154.491791 298.874878 -8.848400 0.000000
-141.008499 298.874878 -8.848400 0.000000
-127.525192 298.874878 -8.848400 0.000000
-114.041885 298.874878 -8.848400 0.073279
-100.558594 298.874878 -8.848400 0.070194
-87.075287 298.874878 -8.848400 0.078131
-73.591980 298.874878 -8.848400 0.063233
-60.108704 298.874878 -8.848400 0.040466
-46.625397 298.874878 -8.848400 0.009822
-33.142090 298.874878 -8.848400 -0.013777
-19.658783 298.874878 -8.848400 -0.045668
-6.175476 298.874878 -8.848400 -0.060031
7.307800 298.874878 -8.848400 -0.060816
20.791107 298.874878 -8.848400 -0.077882
34.274414 298.874878 -8.848400 -0.063660
47.757721 298.874878 -8.848400 -0.048772
61.240997 298.874878 -8.848400 0.000000
74.724304 298.874878 -8.848400 0.000000
88.207611 298.874878 -8.848400 0.000000
101.690918 298.874878 -8.848400 0.000000
115.174225 298.874878 -8.848400 0.000000
128.657501 298.874878 -8.848400 0.000000
142.140808 298.874878 -8.848400 0.000000
155.624115 298.874878 -8.848400 0.000000
169.107422 298.874878 -8.848400 0.000000
182.590698 298.874878 -8.848400 0.000000
196.074036 298.874878 -8.848400 0.000000
209.557312 298.874878 -8.848400 0.000000
223.040588 298.874878 -8.848400 0.000000
236.523926 298.874878 -8.848400 0.000000
250.007202 298.874878 -8.848400 0.000000
263.490540 298.874878 -8.848400 0.000000
276.973816 298.874878 -8.848400 0.000000
290.457092 298.874878 -8.848400 0.000000
303.940430 298.874878 -8.848400 0.000000
317.423706 298.874878 -8.848400 0.000000
330.907043 298.874878 -8.848400 0.000000
344.390320 298.874878 -8.848400 0.000000
-343.257996 285.391602 -8.848400 0.000000
-329.774689 285.391602 -8.848400 0.000000
-316.291382 285.391602 -8.848400 0.000000
-302.808105 285.391602 -8.848400 0.000000
-289.324799 285.391602 -8.848400 0.000000
-275.841492 285.391602 -8.848400 0.000000
-262.358185 285.391602 -8.848400 0.000000
-248.874893 285.391602 -8.848400 0.000000
-235.391602 285.391602 -8.848400 0.000000
-221.908295 285.391602 -8.848400 0.000000
-208.424988 285.391602 -8.848400 0.000000
-194.941696 285.391602 -8.848400 0.000000
-181.458389 285.391602 -8.848400 0.000000
-167.975098 285.391602 -8.848400 0.000000
-154.491791 285.391602 -8.848400 0.000000
-141.008499 285.391602 -8.848400 0.000000
-127.525192 285.391602 -8.848400 0.000000
-114.041885 285.391602 -8.848400 0.079958
-100.558594 285.391602 -8.848400 0.076358
-87.075287 285.391602 -8.848400 0.091755
-73.591980 285.391602 -8.848400 0.095573
-60.108704 285.391602 -8.848400 0.063204
-46.625397 285.391602 -8.848400 0.027745
-33.142090 285.391602 -8.848400 -0.015305
-19.658783 285.391602 -8.848400 -0.040598
-6.175476 285.391602 -8.848400 -0.065525
7.307800 285.391602 -8.848400 -0.063644
20.791107 285.391602 -8.848400 -0.069628
34.274414 285.391602 -8.848400 -0.069384
47.757721 285.391602 -8.848400 -0.045097
61.240997 285.391602 -8.848400 0.000000
74.724304 285.391602 -8.848400 0.000000
88.207611 285.391602 -8.848400 0.000000
101.690918 285.391602 -8.848400 -0.005334
115.174225 285.391602 -8.848400 -0.022051
128.657501 285.391602 -8.848400 -0.026406
142.140808 285.391602 -8.848400 -0.057981
155.624115 285.391602 -8.848400 -0.081243
169.107422 285.391602 -8.848400 -0.098703
182.590698 285.391602 -8.848400 0.000000
196.074036 285.391602 -8.848400 0.000000
209.557312 285.391602 -8.848400 0.000000
223.040588 285.391602 -8.848400 0.000000
236.523926 285.391602 -8.848400 0.000000
250.007202 285.391602 -8.848400 0.000000
263.490540 285.391602 -8.848400 0.000000
276.973816 285.391602 -8.848400 0.000000
290.457092 285.391602 -8.848400 0.000000
303.940430 285.391602 -8.848400 0.000000
317.423706 285.391602 -8.848400 0.000000
330.907043 285.391602 -8.848400 0.000000
344.390320 285.391602 -8.848400 0.000000
-343.257996 271.908295 -8.848400 0.000000
-329.774689 271.908295 -8.848400 0.000000
-316.291382 271.908295 -8.848400 0.000000
-302.808105 271.908295 -8.848400 0.000000
-289.324799 271.908295 -8.848400 0.000000
-275.841492 271.908295 -8.848400 0.000000
-262.358185 271.908295 -8.848400 0.000000
-248.874893 271.908295 -8.848400 0.000000
-235.391602 271.908295 -8.848400 0.000000
-221.908295 271.908295 -8.848400 0.000000
-208.424988 271.908295 -8.848400 0.000000
-194.941696 271.908295 -8.848400 0.000000
-181.458389 271.908295 -8.848400 0.000000
-167.975098 271.908295 -8.848400 0.000000
-154.491791 271.908295 -8.848400 0.000000
-141.008499 271.908295 -8.848400 0.000000
-127.525192 271.908295 -8.848400 0.000000
-114.041885 271.908295 -8.848400 0.080921
-100.558594 271.908295 -8.848400 0.093955
-87.075287 271.908295 -8.848400 0.116436
-73.591980 271.908295 -8.848400 0.124652
-60.108704 271.908295 -8.848400 0.093436
-46.625397 271.908295 -8.848400 0.041721
-33.142090 271.908295 -8.848400 -0.002151
-19.658783 271.908295 -8.848400 -0.026241
-6.175476 271.908295 -8.848400 -0.042187
7.307800 271.908295 -8.848400 -0.055797
20.791107 271.908295 -8.848400 -0.055708
34.274414 271.908295 -8.848400 -0.054323
47.757721 271.908295 -8.848400 -0.040142
61.240997 271.908295 -8.848400 0.000000
74.724304 271.908295 -8.848400 0.000000
88.207611 271.908295 -8.848400 -0.001727
101.690918 271.908295 -8.848400 0.000194
115.174225 271.908295 -8.848400 -0.017763
128.657501 271.908295 -8.848400 -0.028755
142.140808 271.908295 -8.848400 0.000000
155.624115 271.908295 -8.848400 -0.085826
169.107422 271.908295 -8.848400 -0.104743
182.590698 271.908295 -8.848400 0.000000
196.074036 271.908295 -8.848400 0.000000
209.557312 271.908295 -8.848400 0.000000
223.040588 271.908295 -8.848400 0.000000
236.523926 271.908295 -8.848400 0.000000
250.007202 271.908295 -8.848400 0.000000
263.490540 271.908295 -8.848400 0.000000
276.973816 271.908295 -8.848400 0.000000
290.457092 271.908295 -8.848400 0.000000
303.940430 271.908295 -8.848400 0.000000
317.423706 271.908295 -8.848400 0.000000
330.907043 271.908295 -8.848400 0.000000
344.390320 271.908295 -8.848400 0.000000
-343.257996 258.424988 -8.848400 0.000000
-329.774689 258.424988 -8.848400 0.000000
-316.291382 258.424988 -8.848400 0.000000
-302.808105 258.424988 -8.848400 0.000000
-289.324799 258.424988 -8.848400 0.000000
-275.841492 258.424988 -8.848400 0.000000
-262.358185 258.424988 -8.848400 0.000000
-248.874893 258.424988 -8.848400 0.000000
-235.391602 258.424988 -8.848400 0.000000
-221.908295 258.424988 -8.848400 0.000000
-208.424988 258.424988 -8.848400 0.000000
-194.941696 258.424988 -8.848400 0.000000
-181.458389 258.424988 -8.848400 0.000000
-167.975098 258.424988 -8.848400 0.000000
-154.491791 258.424988 -8.848400 0.000000
-141.008499 258.424988 -8.848400 0.000000
-127.525192 258.424988 -8.848400 0.061188
-114.041885 258.424988 -8.848400 0.078604
-100.558594 258.424988 -8.848400 0.110427
-87.075287 258.424988 -8.848400 0.149608
-73.591980 258.424988 -8.848400 0.135850
-60.108704 258.424988 -8.848400 0.109813
-46.625397 258.424988 -8.848400 0.067241
-33.142090 258.424988 -8.848400 0.020133
-19.658783 258.424988 -8.848400 -0.011351
-6.175476 258.424988 -8.848400 -0.035893
7.307800 258.424988 -8.848400 -0.057460
20.791107 258.424988 -8.848400 -0.044314
34.274414 258.424988 -8.848400 0.000000
47.757721 258.424988 -8.848400 0.000000
61.240997 258.424988 -8.848400 0.000000
74.724304 258.424988 -8.848400 0.000000
88.207611 258.424988 -8.848400 -0.002341
101.690918 258.424988 -8.848400 0.001208
115.174225 258.424988 -8.848400 -0.016691
128.657501 258.424988 -8.848400 -0.035749
142.140808 258.424988 -8.848400 -0.062589
155.624115 258.424988 -8.848400 -0.085383
169.107422 258.424988 -8.848400 -0.104586
182.590698 258.424988 -8.848400 -0.123389
196.074036 258.424988 -8.848400 0.000000
209.557312 258.424988 -8.848400 0.000000
223.040588 258.424988 -8.848400 0.000000
236.523926 258.424988 -8.848400 0.000000
250.007202 258.424988 -8.848400 0.000000
263.490540 258.424988 -8.848400 0.000000
276.973816 258.424988 -8.848400 0.000000
290.457092 258.424988 -8.848400 0.000000
303.940430 258.424988 -8.848400 0.000000
317.423706 258.424988 -8.848400 0.000000
330.907043 258.424988 -8.848400 0.000000
344.390320 258.424988 -8.848400 0.000000
-343.257996 244.941696 -8.848400 0.000000
-329.774689 244.941696 -8.848400 0.000000
-316.291382 244.941696 -8.848400 0.000000
-302.808105 244.941696 -8.848400 0.000000
-289.324799 244.941696 -8.848400 0.000000
-275.841492 244.941696 -8.848400 0.000000
-262.358185 244.941696 -8.848400 0.000000
-248.874893 244.941696 -8.848400 0.000000
-235.391602 244.941696 -8.848400 0.000000
-221.908295 244.941696 -8.848400 0.000000
-208.424988 244.941696 -8.848400 0.000000
-194.941696 244.941696 -8.848400 0.000000
-181.458389 244.941696 -8.848400 0.000000
-167.975098 244.941696 -8.848400 0.000000
-154.491791 244.941696 -8.848400 0.000000
-141.008499 244.941696 -8.848400 0.000000
-127.525192 244.941696 -8.848400 0.072629
-114.041885 244.941696 -8.848400 0.099496
-100.558594 244.941696 -8.848400 0.136612
-87.075287 244.941696 -8.848400 0.169764
-73.591980 244.941696 -8.848400 0.156126
-60.108704 244.941696 -8.848400 0.109763
-46.625397 244.941696 -8.848400 0.077997
-33.142090 244.941696 -8.848400 0.032960
-19.658783 244.941696 -8.848400 -0.007527
-6.175476 244.941696 -8.848400 -0.041015
7.307800 244.941696 -8.848400 -0.044454
20.791107 244.941696 -8.848400 -0.022190
34.274414 244.941696 -8.848400 -0.026515
47.757721 244.941696 -8.848400 0.000000
61.240997 244.941696 -8.848400 0.000000
74.724304 244.941696 -8.848400 0.000000
88.207611 244.941696 -8.848400 -0.004396
101.690918 244.941696 -8.848400 -0.008045
115.174225 244.941696 -8.848400 0.000000
128.657501 244.941696 -8.848400 0.000000
142.140808 244.941696 -8.848400 0.000000
155.624115 244.941696 -8.848400 0.000000
169.107422 244.941696 -8.848400 -0.116551
182.590698 244.941696 -8.848400 -0.117818
196.074036 244.941696 -8.848400 -0.116267
209.557312 244.941696 -8.848400 0.000000
223.040588 244.941696 -8.848400 0.000000
236.523926 244.941696 -8.848400 0.000000
250.007202 244.941696 -8.848400 0.000000
263.490540 244.941696 -8.848400 0.000000
276.973816 244.941696 -8.848400 0.000000
290.457092 244.941696 -8.848400 0.000000
303.940430 244.941696 -8.848400 0.000000
317.423706 244.941696 -8.848400 0.000000
330.907043 244.941696 -8.848400 0.000000
344.390320 244.941696 -8.848400 0.000000
-343.257996 231.458389 -8.848400 0.000000
-329.774689 231.458389 -8.848400 0.000000
-316.291382 231.458389 -8.848400 0.000000
-302.808105 231.458389 -8.848400 0.000000
-289.324799 231.458389 -8.848400 0.000000
-275.841492 231.458389 -8.848400 0.000000
-262.358185 231.458389 -8.848400 0.000000
-248.874893 231.458389 -8.848400 0.000000
-235.391602 231.458389 -8.848400 0.000000
-221.908295 231.458389 -8.848400 0.000000
-208.424988 231.458389 -8.848400 0.000000
-194.941696 231.458389 -8.848400 0.000000
-181.458389 231.458389 -8.848400 0.000000
-167.975098 231.458389 -8.848400 0.000000
-154.491791 231.458389 -8.848400 0.000000
-141.008499 231.458389 -8.848400 0.000000
-127.525192 231.458389 -8.848400 0.079225
-114.041885 231.458389 -8.848400 0.118257
-100.558594 231.458389 -8.848400 0.157257
-87.075287 231.458389 -8.848400 0.183003
-73.591980 231.458389 -8.848400 0.165047
-60.108704 231.458389 -8.848400 0.111056
-46.625397 231.458389 -8.848400 0.078233
-33.142090 231.458389 -8.848400 0.046983
-19.658783 231.458389 -8.848400 -0.005673
-6.175476 231.458389 -8.848400 -0.037944
7.307800 231.458389 -8.848400 -0.047776
20.791107 231.458389 -8.848400 -0.029935
34.274414 231.458389 -8.848400 -0.026173
47.757721 231.458389 -8.848400 0.000000
61.240997 231.458389 -8.848400 0.000000
74.724304 231.458389 -8.848400 -0.006872
88.207611 231.458389 -8.848400 -0.023630
101.690918 231.458389 -8.848400 -0.030417
115.174225 231.458389 -8.848400 0.000000
128.657501 231.458389 -8.848400 0.000000
142.140808 231.458389 -8.848400 -0.084720
155.624115 231.458389 -8.848400 -0.100437
169.107422 231.458389 -8.848400 -0.136770
182.590698 231.458389 -8.848400 -0.135766
196.074036 231.458389 -8.848400 -0.122482
209.557312 231.458389 -8.848400 0.000000
223.040588 231.458389 -8.848400 0.000000
236.523926 231.458389 -8.848400 0.000000
250.007202 231.458389 -8.848400 0.000000
263.490540 231.458389 -8.848400 0.000000
276.973816 231.458389 -8.848400 0.000000
290.457092 231.458389 -8.848400 0.000000
303.940430 231.458389 -8.848400 0.000000
317.423706 231.458389 -8.848400 0.000000
330.907043 231.458389 -8.848400 0.000000
344.390320 231.458389 -8.848400 0.000000
-343.257996 217.975098 -8.848400 0.000000
-329.774689 217.975098 -8.848400 0.000000
-316.291382 217.975098 -8.848400 0.000000
-302.808105 217.975098 -8.848400 0.000000
-289.324799 217.975098 -8.848400 0.000000
-275.841492 217.975098 -8.848400 0.000000
-262.358185 217.975098 -8.848400 0.000000
-248.874893 217.975098 -8.848400 0.000000
-235.391602 217.975098 -8.848400 0.000000
-221.908295 217.975098 -8.848400 0.000000
-208.424988 217.975098 -8.848400 0.000000
-194.941696 217.975098 -8.848400 0.000000
-181.458389 217.975098 -8.848400 0.000000
-167.975098 217.975098 -8.848400 0.000000
-154.491791 217.975098 -8.848400 0.000000
-141.008499 217.975098 -8.848400 0.080246
-127.525192 217.975098 -8.848400 0.118518
-114.041885 217.975098 -8.848400 0.154441
-100.558594 217.975098 -8.848400 0.188717
-87.075287 217.975098 -8.848400 0.195835
-73.591980 217.975098 -8.848400 0.169611
-60.108704 217.975098 -8.848400 0.124426
-46.625397 217.975098 -8.848400 0.086264
-33.142090 217.975098 -8.848400 0.038126
-19.658783 217.975098 -8.848400 0.000177
-6.175476 217.975098 -8.848400 -0.040371
7.307800 217.975098 -8.848400 -0.046740
20.791107 217.975098 -8.848400 -0.041663
34.274414 217.975098 -8.848400 -0.029454
47.757721 217.975098 -8.848400 0.000000
61.240997 217.975098 -8.848400 -0.027741
74.724304 217.975098 -8.848400 -0.025149
88.207611 217.975098 -8.848400 -0.039712
101.690918 217.975098 -8.848400 -0.049676
115.174225 217.975098 -8.848400 0.000000
128.657501 217.975098 -8.848400 -0.089774
142.140808 217.975098 -8.848400 -0.112785
155.624115 217.975098 -8.848400 -0.132192
169.107422 217.975098 -8.848400 -0.143932
182.590698 217.975098 -8.848400 -0.132225
196.074036 217.975098 -8.848400 0.000000
209.557312 217.975098 -8.848400 0.000000
223.040588 217.975098 -8.848400 0.000000
236.523926 217.975098 -8.848400 0.000000
250.007202 217.975098 -8.848400 0.000000
263.490540 217.975098 -8.848400 0.000000
276.973816 217.975098 -8.848400 0.000000
290.457092 217.975098 -8.848400 0.000000
303.940430 217.975098 -8.848400 0.000000
317.423706 217.975098 -8.848400 0.000000
330.907043 217.975098 -8.848400 0.000000
344.390320 217.975098 -8.848400 0.000000
-343.257996 204.491791 -8.848400 0.000000
-329.774689 204.491791 -8.848400 0.000000
-316.291382 204.491791 -8.848400 0.000000
-302.808105 204.491791 -8.848400 0.000000
-289.324799 204.491791 -8.848400 0.000000
-275.841492 204.491791 -8.848400 0.000000
-262.358185 204.491791 -8.848400 0.000000
-248.874893 204.491791 -8.848400 0.000000
-235.391602 204.491791 -8.848400 0.000000
-221.908295 204.491791 -8.848400 0.000000
-208.424988 204.491791 -8.848400 0.000000
-194.941696 204.491791 -8.848400 0.000000
-181.458389 204.491791 -8.848400 0.000000
-167.975098 204.491791 -8.848400 0.000000
-154.491791 204.491791 -8.848400 0.000000
-141.008499 204.491791 -8.848400 0.108296
-127.525192 204.491791 -8.848400 0.133340
-114.041885 204.491791 -8.848400 0.172161
-100.558594 204.491791 -8.848400 0.209417
-87.075287 204.491791 -8.848400 0.225566
-73.591980 204.491791 -8.848400 0.174748
-60.108704 204.491791 -8.848400 0.126929
-46.625397 204.491791 -8.848400 0.074445
-33.142090 204.491791 -8.848400 0.031241
-19.658783 204.491791 -8.848400 -0.004138
-6.175476 204.491791 -8.848400 -0.046213
7.307800 204.491791 -8.848400 -0.059784
20.791107 204.491791 -8.848400 -0.053898
34.274414 204.491791 -8.848400 -0.050088
47.757721 204.491791 -8.848400 -0.035106
61.240997 204.491791 -8.848400 -0.034609
74.724304 204.491791 -8.848400 -0.045576
88.207611 204.491791 -8.848400 -0.050572
101.690918 204.491791 -8.848400 -0.066411
115.174225 204.491791 -8.848400 -0.092031
128.657501 204.491791 -8.848400 -0.117180
142.140808 204.491791 -8.848400 -0.130219
155.624115 204.491791 -8.848400 -0.128895
169.107422 204.491791 -8.848400 -0.124097
182.590698 204.491791 -8.848400 0.000000
196.074036 204.491791 -8.848400 0.000000
209.557312 204.491791 -8.848400 0.000000
223.040588 204.491791 -8.848400 0.000000
236.523926 204.491791 -8.848400 0.000000
250.007202 204.491791 -8.848400 0.000000
263.490540 204.491791 -8.848400 0.000000
276.973816 204.491791 -8.848400 0.000000
290.457092 204.491791 -8.848400 0.000000
303.940430 204.491791 -8.848400 0.000000
317.423706 204.491791 -8.848400 0.000000
330.907043 204.491791 -8.848400 0.000000
344.390320 204.491791 -8.848400 0.000000
-343.257996 191.008499 -8.848400 0.000000
-329.774689 191.008499 -8.848400 0.000000
-316.291382 191.008499 -8.848400 0.000000
-302.808105 191.008499 -8.848400 0.000000
-289.324799 191.008499 -8.848400 0.000000
-275.841492 191.008499 -8.848400 0.000000
-262.358185 191.008499 -8.848400 0.000000
-248.874893 191.008499 -8.848400 0.000000
-235.391602 191.008499 -8.848400 0.000000
-221.908295 191.008499 -8.848400 0.000000
-208.424988 191.008499 -8.848400 0.000000
-194.941696 191.008499 -8.848400 0.000000
-181.458389 191.008499 -8.848400 0.000000
-167.975098 191.008499 -8.848400 0.000000
-154.491791 191.008499 -8.848400 0.000000
-141.008499 191.008499 -8.848400 0.139966
-127.525192 191.008499 -8.848400 0.181424
-114.041885 191.008499 -8.848400 0.210934
-100.558594 191.008499 -8.848400 0.235236
-87.075287 191.008499 -8.848400 0.224576
-73.591980 191.008499 -8.848400 0.185538
-60.108704 191.008499 -8.848400 0.136469
-46.625397 191.008499 -8.848400 0.082996
-33.142090 191.008499 -8.848400 0.022711
-19.658783 191.008499 -8.848400 -0.014688
-6.175476 191.008499 -8.848400 -0.055146
7.307800 191.008499 -8.848400 -0.059955
20.791107 191.008499 -8.848400 -0.053470
34.274414 191.008499 -8.848400 -0.046776
47.757721 191.008499 -8.848400 -0.051912
61.240997 191.008499 -8.848400 -0.061260
74.724304 191.008499 -8.848400 -0.078365
88.207611 191.008499 -8.848400 -0.093347
101.690918 191.008499 -8.848400 -0.106242
115.174225 191.008499 -8.848400 -0.123390
128.657501 191.008499 -8.848400 -0.138862
142.140808 191.008499 -8.848400 -0.133635
155.624115 191.008499 -8.848400 -0.117571
169.107422 191.008499 -8.848400 -0.088942
182.590698 191.008499 -8.848400 0.000000
196.074036 191.008499 -8.848400 0.000000
209.557312 191.008499 -8.848400 0.000000
223.040588 191.008499 -8.848400 0.000000
236.523926 191.008499 -8.848400 0.000000
250.007202 191.008499 -8.848400 0.000000
263.490540 191.008499 -8.848400 0.000000
276.973816 191.008499 -8.848400 0.000000
290.457092 191.008499 -8.848400 0.000000
303.940430 191.008499 -8.848400 0.000000
317.423706 191.008499 -8.848400 0.000000
330.907043 191.008499 -8.848400 0.000000
344.390320 191.008499 -8.848400 0.000000
-343.257996 177.525192 -8.848400 0.000000
-329.774689 177.525192 -8.848400 0.000000
-316.291382 177.525192 -8.848400 0.000000
-302.808105 177.525192 -8.848400 0.000000
-289.324799 177.525192 -8.848400 0.000000
-275.841492 177.525192 -8.848400 0.000000
-262.358185 177.525192 -8.848400 0.000000
-248.874893 177.525192 -8.848400 0.000000
-235.391602 177.525192 -8.848400 0.000000
-221.908295 177.525192 -8.848400 0.000000
-208.424988 177.525192 -8.848400 0.000000
-194.941696 177.525192 -8.848400 0.000000
-181.458389 177.525192 -8.848400 0.000000
-167.975098 177.525192 -8.848400 0.000000
-154.491791 177.525192 -8.848400 0.000000
-141.008499 177.525192 -8.848400 0.168946
-127.525192 177.525192 -8.848400 0.226588
-114.041885 177.525192 -8.848400 0.249004
-100.558594 177.525192 -8.848400 0.248527
-87.075287 177.525192 -8.848400 0.234820
-73.591980 177.525192 -8.848400 0.203622
-60.108704 177.525192 -8.848400 0.152357
-46.625397 177.525192 -8.848400 0.101758
-33.142090 177.525192 -8.848400 0.027036
-19.658783 177.525192 -8.848400 -0.021228
-6.175476 177.525192 -8.848400 -0.052625
7.307800 177.525192 -8.848400 -0.070187
20.791107 177.525192 -8.848400 -0.068849
34.274414 177.525192 -8.848400 -0.083185
47.757721 177.525192 -8.848400 -0.090445
61.240997 177.525192 -8.848400 -0.093258
74.724304 177.525192 -8.848400 -0.104712
88.207611 177.525192 -8.848400 -0.122956
101.690918 177.525192 -8.848400 -0.125602
115.174225 177.525192 -8.848400 -0.118664
128.657501 177.525192 -8.848400 -0.110433
142.140808 177.525192 -8.848400 -0.093471
155.624115 177.525192 -8.848400 -0.077581
169.107422 177.525192 -8.848400 0.000000
182.590698 177.525192 -8.848400 0.000000
196.074036 177.525192 -8.848400 0.000000
209.557312 177.525192 -8.848400 0.000000
223.040588 177.525192 -8.848400 0.000000
236.523926 177.525192 -8.848400 0.000000
250.007202 177.525192 -8.848400 0.000000
263.490540 177.525192 -8.848400 0.000000
276.973816 177.525192 -8.848400 0.000000
290.457092 177.525192 -8.848400 0.000000
303.940430 177.525192 -8.848400 0.000000
317.423706 177.525192 -8.848400 0.000000
330.907043 177.525192 -8.848400 0.000000
344.390320 177.525192 -8.848400 0.000000
-343.257996 164.041885 -8.848400 0.000000
-329.774689 164.041885 -8.848400 0.000000
-316.291382 164.041885 -8.848400 0.000000
-302.808105 164.041885 -8.848400 0.000000
-289.324799 164.041885 -8.848400 0.000000
-275.841492 164.041885 -8.848400 0.000000
-262.358185 164.041885 -8.848400 0.000000
-248.874893 164.041885 -8.848400 0.000000
-235.391602 164.041885 -8.848400 0.000000
-221.908295 164.041885 -8.848400 0.000000
-208.424988 164.041885 -8.848400 0.000000
-194.941696 164.041885 -8.848400 0.000000
-181.458389 164.041885 -8.848400 0.000000
-167.975098 164.041885 -8.848400 0.000000
-154.491791 164.041885 -8.848400 0.000000
-141.008499 164.041885 -8.848400 0.232374
-127.525192 164.041885 -8.848400 0.256771
-114.041885 164.041885 -8.848400 0.263796
-100.558594 164.041885 -8.848400 0.277203
-87.075287 164.041885 -8.848400 0.245198
-73.591980 164.041885 -8.848400 0.200285
-60.108704 164.041885 -8.848400 0.132691
-46.625397 164.041885 -8.848400 0.075124
-33.142090 164.041885 -8.848400 0.013858
-19.658783 164.041885 -8.848400 -0.026131
-6.175476 164.041885 -8.848400 -0.054816
7.307800 164.041885 -8.848400 -0.087341
20.791107 164.041885 -8.848400 -0.114349
34.274414 164.041885 -8.848400 -0.120475
47.757721 164.041885 -8.848400 -0.133152
61.240997 164.041885 -8.848400 -0.130045
74.724304 164.041885 -8.848400 -0.128457
88.207611 164.041885 -8.848400 -0.129431
101.690918 164.041885 -8.848400 -0.113408
115.174225 164.041885 -8.848400 -0.099855
128.657501 164.041885 -8.848400 -0.080150
142.140808 164.041885 -8.848400 0.000000
155.624115 164.041885 -8.848400 0.000000
169.107422 164.041885 -8.848400 0.000000
182.590698 164.041885 -8.848400 0.000000
196.074036 164.041885 -8.848400 0.000000
209.557312 164.041885 -8.848400 0.000000
223.040588 164.041885 -8.848400 0.000000
236.523926 164.041885 -8.848400 0.000000
250.007202 164.041885 -8.848400 0.000000
263.490540 164.041885 -8.848400 0.000000
276.973816 164.041885 -8.848400 0.000000
290.457092 164.041885 -8.848400 0.000000
303.940430 164.041885 -8.848400 0.000000
317.423706 164.041885 -8.848400 0.000000
330.907043 164.041885 -8.848400 0.000000
344.390320 164.041885 -8.848400 0.000000
-343.257996 150.558594 -8.848400 0.000000
-329.774689 150.558594 -8.848400 0.000000
-316.291382 150.558594 -8.848400 0.000000
-302.808105 150.558594 -8.848400 0.000000
-289.324799 150.558594 -8.848400 0.000000
-275.841492 150.558594 -8.848400 0.000000
-262.358185 150.558594 -8.848400 0.000000
-248.874893 150.558594 -8.848400 0.000000
-235.391602 150.558594 -8.848400 0.000000
-221.908295 150.558594 -8.848400 0.000000
-208.424988 150.558594 -8.848400 0.000000
-194.941696 150.558594 -8.848400 0.000000
-181.458389 150.558594 -8.848400 0.000000
-167.975098 150.558594 -8.848400 0.000000
-154.491791 150.558594 -8.848400 0.000000
-141.008499 150.558594 -8.848400 0.278316
-127.525192 150.558594 -8.848400 0.302063
-114.041885 150.558594 -8.848400 0.306302
-100.558594 150.558594 -8.848400 0.275275
-87.075287 150.558594 -8.848400 0.225212
-73.591980 150.558594 -8.848400 0.168157
-60.108704 150.558594 -8.848400 0.101831
-46.625397 150.558594 -8.848400 0.050665
-33.142090 150.558594 -8.848400 -0.009158
-19.658783 150.558594 -8.848400 -0.044085
-6.175476 150.558594 -8.848400 -0.068987
7.307800 150.558594 -8.848400 -0.100992
20.791107 150.558594 -8.848400 -0.139428
34.274414 150.558594 -8.848400 -0.149529
47.757721 150.558594 -8.848400 -0.160926
61.240997 150.558594 -8.848400 -0.151657
74.724304 150.558594 -8.848400 -0.139874
88.207611 150.558594 -8.848400 -0.119966
101.690918 150.558594 -8.848400 -0.096390
115.174225 150.558594 -8.848400 -0.067018
128.657501 150.558594 -8.848400 0.000000
142.140808 150.558594 -8.848400 0.000000
155.624115 150.558594 -8.848400 0.000000
169.107422 150.558594 -8.848400 0.000000
182.590698 150.558594 -8.848400 0.000000
196.074036 150.558594 -8.848400 0.000000
209.557312 150.558594 -8.848400 0.000000
223.040588 150.558594 -8.848400 0.000000
236.523926 150.558594 -8.848400 0.000000
250.007202 150.558594 -8.848400 0.000000
263.490540 150.558594 -8.848400 0.000000
276.973816 150.558594 -8.848400 0.000000
290.457092 150.558594 -8.848400 0.000000
303.940430 150.558594 -8.848400 0.000000
317.423706 150.558594 -8.848400 0.000000
330.907043 150.558594 -8.848400 0.000000
344.390320 150.558594 -8.848400 0.000000
-343.257996 137.075287 -8.848400 0.000000
-329.774689 137.075287 -8.848400 0.000000
-316.291382 137.075287 -8.848400 0.000000
-302.808105 137.075287 -8.848400 0.000000
-289.324799 137.075287 -8.848400 0.000000
-275.841492 137.075287 -8.848400 0.000000
-262.358185 137.075287 -8.848400 0.000000
-248.874893 137.075287 -8.848400 0.000000
-235.391602 137.075287 -8.848400 0.000000
-221.908295 137.075287 -8.848400 0.000000
-208.424988 137.075287 -8.848400 0.000000
-194.941696 137.075287 -8.848400 0.000000
-181.458389 137.075287 -8.848400 0.000000
-167.975098 137.075287 -8.848400 0.000000
-154.491791 137.075287 -8.848400 0.000000
-141.008499 137.075287 -8.848400 0.336420
-127.525192 137.075287 -8.848400 0.346332
-114.041885 137.075287 -8.848400 0.331817
-100.558594 137.075287 -8.848400 0.307640
-87.075287 137.075287 -8.848400 0.236716
-73.591980 137.075287 -8.848400 0.172939
-60.108704 137.075287 -8.848400 0.103075
-46.625397 137.075287 -8.848400 0.037213
-33.142090 137.075287 -8.848400 -0.021812
-19.658783 137.075287 -8.848400 -0.053992
-6.175476 137.075287 -8.848400 -0.079366
7.307800 137.075287 -8.848400 -0.110261
20.791107 137.075287 -8.848400 -0.141141
34.274414 137.075287 -8.848400 -0.171868
47.757721 137.075287 -8.848400 -0.156082
61.240997 137.075287 -8.848400 -0.159981
74.724304 137.075287 -8.848400 -0.136342
88.207611 137.075287 -8.848400 -0.103649
101.690918 137.075287 -8.848400 0.000000
115.174225 137.075287 -8.848400 0.000000
128.657501 137.075287 -8.848400 0.000000
142.140808 137.075287 -8.848400 0.000000
155.624115 137.075287 -8.848400 0.000000
169.107422 137.075287 -8.848400 0.000000
182.590698 137.075287 -8.848400 0.000000
196.074036 137.075287 -8.848400 0.000000
209.557312 137.075287 -8.848400 0.000000
223.040588 137.075287 -8.848400 0.000000
236.523926 137.075287 -8.848400 0.000000
250.007202 137.075287 -8.848400 0.000000
263.490540 137.075287 -8.848400 0.000000
276.973816 137.075287 -8.848400 0.000000
290.457092 137.075287 -8.848400 0.000000
303.940430 137.075287 -8.848400 0.000000
317.423706 137.075287 -8.848400 0.000000
330.907043 137.075287 -8.848400 0.000000
344.390320 137.075287 -8.848400 0.000000
-343.257996 123.591980 -8.848400 0.000000
-329.774689 123.591980 -8.848400 0.000000
-316.291382 123.591980 -8.848400 0.000000
-302.808105 123.591980 -8.848400 0.000000
-289.324799 123.591980 -8.848400 0.000000
-275.841492 123.591980 -8.848400 0.000000
-262.358185 123.591980 -8.848400 0.000000
-248.874893 123.591980 -8.848400 0.000000
-235.391602 123.591980 -8.848400 0.000000
-221.908295 123.591980 -8.848400 0.000000
-208.424988 123.591980 -8.848400 0.000000
-194.941696 123.591980 -8.848400 0.000000
-181.458389 123.591980 -8.848400 0.000000
-167.975098 123.591980 -8.848400 0.000000
-154.491791 123.591980 -8.848400 0.000000
-141.008499 123.591980 -8.848400 0.356034
-127.525192 123.591980 -8.848400 0.374433
-114.041885 123.591980 -8.848400 0.362689
-100.558594 123.591980 -8.848400 0.318577
-87.075287 123.591980 -8.848400 0.241698
-73.591980 123.591980 -8.848400 0.164354
-60.108704 123.591980 -8.848400 0.097874
-46.625397 123.591980 -8.848400 0.012666
-33.142090 123.591980 -8.848400 -0.038178
-19.658783 123.591980 -8.848400 -0.069333
-6.175476 123.591980 -8.848400 -0.100419
7.307800 123.591980 -8.848400 -0.118544
20.791107 123.591980 -8.848400 -0.131744
34.274414 123.591980 -8.848400 -0.153632
47.757721 123.591980 -8.848400 -0.161615
61.240997 123.591980 -8.848400 -0.153114
74.724304 123.591980 -8.848400 -0.112609
88.207611 123.591980 -8.848400 0.000000
101.690918 123.591980 -8.848400 0.000000
115.174225 123.591980 -8.848400 0.000000
128.657501 123.591980 -8.848400 0.000000
142.140808 123.591980 -8.848400 0.000000
155.624115 123.591980 -8.848400 0.000000
169.107422 123.591980 -8.848400 0.000000
182.590698 123.591980 -8.848400 0.000000
196.074036 123.591980 -8.848400 0.000000
209.557312 123.591980 -8.848400 0.000000
223.040588 123.591980 -8.848400 0.000000
236.523926 123.591980 -8.848400 0.000000
250.007202 123.591980 -8.848400 0.000000
263.490540 123.591980 -8.848400 0.000000
276.973816 123.591980 -8.848400 0.000000
290.457092 123.591980 -8.848400 0.000000
303.940430 123.591980 -8.848400 0.000000
317.423706 123.591980 -8.848400 0.000000
330.907043 123.591980 -8.848400 0.000000
344.390320 123.591980 -8.848400 0.000000
-343.257996 110.108704 -8.848400 0.000000
-329.774689 110.108704 -8.848400 0.000000
-316.291382 110.108704 -8.848400 0.000000
-302.808105 110.108704 -8.848400 0.000000
-289.324799 110.108704 -8.848400 0.000000
-275.841492 110.108704 -8.848400 0.000000
-262.358185 110.108704 -8.848400 0.000000
-248.874893 110.108704 -8.848400 0.000000
-235.391602 110.108704 -8.848400 0.000000
-221.908295 110.108704 -8.848400 0.000000
-208.424988 110.108704 -8.848400 0.000000
-194.941696 110.108704 -8.848400 0.000000
-181.458389 110.108704 -8.848400 0.000000
-167.975098 110.108704 -8.848400 0.000000
-154.491791 110.108704 -8.848400 0.000000
-141.008499 110.108704 -8.848400 0.414765
-127.525192 110.108704 -8.848400 0.402875
-114.041885 110.108704 -8.848400 0.355763
-100.558594 110.108704 -8.848400 0.279177
-87.075287 110.108704 -8.848400 0.216266
-73.591980 110.108704 -8.848400 0.165075
-60.108704 110.108704 -8.848400 0.066244
-46.625397 110.108704 -8.848400 -0.009478
-33.142090 110.108704 -8.848400 -0.057482
-19.658783 110.108704 -8.848400 -0.092246
-6.175476 110.108704 -8.848400 -0.105128
7.307800 110.108704 -8.848400 -0.113762
20.791107 110.108704 -8.848400 -0.126796
34.274414 110.108704 -8.848400 -0.150110
47.757721 110.108704 -8.848400 -0.140576
61.240997 110.108704 -8.848400 -0.119550
74.724304 110.108704 -8.848400 0.000000
88.207611 110.108704 -8.848400 0.000000
101.690918 110.108704 -8.848400 0.000000
115.174225 110.108704 -8.848400 0.000000
128.657501 110.108704 -8.848400 0.000000
142.140808 110.108704 -8.848400 0.000000
155.624115 110.108704 -8.848400 0.000000
169.107422 110.108704 -8.848400 0.000000
182.590698 110.108704 -8.848400 0.000000
196.074036 110.108704 -8.848400 0.000000
209.557312 110.108704 -8.848400 0.000000
223.040588 110.108704 -8.848400 0.000000
236.523926 110.108704 -8.848400 0.000000
250.007202 110.108704 -8.848400 0.000000
263.490540 110.108704 -8.848400 0.000000
276.973816 110.108704 -8.848400 0.000000
290.457092 110.108704 -8.848400 0.000000
303.940430 110.108704 -8.848400 0.000000
317.423706 110.108704 -8.848400 0.000000
330.907043 110.108704 -8.848400 0.000000
344.390320 110.108704 -8.848400 0.000000
-343.257996 96.625397 -8.848400 0.000000
-329.774689 96.625397 -8.848400 0.000000
-316.291382 96.625397 -8.848400 0.000000
-302.808105 96.625397 -8.848400 0.000000
-289.324799 96.625397 -8.848400 0.000000
-275.841492 96.625397 -8.848400 0.000000
-262.358185 96.625397 -8.848400 0.000000
-248.874893 96.625397 -8.848400 0.000000
-235.391602 96.625397 -8.848400 0.000000
-221.908295 96.625397 -8.848400 0.000000
-208.424988 96.625397 -8.848400 0.000000
-194.941696 96.625397 -8.848400 0.000000
-181.458389 96.625397 -8.848400 0.000000
-167.975098 96.625397 -8.848400 0.000000
-154.491791 96.625397 -8.848400 0.000000
-141.008499 96.625397 -8.848400 0.430129
-127.525192 96.625397 -8.848400 0.402101
-114.041885 96.625397 -8.848400 0.337948
-100.558594 96.625397 -8.848400 0.258658
-87.075287 96.625397 -8.848400 0.184769
-73.591980 96.625397 -8.848400 0.114185
-60.108704 96.625397 -8.848400 0.036920
-46.625397 96.625397 -8.848400 -0.025445
-33.142090 96.625397 -8.848400 -0.069632
-19.658783 96.625397 -8.848400 -0.090453
-6.175476 96.625397 -8.848400 -0.107552
7.307800 96.625397 -8.848400 -0.114383
20.791107 96.625397 -8.848400 -0.143165
34.274414 96.625397 -8.848400 -0.148347
47.757721 96.625397 -8.848400 -0.148592
61.240997 96.625397 -8.848400 -0.107512
74.724304 96.625397 -8.848400 0.000000
88.207611 96.625397 -8.848400 0.000000
101.690918 96.625397 -8.848400 0.000000
115.174225 96.625397 -8.848400 0.000000
128.657501 96.625397 -8.848400 0.000000
142.140808 96.625397 -8.848400 0.000000
155.624115 96.625397 -8.848400 0.000000
169.107422 96.625397 -8.848400 0.000000
182.590698 96.625397 -8.848400 0.000000
196.074036 96.625397 -8.848400 0.000000
209.557312 96.625397 -8.848400 0.000000
223.040588 96.625397 -8.848400 0.000000
236.523926 96.625397 -8.848400 0.000000
250.007202 96.625397 -8.848400 0.000000
263.490540 96.625397 -8.848400 0.000000
276.973816 96.625397 -8.848400 0.000000
290.457092 96.625397 -8.848400 0.000000
303.940430 96.625397 -8.848400 0.000000
317.423706 96.625397 -8.848400 0.000000
330.907043 96.625397 -8.848400 0.000000
344.390320 96.625397 -8.848400 0.000000
-343.257996 83.142090 -8.848400 0.000000
-329.774689 83.142090 -8.848400 0.000000
-316.291382 83.142090 -8.848400 0.000000
-302.808105 83.142090 -8.848400 0.000000
-289.324799 83.142090 -8.848400 0.000000
-275.841492 83.142090 -8.848400 0.000000
-262.358185 83.142090 -8.848400 0.000000
-248.874893 83.142090 -8.848400 0.000000
-235.391602 83.142090 -8.848400 0.000000
-221.908295 83.142090 -8.848400 0.000000
-208.424988 83.142090 -8.848400 0.000000
-194.941696 83.142090 -8.848400 0.000000
-181.458389 83.142090 -8.848400 0.000000
-167.975098 83.142090 -8.848400 0.000000
-154.491791 83.142090 -8.848400 0.000000
-141.008499 83.142090 -8.848400 0.431337
-127.525192 83.142090 -8.848400 0.392291
-114.041885 83.142090 -8.848400 0.292695
-100.558594 83.142090 -8.848400 0.212791
-87.075287 83.142090 -8.848400 0.154832
-73.591980 83.142090 -8.848400 0.094560
-60.108704 83.142090 -8.848400 0.011941
-46.625397 83.142090 -8.848400 -0.044823
-33.142090 83.142090 -8.848400 -0.077469
-19.658783 83.142090 -8.848400 -0.088814
-6.175476 83.142090 -8.848400 -0.100314
7.307800 83.142090 -8.848400 -0.136195
20.791107 83.142090 -8.848400 -0.169631
34.274414 83.142090 -8.848400 -0.174494
47.757721 83.142090 -8.848400 -0.142317
61.240997 83.142090 -8.848400 0.000000
74.724304 83.142090 -8.848400 0.000000
88.207611 83.142090 -8.848400 0.000000
101.690918 83.142090 -8.848400 0.000000
115.174225 83.142090 -8.848400 0.000000
128.657501 83.142090 -8.848400 0.000000
142.140808 83.142090 -8.848400 0.000000
155.624115 83.142090 -8.848400 0.000000
169.107422 83.142090 -8.848400 0.000000
182.590698 83.142090 -8.848400 0.000000
196.074036 83.142090 -8.848400 0.000000
209.557312 83.142090 -8.848400 0.000000
223.040588 83.142090 -8.848400 0.000000
236.523926 83.142090 -8.848400 0.000000
250.007202 83.142090 -8.848400 0.000000
263.490540 83.142090 -8.848400 0.000000
276.973816 83.142090 -8.848400 0.000000
290.457092 83.142090 -8.848400 0.000000
303.940430 83.142090 -8.848400 0.000000
317.423706 83.142090 -8.848400 0.000000
330.907043 83.142090 -8.848400 0.000000
344.390320 83.142090 -8.848400 0.000000
-343.257996 69.658783 -8.848400 0.000000
-329.774689 69.658783 -8.848400 0.000000
-316.291382 69.658783 -8.848400 0.000000
-302.808105 69.658783 -8.848400 0.000000
-289.324799 69.658783 -8.848400 0.000000
-275.841492 69.658783 -8.848400 0.000000
-262.358185 69.658783 -8.848400 0.000000
-248.874893 69.658783 -8.848400 0.000000
-235.391602 69.658783 -8.848400 0.000000
-221.908295 69.658783 -8.848400 0.000000
-208.424988 69.658783 -8.848400 0.000000
-194.941696 69.658783 -8.848400 0.000000
-181.458389 69.658783 -8.848400 0.000000
-167.975098 69.658783 -8.848400 0.000000
-154.491791 69.658783 -8.848400 0.000000
-141.008499 69.658783 -8.848400 0.449102
-127.525192 69.658783 -8.848400 0.388335
-114.041885 69.658783 -8.848400 0.286089
-100.558594 69.658783 -8.848400 0.188500
-87.075287 69.658783 -8.848400 0.112940
-73.591980 69.658783 -8.848400 0.033100
-60.108704 69.658783 -8.848400 -0.003031
-46.625397 69.658783 -8.848400 -0.055706
-33.142090 69.658783 -8.848400 -0.082164
-19.658783 69.658783 -8.848400 -0.090761
-6.175476 69.658783 -8.848400 -0.122726
7.307800 69.658783 -8.848400 -0.167876
20.791107 69.658783 -8.848400 -0.201236
34.274414 69.658783 -8.848400 -0.202951
47.757721 69.658783 -8.848400 -0.167884
61.240997 69.658783 -8.848400 0.000000
74.724304 69.658783 -8.848400 0.000000
88.207611 69.658783 -8.848400 0.000000
101.690918 69.658783 -8.848400 0.000000
115.174225 69.658783 -8.848400 0.000000
128.657501 69.658783 -8.848400 0.000000
142.140808 69.658783 -8.848400 0.000000
155.624115 69.658783 -8.848400 0.000000
169.107422 69.658783 -8.848400 0.000000
182.590698 69.658783 -8.848400 0.000000
196.074036 69.658783 -8.848400 0.000000
209.557312 69.658783 -8.848400 0.000000
223.040588 69.658783 -8.848400 0.000000
236.523926 69.658783 -8.848400 0.000000
250.007202 69.658783 -8.848400 0.000000
263.490540 69.658783 -8.848400 0.000000
276.973816 69.658783 -8.848400 0.000000
290.457092 69.658783 -8.848400 0.000000
303.940430 69.658783 -8.848400 0.000000
317.423706 69.658783 -8.848400 0.000000
330.907043 69.658783 -8.848400 0.000000
344.390320 69.658783 -8.848400 0.000000
-343.257996 56.175476 -8.848400 0.000000
-329.774689 56.175476 -8.848400 0.000000
-316.291382 56.175476 -8.848400 0.000000
-302.808105 56.175476 -8.848400 0.000000
-289.324799 56.175476 -8.848400 0.000000
-275.841492 56.175476 -8.848400 0.000000
-262.358185 56.175476 -8.848400 0.000000
-248.874893 56.175476 -8.848400 0.000000
-235.391602 56.175476 -8.848400 0.000000
-221.908295 56.175476 -8.848400 0.000000
-208.424988 56.175476 -8.848400 0.000000
-194.941696 56.175476 -8.848400 0.000000
-181.458389 56.175476 -8.848400 0.000000
-167.975098 56.175476 -8.848400 0.000000
-154.491791 56.175476 -8.848400 0.000000
-141.008499 56.175476 -8.848400 0.441287
-127.525192 56.175476 -8.848400 0.352722
-114.041885 56.175476 -8.848400 0.234142
-100.558594 56.175476 -8.848400 0.137639
-87.075287 56.175476 -8.848400 0.071419
-73.591980 56.175476 -8.848400 0.019867
-60.108704 56.175476 -8.848400 -0.001903
-46.625397 56.175476 -8.848400 -0.060458
-33.142090 56.175476 -8.848400 -0.089508
-19.658783 56.175476 -8.848400 -0.096582
-6.175476 56.175476 -8.848400 -0.140477
7.307800 56.175476 -8.848400 -0.171937
20.791107 56.175476 -8.848400 -0.218574
34.274414 56.175476 -8.848400 -0.246015
47.757721 56.175476 -8.848400 -0.213097
61.240997 56.175476 -8.848400 0.000000
74.724304 56.175476 -8.848400 0.000000
88.207611 56.175476 -8.848400 0.000000
101.690918 56.175476 -8.848400 0.000000
115.174225 56.175476 -8.848400 0.000000
128.657501 56.175476 -8.848400 0.000000
142.140808 56.175476 -8.848400 0.000000
155.624115 56.175476 -8.848400 0.000000
169.107422 56.175476 -8.848400 0.000000
182.590698 56.175476 -8.848400 0.000000
196.074036 56.175476 -8.848400 0.000000
209.557312 56.175476 -8.848400 0.000000
223.040588 56.175476 -8.848400 0.000000
236.523926 56.175476 -8.848400 0.000000
250.007202 56.175476 -8.848400 0.000000
263.490540 56.175476 -8.848400 0.000000
276.973816 56.175476 -8.848400 0.000000
290.457092 56.175476 -8.848400 0.000000
303.940430 56.175476 -8.848400 0.000000
317.423706 56.175476 -8.848400 0.000000
330.907043 56.175476 -8.848400 0.000000
344.390320 56.175476 -8.848400 0.000000
-343.257996 42.692200 -8.848400 0.000000
-329.774689 42.692200 -8.848400 0.000000
-316.291382 42.692200 -8.848400 0.000000
-302.808105 42.692200 -8.848400 0.000000
-289.324799 42.692200 -8.848400 0.000000
-275.841492 42.692200 -8.848400 0.000000
-262.358185 42.692200 -8.848400 0.000000
-248.874893 42.692200 -8.848400 0.000000
-235.391602 42.692200 -8.848400 0.000000
-221.908295 42.692200 -8.848400 0.000000
-208.424988 42.692200 -8.848400 0.000000
-194.941696 42.692200 -8.848400 0.000000
-181.458389 42.692200 -8.848400 0.000000
-167.975098 42.692200 -8.848400 0.000000
-154.491791 42.692200 -8.848400 0.000000
-141.008499 42.692200 -8.848400 0.388014
-127.525192 42.692200 -8.848400 0.322329
-114.041885 42.692200 -8.848400 0.219667
-100.558594 42.692200 -8.848400 0.146722
-87.075287 42.692200 -8.848400 0.058485
-73.591980 42.692200 -8.848400 0.020643
-60.108704 42.692200 -8.848400 -0.009536
-46.625397 42.692200 -8.848400 -0.059861
-33.142090 42.692200 -8.848400 -0.096316
-19.658783 42.692200 -8.848400 -0.097964
-6.175476 42.692200 -8.848400 -0.116059
7.307800 42.692200 -8.848400 -0.178704
20.791107 42.692200 -8.848400 -0.218545
34.274414 42.692200 -8.848400 -0.278483
47.757721 42.692200 -8.848400 -0.258718
61.240997 42.692200 -8.848400 0.000000
74.724304 42.692200 -8.848400 0.000000
88.207611 42.692200 -8.848400 0.000000
101.690918 42.692200 -8.848400 0.000000
115.174225 42.692200 -8.848400 0.000000
128.657501 42.692200 -8.848400 0.000000
142.140808 42.692200 -8.848400 0.000000
155.624115 42.692200 -8.848400 0.000000
169.107422 42.692200 -8.848400 0.000000
182.590698 42.692200 -8.848400 0.000000
196.074036 42.692200 -8.848400 0.000000
209.557312 42.692200 -8.848400 0.000000
223.040588 42.692200 -8.848400 0.000000
236.523926 42.692200 -8.848400 0.000000
250.007202 42.692200 -8.848400 0.000000
263.490540 42.692200 -8.848400 0.000000
276.973816 42.692200 -8.848400 0.000000
290.457092 42.692200 -8.848400 0.000000
303.940430 42.692200 -8.848400 0.000000
317.423706 42.692200 -8.848400 0.000000
330.907043 42.692200 -8.848400 0.000000
344.390320 42.692200 -8.848400 0.000000
-343.257996 29.208893 -8.848400 0.000000
-329.774689 29.208893 -8.848400 0.000000
-316.291382 29.208893 -8.848400 0.000000
-302.808105 29.208893 -8.848400 0.000000
-289.324799 29.208893 -8.848400 0.000000
-275.841492 29.208893 -8.848400 0.000000
-262.358185 29.208893 -8.848400 0.000000
-248.874893 29.208893 -8.848400 0.000000
-235.391602 29.208893 -8.848400 0.000000
-221.908295 29.208893 -8.848400 0.000000
-208.424988 29.208893 -8.848400 0.000000
-194.941696 29.208893 -8.848400 0.000000
-181.458389 29.208893 -8.848400 0.000000
-167.975098 29.208893 -8.848400 0.000000
-154.491791 29.208893 -8.848400 0.402034
-141.008499 29.208893 -8.848400 0.325096
-127.525192 29.208893 -8.848400 0.254832
-114.041885 29.208893 -8.848400 0.175631
-100.558594 29.208893 -8.848400 0.100494
-87.075287 29.208893 -8.848400 0.039647
-73.591980 29.208893 -8.848400 0.001021
-60.108704 29.208893 -8.848400 -0.024330
-46.625397 29.208893 -8.848400 -0.055127
-33.142090 29.208893 -8.848400 -0.080933
-19.658783 29.208893 -8.848400 -0.125946
-6.175476 29.208893 -8.848400 -0.141623
7.307800 29.208893 -8.848400 -0.192623
20.791107 29.208893 -8.848400 -0.222366
34.274414 29.208893 -8.848400 -0.277527
47.757721 29.208893 -8.848400 -0.276888
61.240997 29.208893 -8.848400 0.000000
74.724304 29.208893 -8.848400 0.000000
88.207611 29.208893 -8.848400 0.000000
101.690918 29.208893 -8.848400 0.000000
115.174225 29.208893 -8.848400 0.000000
128.657501 29.208893 -8.848400 0.000000
142.140808 29.208893 -8.848400 0.000000
155.624115 29.208893 -8.848400 0.000000
169.107422 29.208893 -8.848400 0.000000
182.590698 29.208893 -8.848400 0.000000
196.074036 29.208893 -8.848400 0.000000
209.557312 29.208893 -8.848400 0.000000
223.040588 29.208893 -8.848400 0.000000
236.523926 29.208893 -8.848400 0.000000
250.007202 29.208893 -8.848400 0.000000
263.490540 29.208893 -8.848400 0.000000
276.973816 29.208893 -8.848400 0.000000
290.457092 29.208893 -8.848400 0.000000
303.940430 29.208893 -8.848400 0.000000
317.423706 29.208893 -8.848400 0.000000
330.907043 29.208893 -8.848400 0.000000
344.390320 29.208893 -8.848400 0.000000
-343.257996 15.725586 -8.848400 0.000000
-329.774689 15.725586 -8.848400 0.000000
-316.291382 15.725586 -8.848400 0.000000
-302.808105 15.725586 -8.848400 0.000000
-289.324799 15.725586 -8.848400 0.000000
-275.841492 15.725586 -8.848400 0.000000
-262.358185 15.725586 -8.848400 0.000000
-248.874893 15.725586 -8.848400 0.000000
-235.391602 15.725586 -8.848400 0.000000
-221.908295 15.725586 -8.848400 0.000000
-208.424988 15.725586 -8.848400 0.000000
-194.941696 15.725586 -8.848400 0.000000
-181.458389 15.725586 -8.848400 0.000000
-167.975098 15.725586 -8.848400 0.000000
-154.491791 15.725586 -8.848400 0.363708
-141.008499 15.725586 -8.848400 0.255041
-127.525192 15.725586 -8.848400 0.182880
-114.041885 15.725586 -8.848400 0.131648
-100.558594 15.725586 -8.848400 0.077787
-87.075287 15.725586 -8.848400 0.036849
-73.591980 15.725586 -8.848400 -0.000812
-60.108704 15.725586 -8.848400 -0.035418
-46.625397 15.725586 -8.848400 -0.046722
-33.142090 15.725586 -8.848400 -0.076814
-19.658783 15.725586 -8.848400 -0.125282
-6.175476 15.725586 -8.848400 -0.154734
7.307800 15.725586 -8.848400 -0.207209
20.791107 15.725586 -8.848400 -0.253661
34.274414 15.725586 -8.848400 -0.285560
47.757721 15.725586 -8.848400 -0.287927
61.240997 15.725586 -8.848400 -0.211904
74.724304 15.725586 -8.848400 0.000000
88.207611 15.725586 -8.848400 0.000000
101.690918 15.725586 -8.848400 0.000000
115.174225 15.725586 -8.848400 0.000000
128.657501 15.725586 -8.848400 0.000000
142.140808 15.725586 -8.848400 0.000000
155.624115 15.725586 -8.848400 0.000000
169.107422 15.725586 -8.848400 0.000000
182.590698 15.725586 -8.848400 0.000000
196.074036 15.725586 -8.848400 0.000000
209.557312 15.725586 -8.848400 0.000000
223.040588 15.725586 -8.848400 0.000000
236.523926 15.725586 -8.848400 0.000000
250.007202 15.725586 -8.848400 0.000000
263.490540 15.725586 -8.848400 0.000000
276.973816 15.725586 -8.848400 0.000000
290.457092 15.725586 -8.848400 0.000000
303.940430 15.725586 -8.848400 0.000000
317.423706 15.725586 -8.848400 0.000000
330.907043 15.725586 -8.848400 0.000000
344.390320 15.725586 -8.848400 0.000000
-343.257996 2.242279 -8.848400 0.000000
-329.774689 2.242279 -8.848400 0.000000
-316.291382 2.242279 -8.848400 0.000000
-302.808105 2.242279 -8.848400 0.000000
-289.324799 2.242279 -8.848400 0.000000
-275.841492 2.242279 -8.848400 0.000000
-262.358185 2.242279 -8.848400 0.000000
-248.874893 2.242279 -8.848400 0.000000
-235.391602 2.242279 -8.848400 0.000000
-221.908295 2.242279 -8.848400 0.000000
-208.424988 2.242279 -8.848400 0.000000
-194.941696 2.242279 -8.848400 0.000000
-181.458389 2.242279 -8.848400 0.000000
-167.975098 2.242279 -8.848400 0.000000
-154.491791 2.242279 -8.848400 0.334794
-141.008499 2.242279 -8.848400 0.239826
-127.525192 2.242279 -8.848400 0.143567
-114.041885 2.242279 -8.848400 0.098032
-100.558594 2.242279 -8.848400 0.067158
-87.075287 2.242279 -8.848400 0.022768
-73.591980 2.242279 -8.848400 -0.004614
-60.108704 2.242279 -8.848400 -0.033356
-46.625397 2.242279 -8.848400 -0.052503
-33.142090 2.242279 -8.848400 -0.077873
-19.658783 2.242279 -8.848400 -0.109235
-6.175476 2.242279 -8.848400 -0.152084
7.307800 2.242279 -8.848400 -0.233017
20.791107 2.242279 -8.848400 -0.278315
34.274414 2.242279 -8.848400 -0.299339
47.757721 2.242279 -8.848400 -0.276240
61.240997 2.242279 -8.848400 0.000000
74.724304 2.242279 -8.848400 0.000000
88.207611 2.242279 -8.848400 0.000000
101.690918 2.242279 -8.848400 0.000000
115.174225 2.242279 -8.848400 0.000000
128.657501 2.242279 -8.848400 0.000000
142.140808 2.242279 -8.848400 0.000000
155.624115 2.242279 -8.848400 0.000000
169.107422 2.242279 -8.848400 0.000000
182.590698 2.242279 -8.848400 0.000000
196.074036 2.242279 -8.848400 0.000000
209.557312 2.242279 -8.848400 0.000000
223.040588 2.242279 -8.848400 0.000000
236.523926 2.242279 -8.848400 0.000000
250.007202 2.242279 -8.848400 0.000000
263.490540 2.242279 -8.848400 0.000000
276.973816 2.242279 -8.848400 0.000000
290.457092 2.242279 -8.848400 0.000000
303.940430 2.242279 -8.848400 0.000000
317.423706 2.242279 -8.848400 0.000000
330.907043 2.242279 -8.848400 0.000000
344.390320 2.242279 -8.848400 0.000000
-343.257996 -11.240997 -8.848400 0.000000
-329.774689 -11.240997 -8.848400 0.000000
-316.291382 -11.240997 -8.848400 0.000000
-302.808105 -11.240997 -8.848400 0.000000
-289.324799 -11.240997 -8.848400 0.000000
-275.841492 -11.240997 -8.848400 0.000000
-262.358185 -11.240997 -8.848400 0.000000
-248.874893 -11.240997 -8.848400 0.000000
-235.391602 -11.240997 -8.848400 0.000000
-221.908295 -11.240997 -8.848400 0.000000
-208.424988 -11.240997 -8.848400 0.000000
-194.941696 -11.240997 -8.848400 0.000000
-181.458389 -11.240997 -8.848400 0.000000
-167.975098 -11.240997 -8.848400 0.301857
-154.491791 -11.240997 -8.848400 0.285696
-141.008499 -11.240997 -8.848400 0.225261
-127.525192 -11.240997 -8.848400 0.135452
-114.041885 -11.240997 -8.848400 0.091005
-100.558594 -11.240997 -8.848400 0.071697
-87.075287 -11.240997 -8.848400 0.027115
-73.591980 -11.240997 -8.848400 -0.007795
-60.108704 -11.240997 -8.848400 -0.035221
-46.625397 -11.240997 -8.848400 0.000000
-33.142090 -11.240997 -8.848400 0.000000
-19.658783 -11.240997 -8.848400 0.000000
-6.175476 -11.240997 -8.848400 0.000000
7.307800 -11.240997 -8.848400 -0.230664
20.791107 -11.240997 -8.848400 -0.285314
34.274414 -11.240997 -8.848400 -0.291189
47.757721 -11.240997 -8.848400 0.000000
61.240997 -11.240997 -8.848400 0.000000
74.724304 -11.240997 -8.848400 0.000000
88.207611 -11.240997 -8.848400 0.000000
101.690918 -11.240997 -8.848400 0.000000
115.174225 -11.240997 -8.848400 0.000000
128.657501 -11.240997 -8.848400 0.000000
142.140808 -11.240997 -8.848400 0.000000
155.624115 -11.240997 -8.848400 0.000000
169.107422 -11.240997 -8.848400 0.000000
182.590698 -11.240997 -8.848400 0.000000
196.074036 -11.240997 -8.848400 0.000000
209.557312 -11.240997 -8.848400 0.000000
223.040588 -11.240997 -8.848400 0.000000
236.523926 -11.240997 -8.848400 0.000000
250.007202 -11.240997 -8.848400 0.000000
263.490540 -11.240997 -8.848400 0.000000
276.973816 -11.240997 -8.848400 0.000000
290.457092 -11.240997 -8.848400 0.000000
303.940430 -11.240997 -8.848400 0.000000
317.423706 -11.240997 -8.848400 0.000000
330.907043 -11.240997 -8.848400 0.000000
344.390320 -11.240997 -8.848400 0.000000
-343.257996 -24.724304 -8.848400 0.000000
-329.774689 -24.724304 -8.848400 0.000000
-316.291382 -24.724304 -8.848400 0.000000
-302.808105 -24.724304 -8.848400 0.000000
-289.324799 -24.724304 -8.848400 0.000000
-275.841492 -24.724304 -8.848400 0.000000
-262.358185 -24.724304 -8.848400 0.000000
-248.874893 -24.724304 -8.848400 0.000000
-235.391602 -24.724304 -8.848400 0.000000
-221.908295 -24.724304 -8.848400 0.000000
-208.424988 -24.724304 -8.848400 0.000000
-194.941696 -24.724304 -8.848400 0.000000
-181.458389 -24.724304 -8.848400 0.000000
-167.975098 -24.724304 -8.848400 0.000000
-154.491791 -24.724304 -8.848400 0.253798
-141.008499 -24.724304 -8.848400 0.195229
-127.525192 -24.724304 -8.848400 0.108992
-114.041885 -24.724304 -8.848400 0.076525
-100.558594 -24.724304 -8.848400 0.050099
-87.075287 -24.724304 -8.848400 0.018706
-73.591980 -24.724304 -8.848400 0.000355
-60.108704 -24.724304 -8.848400 0.000000
-46.625397 -24.724304 -8.848400 0.000000
-33.142090 -24.724304 -8.848400 0.000000
-19.658783 -24.724304 -8.848400 0.000000
-6.175476 -24.724304 -8.848400 0.000000
7.307800 -24.724304 -8.848400 0.000000
20.791107 -24.724304 -8.848400 -0.276715
34.274414 -24.724304 -8.848400 -0.251931
47.757721 -24.724304 -8.848400 0.000000
61.240997 -24.724304 -8.848400 0.000000
74.724304 -24.724304 -8.848400 0.000000
88.207611 -24.724304 -8.848400 0.000000
101.690918 -24.724304 -8.848400 0.000000
115.174225 -24.724304 -8.848400 0.000000
128.657501 -24.724304 -8.848400 0.000000
142.140808 -24.724304 -8.848400 0.000000
155.624115 -24.724304 -8.848400 0.000000
169.107422 -24.724304 -8.848400 0.000000
182.590698 -24.724304 -8.848400 0.000000
196.074036 -24.724304 -8.848400 0.000000
209.557312 -24.724304 -8.848400 0.000000
223.040588 -24.724304 -8.848400 0.000000
236.523926 -24.724304 -8.848400 0.000000
250.007202 -24.724304 -8.848400 0.000000
263.490540 -24.724304 -8.848400 0.000000
276.973816 -24.724304 -8.848400 0.000000
290.457092 -24.724304 -8.848400 0.000000
303.940430 -24.724304 -8.848400 0.000000
317.423706 -24.724304 -8.848400 0.000000
330.907043 -24.724304 -8.848400 0.000000
344.390320 -24.724304 -8.848400 0.000000
-343.257996 -38.207611 -8.848400 0.000000
-329.774689 -38.207611 -8.848400 0.000000
-316.291382 -38.207611 -8.848400 0.000000
-302.808105 -38.207611 -8.848400 0.000000
-289.324799 -38.207611 -8.848400 0.000000
-275.841492 -38.207611 -8.848400 0.000000
-262.358185 -38.207611 -8.848400 0.000000
-248.874893 -38.207611 -8.848400 0.000000
-235.391602 -38.207611 -8.848400 0.000000
-221.908295 -38.207611 -8.848400 0.000000
-208.424988 -38.207611 -8.848400 0.000000
-194.941696 -38.207611 -8.848400 0.000000
-181.458389 -38.207611 -8.848400 0.000000
-167.975098 -38.207611 -8.848400 0.245485
-154.491791 -38.207611 -8.848400 0.212748
-141.008499 -38.207611 -8.848400 0.146449
-127.525192 -38.207611 -8.848400 0.095309
-114.041885 -38.207611 -8.848400 0.056930
-100.558594 -38.207611 -8.848400 0.045572
-87.075287 -38.207611 -8.848400 0.012192
-73.591980 -38.207611 -8.848400 -0.027427
-60.108704 -38.207611 -8.848400 -0.059790
-46.625397 -38.207611 -8.848400 -0.084922
-33.142090 -38.207611 -8.848400 0.000000
-19.658783 -38.207611 -8.848400 0.000000
-6.175476 -38.207611 -8.848400 -0.209004
7.307800 -38.207611 -8.848400 -0.239378
20.791107 -38.207611 -8.848400 -0.249778
34.274414 -38.207611 -8.848400 0.000000
47.757721 -38.207611 -8.848400 0.000000
61.240997 -38.207611 -8.848400 0.000000
74.724304 -38.207611 -8.848400 0.000000
88.207611 -38.207611 -8.848400 0.000000
101.690918 -38.207611 -8.848400 0.000000
115.174225 -38.207611 -8.848400 0.000000
128.657501 -38.207611 -8.848400 0.000000
142.140808 -38.207611 -8.848400 0.000000
155.624115 -38.207611 -8.848400 0.000000
169.107422 -38.207611 -8.848400 0.000000
182.590698 -38.207611 -8.848400 0.000000
196.074036 -38.207611 -8.848400 0.000000
209.557312 -38.207611 -8.848400 0.000000
223.040588 -38.207611 -8.848400 0.000000
236.523926 -38.207611 -8.848400 0.000000
250.007202 -38.207611 -8.848400 0.000000
263.490540 -38.207611 -8.848400 0.000000
276.973816 -38.207611 -8.848400 0.000000
290.457092 -38.207611 -8.848400 0.000000
303.940430 -38.207611 -8.848400 0.000000
317.423706 -38.207611 -8.848400 0.000000
330.907043 -38.207611 -8.848400 0.000000
344.390320 -38.207611 -8.848400 0.000000
-343.257996 -51.690918 -8.848400 0.000000
-329.774689 -51.690918 -8.848400 0.000000
-316.291382 -51.690918 -8.848400 0.000000
-302.808105 -51.690918 -8.848400 0.000000
-289.324799 -51.690918 -8.848400 0.000000
-275.841492 -51.690918 -8.848400 0.000000
-262.358185 -51.690918 -8.848400 0.000000
-248.874893 -51.690918 -8.848400 0.000000
-235.391602 -51.690918 -8.848400 0.000000
-221.908295 -51.690918 -8.848400 0.000000
-208.424988 -51.690918 -8.848400 0.000000
-194.941696 -51.690918 -8.848400 0.000000
-181.458389 -51.690918 -8.848400 0.000000
-167.975098 -51.690918 -8.848400 0.000000
-154.491791 -51.690918 -8.848400 0.177053
-141.008499 -51.690918 -8.848400 0.121565
-127.525192 -51.690918 -8.848400 0.000000
-114.041885 -51.690918 -8.848400 0.065096
-100.558594 -51.690918 -8.848400 0.022258
-87.075287 -51.690918 -8.848400 0.000000
-73.591980 -51.690918 -8.848400 -0.031808
-60.108704 -51.690918 -8.848400 -0.065672
-46.625397 -51.690918 -8.848400 -0.095548
-33.142090 -51.690918 -8.848400 -0.129316
-19.658783 -51.690918 -8.848400 -0.196712
-6.175476 -51.690918 -8.848400 -0.218914
7.307800 -51.690918 -8.848400 -0.237255
20.791107 -51.690918 -8.848400 -0.216361
34.274414 -51.690918 -8.848400 0.000000
47.757721 -51.690918 -8.848400 0.000000
61.240997 -51.690918 -8.848400 0.000000
74.724304 -51.690918 -8.848400 0.000000
88.207611 -51.690918 -8.848400 0.000000
101.690918 -51.690918 -8.848400 0.000000
115.174225 -51.690918 -8.848400 0.000000
128.657501 -51.690918 -8.848400 0.000000
142.140808 -51.690918 -8.848400 0.000000
155.624115 -51.690918 -8.848400 0.000000
169.107422 -51.690918 -8.848400 0.000000
182.590698 -51.690918 -8.848400 0.000000
196.074036 -51.690918 -8.848400 0.000000
209.557312 -51.690918 -8.848400 0.000000
223.040588 -51.690918 -8.848400 0.000000
236.523926 -51.690918 -8.848400 0.000000
250.007202 -51.690918 -8.848400 0.000000
263.490540 -51.690918 -8.848400 0.000000
276.973816 -51.690918 -8.848400 0.000000
290.457092 -51.690918 -8.848400 0.000000
303.940430 -51.690918 -8.848400 0.000000
317.423706 -51.690918 -8.848400 0.000000
330.907043 -51.690918 -8.848400 0.000000
344.390320 -51.690918 -8.848400 0.000000
-343.257996 -65.174225 -8.848400 0.000000
-329.774689 -65.174225 -8.848400 0.000000
-316.291382 -65.174225 -8.848400 0.000000
-302.808105 -65.174225 -8.848400 0.000000
-289.324799 -65.174225 -8.848400 0.000000
-275.841492 -65.174225 -8.848400 0.000000
-262.358185 -65.174225 -8.848400 0.000000
-248.874893 -65.174225 -8.848400 0.000000
-235.391602 -65.174225 -8.848400 0.000000
-221.908295 -65.174225 -8.848400 0.000000
-208.424988 -65.174225 -8.848400 0.000000
-194.941696 -65.174225 -8.848400 0.000000
-181.458389 -65.174225 -8.848400 0.000000
-167.975098 -65.174225 -8.848400 0.000000
-154.491791 -65.174225 -8.848400 0.140950
-141.008499 -65.174225 -8.848400 0.113228
-127.525192 -65.174225 -8.848400 0.058074
-114.041885 -65.174225 -8.848400 0.051826
-100.558594 -65.174225 -8.848400 0.017943
-87.075287 -65.174225 -8.848400 -0.052403
-73.591980 -65.174225 -8.848400 -0.070135
-60.108704 -65.174225 -8.848400 -0.084070
-46.625397 -65.174225 -8.848400 -0.122795
-33.142090 -65.174225 -8.848400 -0.156440
-19.658783 -65.174225 -8.848400 -0.199889
-6.175476 -65.174225 -8.848400 -0.203530
7.307800 -65.174225 -8.848400 -0.220619
20.791107 -65.174225 -8.848400 -0.195871
34.274414 -65.174225 -8.848400 0.000000
47.757721 -65.174225 -8.848400 0.000000
61.240997 -65.174225 -8.848400 0.000000
74.724304 -65.174225 -8.848400 0.000000
88.207611 -65.174225 -8.848400 0.000000
101.690918 -65.174225 -8.848400 0.000000
115.174225 -65.174225 -8.848400 0.000000
128.657501 -65.174225 -8.848400 0.000000
142.140808 -65.174225 -8.848400 0.000000
155.624115 -65.174225 -8.848400 0.000000
169.107422 -65.174225 -8.848400 0.000000
182.590698 -65.174225 -8.848400 0.000000
196.074036 -65.174225 -8.848400 0.000000
209.557312 -65.174225 -8.848400 0.000000
223.040588 -65.174225 -8.848400 0.000000
236.523926 -65.174225 -8.848400 0.000000
250.007202 -65.174225 -8.848400 0.000000
263.490540 -65.174225 -8.848400 0.000000
276.973816 -65.174225 -8.848400 0.000000
290.457092 -65.174225 -8.848400 0.000000
303.940430 -65.174225 -8.848400 0.000000
317.423706 -65.174225 -8.848400 0.000000
330.907043 -65.174225 -8.848400 0.000000
344.390320 -65.174225 -8.848400 0.000000
-343.257996 -78.657501 -8.848400 0.000000
-329.774689 -78.657501 -8.848400 0.000000
-316.291382 -78.657501 -8.848400 0.000000
-302.808105 -78.657501 -8.848400 0.000000
-289.324799 -78.657501 -8.848400 0.000000
-275.841492 -78.657501 -8.848400 0.000000
-262.358185 -78.657501 -8.848400 0.000000
-248.874893 -78.657501 -8.848400 0.000000
-235.391602 -78.657501 -8.848400 0.000000
-221.908295 -78.657501 -8.848400 0.000000
-208.424988 -78.657501 -8.848400 0.000000
-194.941696 -78.657501 -8.848400 0.000000
-181.458389 -78.657501 -8.848400 0.000000
-167.975098 -78.657501 -8.848400 0.000000
-154.491791 -78.657501 -8.848400 0.000000
-141.008499 -78.657501 -8.848400 0.116595
-127.525192 -78.657501 -8.848400 0.000000
-114.041885 -78.657501 -8.848400 0.000000
-100.558594 -78.657501 -8.848400 -0.017176
-87.075287 -78.657501 -8.848400 -0.045146
-73.591980 -78.657501 -8.848400 -0.060518
-60.108704 -78.657501 -8.848400 -0.095923
-46.625397 -78.657501 -8.848400 -0.108386
-33.142090 -78.657501 -8.848400 -0.150917
-19.658783 -78.657501 -8.848400 -0.162291
-6.175476 -78.657501 -8.848400 -0.154800
7.307800 -78.657501 -8.848400 -0.163699
20.791107 -78.657501 -8.848400 0.000000
34.274414 -78.657501 -8.848400 0.000000
47.757721 -78.657501 -8.848400 0.000000
61.240997 -78.657501 -8.848400 0.000000
74.724304 -78.657501 -8.848400 0.000000
88.207611 -78.657501 -8.848400 0.000000
101.690918 -78.657501 -8.848400 0.000000
115.174225 -78.657501 -8.848400 0.000000
128.657501 -78.657501 -8.848400 0.000000
142.140808 -78.657501 -8.848400 0.000000
155.624115 -78.657501 -8.848400 0.000000
169.107422 -78.657501 -8.848400 0.000000
182.590698 -78.657501 -8.848400 0.000000
196.074036 -78.657501 -8.848400 0.000000
209.557312 -78.657501 -8.848400 0.000000
223.040588 -78.657501 -8.848400 0.000000
236.523926 -78.657501 -8.848400 0.000000
250.007202 -78.657501 -8.848400 0.000000
263.490540 -78.657501 -8.848400 0.000000
276.973816 -78.657501 -8.848400 0.000000
290.457092 -78.657501 -8.848400 0.000000
303.940430 -78.657501 -8.848400 0.000000
317.423706 -78.657501 -8.848400 0.000000
330.907043 -78.657501 -8.848400 0.000000
344.390320 -78.657501 -8.848400 0.000000
-343.257996 -92.140808 -8.848400 0.000000
-329.774689 -92.140808 -8.848400 0.000000
-316.291382 -92.140808 -8.848400 0.000000
-302.808105 -92.140808 -8.848400 0.000000
-289.324799 -92.140808 -8.848400 0.000000
-275.841492 -92.140808 -8.848400 0.000000
-262.358185 -92.140808 -8.848400 0.000000
-248.874893 -92.140808 -8.848400 0.000000
-235.391602 -92.140808 -8.848400 0.000000
-221.908295 -92.140808 -8.848400 0.000000
-208.424988 -92.140808 -8.848400 0.000000
-194.941696 -92.140808 -8.848400 0.000000
-181.458389 -92.140808 -8.848400 0.000000
-167.975098 -92.140808 -8.848400 0.000000
-154.491791 -92.140808 -8.848400 0.000000
-141.008499 -92.140808 -8.848400 0.000000
-127.525192 -92.140808 -8.848400 0.000000
-114.041885 -92.140808 -8.848400 0.000000
-100.558594 -92.140808 -8.848400 0.000000
-87.075287 -92.140808 -8.848400 -0.034704
-73.591980 -92.140808 -8.848400 0.000000
-60.108704 -92.140808 -8.848400 0.000000
-46.625397 -92.140808 -8.848400 0.000000
-33.142090 -92.140808 -8.848400 -0.125754
-19.658783 -92.140808 -8.848400 -0.128663
-6.175476 -92.140808 -8.848400 0.000000
7.307800 -92.140808 -8.848400 0.000000
20.791107 -92.140808 -8.848400 0.000000
34.274414 -92.140808 -8.848400 0.000000
47.757721 -92.140808 -8.848400 0.000000
61.240997 -92.140808 -8.848400 0.000000
74.724304 -92.140808 -8.848400 0.000000
88.207611 -92.140808 -8.848400 0.000000
101.690918 -92.140808 -8.848400 0.000000
115.174225 -92.140808 -8.848400 0.000000
128.657501 -92.140808 -8.848400 0.000000
142.140808 -92.140808 -8.848400 0.000000
155.624115 -92.140808 -8.848400 0.000000
169.107422 -92.140808 -8.848400 0.000000
182.590698 -92.140808 -8.848400 0.000000
196.074036 -92.140808 -8.848400 0.000000
209.557312 -92.140808 -8.848400 0.000000
223.040588 -92.140808 -8.848400 0.000000
236.523926 -92.140808 -8.848400 0.000000
250.007202 -92.140808 -8.848400 0.000000
263.490540 -92.140808 -8.848400 0.000000
276.973816 -92.140808 -8.848400 0.000000
290.457092 -92.140808 -8.848400 0.000000
303.940430 -92.140808 -8.848400 0.000000
317.423706 -92.140808 -8.848400 0.000000
330.907043 -92.140808 -8.848400 0.000000
344.390320 -92.140808 -8.848400 0.000000
-343.257996 -105.624115 -8.848400 0.000000
-329.774689 -105.624115 -8.848400 0.000000
-316.291382 -105.624115 -8.848400 0.000000
-302.808105 -105.624115 -8.848400 0.000000
-289.324799 -105.624115 -8.848400 0.000000
-275.841492 -105.624115 -8.848400 0.000000
-262.358185 -105.624115 -8.848400 0.000000
-248.874893 -105.624115 -8.848400 0.000000
-235.391602 -105.624115 -8.848400 0.000000
-221.908295 -105.624115 -8.848400 0.000000
-208.424988 -105.624115 -8.848400 0.000000
-194.941696 -105.624115 -8.848400 0.000000
-181.458389 -105.624115 -8.848400 0.000000
-167.975098 -105.624115 -8.848400 0.000000
-154.491791 -105.624115 -8.848400 0.000000
-141.008499 -105.624115 -8.848400 0.000000
-127.525192 -105.624115 -8.848400 0.000000
-114.041885 -105.624115 -8.848400 0.000000
-100.558594 -105.624115 -8.848400 0.000000
-87.075287 -105.624115 -8.848400 0.000000
-73.591980 -105.624115 -8.848400 0.000000
-60.108704 -105.624115 -8.848400 0.000000
-46.625397 -105.624115 -8.848400 0.000000
-33.142090 -105.624115 -8.848400 0.000000
-19.658783 -105.624115 -8.848400 0.000000
-6.175476 -105.624115 -8.848400 0.000000
7.307800 -105.624115 -8.848400 0.000000
20.791107 -105.624115 -8.848400 0.000000
34.274414 -105.624115 -8.848400 0.000000
47.757721 -105.624115 -8.848400 0.000000
61.240997 -105.624115 -8.848400 0.000000
74.724304 -105.624115 -8.848400 0.000000
88.207611 -105.624115 -8.848400 0.000000
101.690918 -105.624115 -8.848400 0.000000
115.174225 -105.624115 -8.848400 0.000000
128.657501 -105.624115 -8.848400 0.000000
142.140808 -105.624115 -8.848400 0.000000
155.624115 -105.624115 -8.848400 0.000000
169.107422 -105.624115 -8.848400 0.000000
182.590698 -105.624115 -8.848400 0.000000
196.074036 -105.624115 -8.848400 0.000000
209.557312 -105.624115 -8.848400 0.000000
223.040588 -105.624115 -8.848400 0.000000
236.523926 -105.624115 -8.848400 0.000000
250.007202 -105.624115 -8.848400 0.000000
263.490540 -105.624115 -8.848400 0.000000
276.973816 -105.624115 -8.848400 0.000000
290.457092 -105.624115 -8.848400 0.000000
303.940430 -105.624115 -8.848400 0.000000
317.423706 -105.624115 -8.848400 0.000000
330.907043 -105.624115 -8.848400 0.000000
344.390320 -105.624115 -8.848400 0.000000
-343.257996 -119.107422 -8.848400 0.000000
-329.774689 -119.107422 -8.848400 0.000000
-316.291382 -119.107422 -8.848400 0.000000
-302.808105 -119.107422 -8.848400 0.000000
-289.324799 -119.107422 -8.848400 0.000000
-275.841492 -119.107422 -8.848400 0.000000
-262.358185 -119.107422 -8.848400 0.000000
-248.874893 -119.107422 -8.848400 0.000000
-235.391602 -119.107422 -8.848400 0.000000
-221.908295 -119.107422 -8.848400 0.000000
-208.424988 -119.107422 -8.848400 0.000000
-194.941696 -119.107422 -8.848400 0.000000
-181.458389 -119.107422 -8.848400 0.000000
-167.975098 -119.107422 -8.848400 0.000000
-154.491791 -119.107422 -8.848400 0.000000
-141.008499 -119.107422 -8.848400 0.000000
-127.525192 -119.107422 -8.848400 0.000000
-114.041885 -119.107422 -8.848400 0.000000
-100.558594 -119.107422 -8.848400 0.000000
-87.075287 -119.107422 -8.848400 0.000000
-73.591980 -119.107422 -8.848400 0.000000
-60.108704 -119.107422 -8.848400 0.000000
-46.625397 -119.107422 -8.848400 0.000000
-33.142090 -119.107422 -8.848400 0.000000
-19.658783 -119.107422 -8.848400 0.000000
-6.175476 -119.107422 -8.848400 0.000000
7.307800 -119.107422 -8.848400 0.000000
20.791107 -119.107422 -8.848400 0.000000
34.274414 -119.107422 -8.848400 0.000000
47.757721 -119.107422 -8.848400 0.000000
61.240997 -119.107422 -8.848400 0.000000
74.724304 -119.107422 -8.848400 0.000000
88.207611 -119.107422 -8.848400 0.000000
101.690918 -119.107422 -8.848400 0.000000
115.174225 -119.107422 -8.848400 0.000000
128.657501 -119.107422 -8.848400 0.000000
142.140808 -119.107422 -8.848400 0.000000
155.624115 -119.107422 -8.848400 0.000000
169.107422 -119.107422 -8.848400 0.000000
182.590698 -119.107422 -8.848400 0.000000
196.074036 -119.107422 -8.848400 0.000000
209.557312 -119.107422 -8.848400 0.000000
223.040588 -119.107422 -8.848400 0.000000
236.523926 -119.107422 -8.848400 0.000000
250.007202 -119.107422 -8.848400 0.000000
263.490540 -119.107422 -8.848400 0.000000
276.973816 -119.107422 -8.848400 0.000000
290.457092 -119.107422 -8.848400 0.000000
303.940430 -119.107422 -8.848400 0.000000
317.423706 -119.107422 -8.848400 0.000000
330.907043 -119.107422 -8.848400 0.000000
344.390320 -119.107422 -8.848400 0.000000
-343.257996 -132.590698 -8.848400 0.000000
-329.774689 -132.590698 -8.848400 0.000000
-316.291382 -132.590698 -8.848400 0.000000
-302.808105 -132.590698 -8.848400 0.000000
-289.324799 -132.590698 -8.848400 0.000000
-275.841492 -132.590698 -8.848400 0.000000
-262.358185 -132.590698 -8.848400 0.000000
-248.874893 -132.590698 -8.848400 0.000000
-235.391602 -132.590698 -8.848400 0.000000
-221.908295 -132.590698 -8.848400 0.000000
-208.424988 -132.590698 -8.848400 0.000000
-194.941696 -132.590698 -8.848400 0.000000
-181.458389 -132.590698 -8.848400 0.000000
-167.975098 -132.590698 -8.848400 0.000000
-154.491791 -132.590698 -8.848400 0.000000
-141.008499 -132.590698 -8.848400 0.000000
-127.525192 -132.590698 -8.848400 0.000000
-114.041885 -132.590698 -8.848400 0.000000
-100.558594 -132.590698 -8.848400 0.000000
-87.075287 -132.590698 -8.848400 0.000000
-73.591980 -132.590698 -8.848400 0.000000
-60.108704 -132.590698 -8.848400 0.000000
-46.625397 -132.590698 -8.848400 0.000000
-33.142090 -132.590698 -8.848400 0.000000
-19.658783 -132.590698 -8.848400 0.000000
-6.175476 -132.590698 -8.848400 0.000000
7.307800 -132.590698 -8.848400 0.000000
20.791107 -132.590698 -8.848400 0.000000
34.274414 -132.590698 -8.848400 0.000000
47.757721 -132.590698 -8.848400 0.000000
61.240997 -132.590698 -8.848400 0.000000
74.724304 -132.590698 -8.848400 0.000000
88.207611 -132.590698 -8.848400 0.000000
101.690918 -132.590698 -8.848400 0.000000
115.174225 -132.590698 -8.848400 0.000000
128.657501 -132.590698 -8.848400 0.000000
142.140808 -132.590698 -8.848400 0.000000
155.624115 -132.590698 -8.848400 0.000000
169.107422 -132.590698 -8.848400 0.000000
182.590698 -132.590698 -8.848400 0.000000
196.074036 -132.590698 -8.848400 0.000000
209.557312 -132.590698 -8.848400 0.000000
223.040588 -132.590698 -8.848400 0.000000
236.523926 -132.590698 -8.848400 0.000000
250.007202 -132.590698 -8.848400 0.000000
263.490540 -132.590698 -8.848400 0.000000
276.973816 -132.590698 -8.848400 0.000000
290.457092 -132.590698 -8.848400 0.000000
303.940430 -132.590698 -8.848400 0.000000
317.423706 -132.590698 -8.848400 0.000000
330.907043 -132.590698 -8.848400 0.000000
344.390320 -132.590698 -8.848400 0.000000
-343.257996 -146.074036 -8.848400 0.000000
-329.774689 -146.074036 -8.848400 0.000000
-316.291382 -146.074036 -8.848400 0.000000
-302.808105 -146.074036 -8.848400 0.000000
-289.324799 -146.074036 -8.848400 0.000000
-275.841492 -146.074036 -8.848400 0.000000
-262.358185 -146.074036 -8.848400 0.000000
-248.874893 -146.074036 -8.848400 0.000000
-235.391602 -146.074036 -8.848400 0.000000
-221.908295 -146.074036 -8.848400 0.000000
-208.424988 -146.074036 -8.848400 0.000000
-194.941696 -146.074036 -8.848400 0.000000
-181.458389 -146.074036 -8.848400 0.000000
-167.975098 -146.074036 -8.848400 0.000000
-154.491791 -146.074036 -8.848400 0.000000
-141.008499 -146.074036 -8.848400 0.000000
-127.525192 -146.074036 -8.848400 0.000000
-114.041885 -146.074036 -8.848400 0.000000
-100.558594 -146.074036 -8.848400 0.000000
-87.075287 -146.074036 -8.848400 0.000000
-73.591980 -146.074036 -8.848400 0.000000
-60.108704 -146.074036 -8.848400 0.000000
-46.625397 -146.074036 -8.848400 0.000000
-33.142090 -146.074036 -8.848400 0.000000
-19.658783 -146.074036 -8.848400 0.000000
-6.175476 -146.074036 -8.848400 0.000000
7.307800 -146.074036 -8.848400 0.000000
20.791107 -146.074036 -8.848400 0.000000
34.274414 -146.074036 -8.848400 0.000000
47.757721 -146.074036 -8.848400 0.000000
61.240997 -146.074036 -8.848400 0.000000
74.724304 -146.074036 -8.848400 0.000000
88.207611 -146.074036 -8.848400 0.000000
101.690918 -146.074036 -8.848400 0.000000
115.174225 -146.074036 -8.848400 0.000000
128.657501 -146.074036 -8.848400 0.000000
142.140808 -146.074036 -8.848400 0.000000
155.624115 -146.074036 -8.848400 0.000000
169.107422 -146.074036 -8.848400 0.000000
182.590698 -146.074036 -8.848400 0.000000
196.074036 -146.074036 -8.848400 0.000000
209.557312 -146.074036 -8.848400 0.000000
223.040588 -146.074036 -8.848400 0.000000
236.523926 -146.074036 -8.848400 0.000000
250.007202 -146.074036 -8.848400 0.000000
263.490540 -146.074036 -8.848400 0.000000
276.973816 -146.074036 -8.848400 0.000000
290.457092 -146.074036 -8.848400 0.000000
303.940430 -146.074036 -8.848400 0.000000
317.423706 -146.074036 -8.848400 0.000000
330.907043 -146.074036 -8.848400 0.000000
344.390320 -146.074036 -8.848400 0.000000
-343.257996 -159.557312 -8.848400 0.000000
-329.774689 -159.557312 -8.848400 0.000000
-316.291382 -159.557312 -8.848400 0.000000
-302.808105 -159.557312 -8.848400 0.000000
-289.324799 -159.557312 -8.848400 0.000000
-275.841492 -159.557312 -8.848400 0.000000
-262.358185 -159.557312 -8.848400 0.000000
-248.874893 -159.557312 -8.848400 0.000000
-235.391602 -159.557312 -8.848400 0.000000
-221.908295 -159.557312 -8.848400 0.000000
-208.424988 -159.557312 -8.848400 0.000000
-194.941696 -159.557312 -8.848400 0.000000
-181.458389 -159.557312 -8.848400 0.000000
-167.975098 -159.557312 -8.848400 0.000000
-154.491791 -159.557312 -8.848400 0.000000
-141.008499 -159.557312 -8.848400 0.000000
-127.525192 -159.557312 -8.848400 0.000000
-114.041885 -159.557312 -8.848400 0.000000
-100.558594 -159.557312 -8.848400 0.000000
-87.075287 -159.557312 -8.848400 0.000000
-73.591980 -159.557312 -8.848400 0.000000
-60.108704 -159.557312 -8.848400 0.000000
-46.625397 -159.557312 -8.848400 0.000000
-33.142090 -159.557312 -8.848400 0.000000
-19.658783 -159.557312 -8.848400 0.000000
-6.175476 -159.557312 -8.848400 0.000000
7.307800 -159.557312 -8.848400 0.000000
20.791107 -159.557312 -8.848400 0.000000
34.274414 -159.557312 -8.848400 0.000000
47.757721 -159.557312 -8.848400 0.000000
61.240997 -159.557312 -8.848400 0.000000
74.724304 -159.557312 -8.848400 0.000000
88.207611 -159.557312 -8.848400 0.000000
101.690918 -159.557312 -8.848400 0.000000
115.174225 -159.557312 -8.848400 0.000000
128.657501 -159.557312 -8.848400 0.000000
142.140808 -159.557312 -8.848400 0.000000
155.624115 -159.557312 -8.848400 0.000000
169.107422 -159.557312 -8.848400 0.000000
182.590698 -159.557312 -8.848400 0.000000
196.074036 -159.557312 -8.848400 0.000000
209.557312 -159.557312 -8.848400 0.000000
223.040588 -159.557312 -8.848400 0.000000
236.523926 -159.557312 -8.848400 0.000000
250.007202 -159.557312 -8.848400 0.000000
263.490540 -159.557312 -8.848400 0.000000
276.973816 -159.557312 -8.848400 0.000000
290.457092 -159.557312 -8.848400 0.000000
303.940430 -159.557312 -8.848400 0.000000
317.423706 -159.557312 -8.848400 0.000000
330.907043 -159.557312 -8.848400 0.000000
344.390320 -159.557312 -8.848400 0.000000
-343.257996 -173.040588 -8.848400 0.000000
-329.774689 -173.040588 -8.848400 0.000000
-316.291382 -173.040588 -8.848400 0.000000
-302.808105 -173.040588 -8.848400 0.000000
-289.324799 -173.040588 -8.848400 0.000000
-275.841492 -173.040588 -8.848400 0.000000
-262.358185 -173.040588 -8.848400 0.000000
-248.874893 -173.040588 -8.848400 0.000000
-235.391602 -173.040588 -8.848400 0.000000
-221.908295 -173.040588 -8.848400 0.000000
-208.424988 -173.040588 -8.848400 0.000000
-194.941696 -173.040588 -8.848400 0.000000
-181.458389 -173.040588 -8.848400 0.000000
-167.975098 -173.040588 -8.848400 0.000000
-154.491791 -173.040588 -8.848400 0.000000
-141.008499 -173.040588 -8.848400 0.000000
-127.525192 -173.040588 -8.848400 0.000000
-114.041885 -173.040588 -8.848400 0.000000
-100.558594 -173.040588 -8.848400 0.000000
-87.075287 -173.040588 -8.848400 0.000000
-73.591980 -173.040588 -8.848400 0.000000
-60.108704 -173.040588 -8.848400 0.000000
-46.625397 -173.040588 -8.848400 0.000000
-33.142090 -173.040588 -8.848400 0.000000
-19.658783 -173.040588 -8.848400 0.000000
-6.175476 -173.040588 -8.848400 0.000000
7.307800 -173.040588 -8.848400 0.000000
20.791107 -173.040588 -8.848400 0.000000
34.274414 -173.040588 -8.848400 0.000000
47.757721 -173.040588 -8.848400 0.000000
61.240997 -173.040588 -8.848400 0.000000
74.724304 -173.040588 -8.848400 0.000000
88.207611 -173.040588 -8.848400 0.000000
101.690918 -173.040588 -8.848400 0.000000
115.174225 -173.040588 -8.848400 0.000000
128.657501 -173.040588 -8.848400 0.000000
142.140808 -173.040588 -8.848400 0.000000
155.624115 -173.040588 -8.848400 0.000000
169.107422 -173.040588 -8.848400 0.000000
182.590698 -173.040588 -8.848400 0.000000
196.074036 -173.040588 -8.848400 0.000000
209.557312 -173.040588 -8.848400 0.000000
223.040588 -173.040588 -8.848400 0.000000
236.523926 -173.040588 -8.848400 0.000000
250.007202 -173.040588 -8.848400 0.000000
263.490540 -173.040588 -8.848400 0.000000
276.973816 -173.040588 -8.848400 0.000000
290.457092 -173.040588 -8.848400 0.000000
303.940430 -173.040588 -8.848400 0.000000
317.423706 -173.040588 -8.848400 0.000000
330.907043 -173.040588 -8.848400 0.000000
344.390320 -173.040588 -8.848400 0.000000
-343.257996 -186.523926 -8.848400 0.000000
-329.774689 -186.523926 -8.848400 0.000000
-316.291382 -186.523926 -8.848400 0.000000
-302.808105 -186.523926 -8.848400 0.000000
-289.324799 -186.523926 -8.848400 0.000000
-275.841492 -186.523926 -8.848400 0.000000
-262.358185 -186.523926 -8.848400 0.000000
-248.874893 -186.523926 -8.848400 0.000000
-235.391602 -186.523926 -8.848400 0.000000
-221.908295 -186.523926 -8.848400 0.000000
-208.424988 -186.523926 -8.848400 0.000000
-194.941696 -186.523926 -8.848400 0.000000
-181.458389 -186.523926 -8.848400 0.000000
-167.975098 -186.523926 -8.848400 0.000000
-154.491791 -186.523926 -8.848400 0.000000
-141.008499 -186.523926 -8.848400 0.000000
-127.525192 -186.523926 -8.848400 0.000000
-114.041885 -186.523926 -8.848400 0.000000
-100.558594 -186.523926 -8.848400 0.000000
-87.075287 -186.523926 -8.848400 0.000000
-73.591980 -186.523926 -8.848400 0.000000
-60.108704 -186.523926 -8.848400 0.000000
-46.625397 -186.523926 -8.848400 0.000000
-33.142090 -186.523926 -8.848400 0.000000
-19.658783 -186.523926 -8.848400 0.000000
-6.175476 -186.523926 -8.848400 0.000000
7.307800 -186.523926 -8.848400 0.000000
20.791107 -186.523926 -8.848400 0.000000
34.274414 -186.523926 -8.848400 0.000000
47.757721 -186.523926 -8.848400 0.000000
61.240997 -186.523926 -8.848400 0.000000
74.724304 -186.523926 -8.848400 0.000000
88.207611 -186.523926 -8.848400 0.000000
101.690918 -186.523926 -8.848400 0.000000
115.174225 -186.523926 -8.848400 0.000000
128.657501 -186.523926 -8.848400 0.000000
142.140808 -186.523926 -8.848400 0.000000
155.624115 -186.523926 -8.848400 0.000000
169.107422 -186.523926 -8.848400 0.000000
182.590698 -186.523926 -8.848400 0.000000
196.074036 -186.523926 -8.848400 0.000000
209.557312 -186.523926 -8.848400 0.000000
223.040588 -186.523926 -8.848400 0.000000
236.523926 -186.523926 -8.848400 0.000000
250.007202 -186.523926 -8.848400 0.000000
263.490540 -186.523926 -8.848400 0.000000
276.973816 -186.523926 -8.848400 0.000000
290.457092 -186.523926 -8.848400 0.000000
303.940430 -186.523926 -8.848400 0.000000
317.423706 -186.523926 -8.848400 0.000000
330.907043 -186.523926 -8.848400 0.000000
344.390320 -186.523926 -8.848400 0.000000
-343.257996 -200.007202 -8.848400 0.000000
-329.774689 -200.007202 -8.848400 0.000000
-316.291382 -200.007202 -8.848400 0.000000
-302.808105 -200.007202 -8.848400 0.000000
-289.324799 -200.007202 -8.848400 0.000000
-275.841492 -200.007202 -8.848400 0.000000
-262.358185 -200.007202 -8.848400 0.000000
-248.874893 -200.007202 -8.848400 0.000000
-235.391602 -200.007202 -8.848400 0.000000
-221.908295 -200.007202 -8.848400 0.000000
-208.424988 -200.007202 -8.848400 0.000000
-194.941696 -200.007202 -8.848400 0.000000
-181.458389 -200.007202 -8.848400 0.000000
-167.975098 -200.007202 -8.848400 0.000000
-154.491791 -200.007202 -8.848400 0.000000
-141.008499 -200.007202 -8.848400 0.000000
-127.525192 -200.007202 -8.848400 0.000000
-114.041885 -200.007202 -8.848400 0.000000
-100.558594 -200.007202 -8.848400 0.000000
-87.075287 -200.007202 -8.848400 0.000000
-73.591980 -200.007202 -8.848400 0.000000
-60.108704 -200.007202 -8.848400 0.000000
-46.625397 -200.007202 -8.848400 0.000000
-33.142090 -200.007202 -8.848400 0.000000
-19.658783 -200.007202 -8.848400 0.000000
-6.175476 -200.007202 -8.848400 0.000000
7.307800 -200.007202 -8.848400 0.000000
20.791107 -200.007202 -8.848400 0.000000
34.274414 -200.007202 -8.848400 0.000000
47.757721 -200.007202 -8.848400 0.000000
61.240997 -200.007202 -8.848400 0.000000
74.724304 -200.007202 -8.848400 0.000000
88.207611 -200.007202 -8.848400 0.000000
101.690918 -200.007202 -8.848400 0.000000
115.174225 -200.007202 -8.848400 0.000000
128.657501 -200.007202 -8.848400 0.000000
142.140808 -200.007202 -8.848400 0.000000
155.624115 -200.007202 -8.848400 0.000000
169.107422 -200.007202 -8.848400 0.000000
182.590698 -200.007202 -8.848400 0.000000
196.074036 -200.007202 -8.848400 0.000000
209.557312 -200.007202 -8.848400 0.000000
223.040588 -200.007202 -8.848400 0.000000
236.523926 -200.007202 -8.848400 0.000000
250.007202 -200.007202 -8.848400 0.000000
263.490540 -200.007202 -8.848400 0.000000
276.973816 -200.007202 -8.848400 0.000000
290.457092 -200.007202 -8.848400 0.000000
303.940430 -200.007202 -8.848400 0.000000
317.423706 -200.007202 -8.848400 0.000000
330.907043 -200.007202 -8.848400 0.000000
344.390320 -200.007202 -8.848400 0.000000
