TITLE = "B00005"
VARIABLES = "X", "Y", "Z", "Reynold stress YY"
ZONE T="Frame 1" I=52, J=45, K=4, F=POINT
-343.257996 393.257996 -49.298302 0.000000
-329.774689 393.257996 -49.298302 0.000000
-316.291382 393.257996 -49.298302 0.000000
-302.808105 393.257996 -49.298302 0.000000
-289.324799 393.257996 -49.298302 0.000000
-275.841492 393.257996 -49.298302 0.000000
-262.358185 393.257996 -49.298302 0.000000
-248.874893 393.257996 -49.298302 0.000000
-235.391602 393.257996 -49.298302 0.000000
-221.908295 393.257996 -49.298302 0.000000
-208.424988 393.257996 -49.298302 0.000000
-194.941696 393.257996 -49.298302 0.000000
-181.458389 393.257996 -49.298302 0.000000
-167.975098 393.257996 -49.298302 0.000000
-154.491791 393.257996 -49.298302 0.000000
-141.008499 393.257996 -49.298302 0.000000
-127.525192 393.257996 -49.298302 0.000000
-114.041885 393.257996 -49.298302 0.000000
-100.558594 393.257996 -49.298302 0.000000
-87.075287 393.257996 -49.298302 0.000000
-73.591980 393.257996 -49.298302 0.000000
-60.108704 393.257996 -49.298302 0.000000
-46.625397 393.257996 -49.298302 0.000000
-33.142090 393.257996 -49.298302 0.000000
-19.658783 393.257996 -49.298302 0.000000
-6.175476 393.257996 -49.298302 0.000000
7.307800 393.257996 -49.298302 0.000000
20.791107 393.257996 -49.298302 0.000000
34.274414 393.257996 -49.298302 0.000000
47.757721 393.257996 -49.298302 0.000000
61.240997 393.257996 -49.298302 0.000000
74.724304 393.257996 -49.298302 0.000000
88.207611 393.257996 -49.298302 0.000000
101.690918 393.257996 -49.298302 0.000000
115.174225 393.257996 -49.298302 0.000000
128.657501 393.257996 -49.298302 0.000000
142.140808 393.257996 -49.298302 0.000000
155.624115 393.257996 -49.298302 0.000000
169.107422 393.257996 -49.298302 0.000000
182.590698 393.257996 -49.298302 0.000000
196.074036 393.257996 -49.298302 0.000000
209.557312 393.257996 -49.298302 0.000000
223.040588 393.257996 -49.298302 0.000000
236.523926 393.257996 -49.298302 0.000000
250.007202 393.257996 -49.298302 0.000000
263.490540 393.257996 -49.298302 0.000000
276.973816 393.257996 -49.298302 0.000000
290.457092 393.257996 -49.298302 0.000000
303.940430 393.257996 -49.298302 0.000000
317.423706 393.257996 -49.298302 0.000000
330.907043 393.257996 -49.298302 0.000000
344.390320 393.257996 -49.298302 0.000000
-343.257996 379.774689 -49.298302 0.000000
-329.774689 379.774689 -49.298302 0.000000
-316.291382 379.774689 -49.298302 0.000000
-302.808105 379.774689 -49.298302 0.000000
-289.324799 379.774689 -49.298302 0.000000
-275.841492 379.774689 -49.298302 0.000000
-262.358185 379.774689 -49.298302 0.000000
-248.874893 379.774689 -49.298302 0.000000
-235.391602 379.774689 -49.298302 0.000000
-221.908295 379.774689 -49.298302 0.000000
-208.424988 379.774689 -49.298302 0.000000
-194.941696 379.774689 -49.298302 0.000000
-181.458389 379.774689 -49.298302 0.000000
-167.975098 379.774689 -49.298302 0.000000
-154.491791 379.774689 -49.298302 0.000000
-141.008499 379.774689 -49.298302 0.000000
-127.525192 379.774689 -49.298302 0.000000
-114.041885 379.774689 -49.298302 0.000000
-100.558594 379.774689 -49.298302 0.000000
-87.075287 379.774689 -49.298302 0.000000
-73.591980 379.774689 -49.298302 0.000000
-60.108704 379.774689 -49.298302 0.000000
-46.625397 379.774689 -49.298302 0.000000
-33.142090 379.774689 -49.298302 0.000000
-19.658783 379.774689 -49.298302 0.000000
-6.175476 379.774689 -49.298302 0.000000
7.307800 379.774689 -49.298302 0.000000
20.791107 379.774689 -49.298302 0.000000
34.274414 379.774689 -49.298302 0.000000
47.757721 379.774689 -49.298302 0.000000
61.240997 379.774689 -49.298302 0.000000
74.724304 379.774689 -49.298302 0.000000
88.207611 379.774689 -49.298302 0.000000
101.690918 379.774689 -49.298302 0.000000
115.174225 379.774689 -49.298302 0.000000
128.657501 379.774689 -49.298302 0.000000
142.140808 379.774689 -49.298302 0.000000
155.624115 379.774689 -49.298302 0.000000
169.107422 379.774689 -49.298302 0.000000
182.590698 379.774689 -49.298302 0.000000
196.074036 379.774689 -49.298302 0.000000
209.557312 379.774689 -49.298302 0.000000
223.040588 379.774689 -49.298302 0.000000
236.523926 379.774689 -49.298302 0.000000
250.007202 379.774689 -49.298302 0.000000
263.490540 379.774689 -49.298302 0.000000
276.973816 379.774689 -49.298302 0.000000
290.457092 379.774689 -49.298302 0.000000
303.940430 379.774689 -49.298302 0.000000
317.423706 379.774689 -49.298302 0.000000
330.907043 379.774689 -49.298302 0.000000
344.390320 379.774689 -49.298302 0.000000
-343.257996 366.291382 -49.298302 0.000000
-329.774689 366.291382 -49.298302 0.000000
-316.291382 366.291382 -49.298302 0.000000
-302.808105 366.291382 -49.298302 0.000000
-289.324799 366.291382 -49.298302 0.000000
-275.841492 366.291382 -49.298302 0.000000
-262.358185 366.291382 -49.298302 0.000000
-248.874893 366.291382 -49.298302 0.000000
-235.391602 366.291382 -49.298302 0.000000
-221.908295 366.291382 -49.298302 0.000000
-208.424988 366.291382 -49.298302 0.000000
-194.941696 366.291382 -49.298302 0.000000
-181.458389 366.291382 -49.298302 0.000000
-167.975098 366.291382 -49.298302 0.000000
-154.491791 366.291382 -49.298302 0.000000
-141.008499 366.291382 -49.298302 0.000000
-127.525192 366.291382 -49.298302 0.000000
-114.041885 366.291382 -49.298302 0.000000
-100.558594 366.291382 -49.298302 0.000000
-87.075287 366.291382 -49.298302 0.000000
-73.591980 366.291382 -49.298302 0.000000
-60.108704 366.291382 -49.298302 0.000000
-46.625397 366.291382 -49.298302 0.000000
-33.142090 366.291382 -49.298302 0.000000
-19.658783 366.291382 -49.298302 0.000000
-6.175476 366.291382 -49.298302 0.000000
7.307800 366.291382 -49.298302 0.000000
20.791107 366.291382 -49.298302 0.000000
34.274414 366.291382 -49.298302 0.000000
47.757721 366.291382 -49.298302 0.000000
61.240997 366.291382 -49.298302 0.000000
74.724304 366.291382 -49.298302 0.000000
88.207611 366.291382 -49.298302 0.000000
101.690918 366.291382 -49.298302 0.000000
115.174225 366.291382 -49.298302 0.000000
128.657501 366.291382 -49.298302 0.000000
142.140808 366.291382 -49.298302 0.000000
155.624115 366.291382 -49.298302 0.000000
169.107422 366.291382 -49.298302 0.000000
182.590698 366.291382 -49.298302 0.000000
196.074036 366.291382 -49.298302 0.000000
209.557312 366.291382 -49.298302 0.000000
223.040588 366.291382 -49.298302 0.000000
236.523926 366.291382 -49.298302 0.000000
250.007202 366.291382 -49.298302 0.000000
263.490540 366.291382 -49.298302 0.000000
276.973816 366.291382 -49.298302 0.000000
290.457092 366.291382 -49.298302 0.000000
303.940430 366.291382 -49.298302 0.000000
317.423706 366.291382 -49.298302 0.000000
330.907043 366.291382 -49.298302 0.000000
344.390320 366.291382 -49.298302 0.000000
-343.257996 352.808105 -49.298302 0.000000
-329.774689 352.808105 -49.298302 0.000000
-316.291382 352.808105 -49.298302 0.000000
-302.808105 352.808105 -49.298302 0.000000
-289.324799 352.808105 -49.298302 0.027900
-275.841492 352.808105 -49.298302 0.030159
-262.358185 352.808105 -49.298302 0.037163
-248.874893 352.808105 -49.298302 0.041920
-235.391602 352.808105 -49.298302 0.058202
-221.908295 352.808105 -49.298302 0.077955
-208.424988 352.808105 -49.298302 0.102745
-194.941696 352.808105 -49.298302 0.125886
-181.458389 352.808105 -49.298302 0.146523
-167.975098 352.808105 -49.298302 0.000000
-154.491791 352.808105 -49.298302 0.000000
-141.008499 352.808105 -49.298302 0.000000
-127.525192 352.808105 -49.298302 0.000000
-114.041885 352.808105 -49.298302 0.000000
-100.558594 352.808105 -49.298302 0.000000
-87.075287 352.808105 -49.298302 0.000000
-73.591980 352.808105 -49.298302 0.000000
-60.108704 352.808105 -49.298302 0.000000
-46.625397 352.808105 -49.298302 0.000000
-33.142090 352.808105 -49.298302 0.000000
-19.658783 352.808105 -49.298302 0.000000
-6.175476 352.808105 -49.298302 0.000000
7.307800 352.808105 -49.298302 0.000000
20.791107 352.808105 -49.298302 0.108599
34.274414 352.808105 -49.298302 0.090170
47.757721 352.808105 -49.298302 0.079554
61.240997 352.808105 -49.298302 0.071670
74.724304 352.808105 -49.298302 0.000000
88.207611 352.808105 -49.298302 0.000000
101.690918 352.808105 -49.298302 0.000000
115.174225 352.808105 -49.298302 0.000000
128.657501 352.808105 -49.298302 0.000000
142.140808 352.808105 -49.298302 0.000000
155.624115 352.808105 -49.298302 0.000000
169.107422 352.808105 -49.298302 0.000000
182.590698 352.808105 -49.298302 0.000000
196.074036 352.808105 -49.298302 0.000000
209.557312 352.808105 -49.298302 0.000000
223.040588 352.808105 -49.298302 0.000000
236.523926 352.808105 -49.298302 0.000000
250.007202 352.808105 -49.298302 0.000000
263.490540 352.808105 -49.298302 0.000000
276.973816 352.808105 -49.298302 0.000000
290.457092 352.808105 -49.298302 0.000000
303.940430 352.808105 -49.298302 0.000000
317.423706 352.808105 -49.298302 0.000000
330.907043 352.808105 -49.298302 0.000000
344.390320 352.808105 -49.298302 0.000000
-343.257996 339.324799 -49.298302 0.000000
-329.774689 339.324799 -49.298302 0.000000
-316.291382 339.324799 -49.298302 0.000000
-302.808105 339.324799 -49.298302 0.019714
-289.324799 339.324799 -49.298302 0.024557
-275.841492 339.324799 -49.298302 0.027383
-262.358185 339.324799 -49.298302 0.034369
-248.874893 339.324799 -49.298302 0.044437
-235.391602 339.324799 -49.298302 0.061399
-221.908295 339.324799 -49.298302 0.077650
-208.424988 339.324799 -49.298302 0.108380
-194.941696 339.324799 -49.298302 0.130297
-181.458389 339.324799 -49.298302 0.158769
-167.975098 339.324799 -49.298302 0.189197
-154.491791 339.324799 -49.298302 0.246218
-141.008499 339.324799 -49.298302 0.298027
-127.525192 339.324799 -49.298302 0.314854
-114.041885 339.324799 -49.298302 0.346220
-100.558594 339.324799 -49.298302 0.362247
-87.075287 339.324799 -49.298302 0.373313
-73.591980 339.324799 -49.298302 0.357322
-60.108704 339.324799 -49.298302 0.329937
-46.625397 339.324799 -49.298302 0.322721
-33.142090 339.324799 -49.298302 0.279410
-19.658783 339.324799 -49.298302 0.220208
-6.175476 339.324799 -49.298302 0.186806
7.307800 339.324799 -49.298302 0.142783
20.791107 339.324799 -49.298302 0.116877
34.274414 339.324799 -49.298302 0.097643
47.757721 339.324799 -49.298302 0.088822
61.240997 339.324799 -49.298302 0.085274
74.724304 339.324799 -49.298302 0.091991
88.207611 339.324799 -49.298302 0.111195
101.690918 339.324799 -49.298302 0.139801
115.174225 339.324799 -49.298302 0.182850
128.657501 339.324799 -49.298302 0.227083
142.140808 339.324799 -49.298302 0.256019
155.624115 339.324799 -49.298302 0.272258
169.107422 339.324799 -49.298302 0.273109
182.590698 339.324799 -49.298302 0.268083
196.074036 339.324799 -49.298302 0.261589
209.557312 339.324799 -49.298302 0.250121
223.040588 339.324799 -49.298302 0.231335
236.523926 339.324799 -49.298302 0.196053
250.007202 339.324799 -49.298302 0.165559
263.490540 339.324799 -49.298302 0.147432
276.973816 339.324799 -49.298302 0.000000
290.457092 339.324799 -49.298302 0.000000
303.940430 339.324799 -49.298302 0.000000
317.423706 339.324799 -49.298302 0.000000
330.907043 339.324799 -49.298302 0.000000
344.390320 339.324799 -49.298302 0.000000
-343.257996 325.841492 -49.298302 0.000000
-329.774689 325.841492 -49.298302 0.000000
-316.291382 325.841492 -49.298302 0.000000
-302.808105 325.841492 -49.298302 0.017397
-289.324799 325.841492 -49.298302 0.021706
-275.841492 325.841492 -49.298302 0.026922
-262.358185 325.841492 -49.298302 0.034051
-248.874893 325.841492 -49.298302 0.043344
-235.391602 325.841492 -49.298302 0.058257
-221.908295 325.841492 -49.298302 0.073053
-208.424988 325.841492 -49.298302 0.096526
-194.941696 325.841492 -49.298302 0.123171
-181.458389 325.841492 -49.298302 0.157943
-167.975098 325.841492 -49.298302 0.193140
-154.491791 325.841492 -49.298302 0.242161
-141.008499 325.841492 -49.298302 0.277285
-127.525192 325.841492 -49.298302 0.298653
-114.041885 325.841492 -49.298302 0.318616
-100.558594 325.841492 -49.298302 0.344294
-87.075287 325.841492 -49.298302 0.343403
-73.591980 325.841492 -49.298302 0.335365
-60.108704 325.841492 -49.298302 0.299123
-46.625397 325.841492 -49.298302 0.295021
-33.142090 325.841492 -49.298302 0.276060
-19.658783 325.841492 -49.298302 0.230104
-6.175476 325.841492 -49.298302 0.197723
7.307800 325.841492 -49.298302 0.159185
20.791107 325.841492 -49.298302 0.126717
34.274414 325.841492 -49.298302 0.109557
47.757721 325.841492 -49.298302 0.101914
61.240997 325.841492 -49.298302 0.100216
74.724304 325.841492 -49.298302 0.112365
88.207611 325.841492 -49.298302 0.142293
101.690918 325.841492 -49.298302 0.181289
115.174225 325.841492 -49.298302 0.238759
128.657501 325.841492 -49.298302 0.278125
142.140808 325.841492 -49.298302 0.291637
155.624115 325.841492 -49.298302 0.311374
169.107422 325.841492 -49.298302 0.300479
182.590698 325.841492 -49.298302 0.292635
196.074036 325.841492 -49.298302 0.277657
209.557312 325.841492 -49.298302 0.264587
223.040588 325.841492 -49.298302 0.230652
236.523926 325.841492 -49.298302 0.193458
250.007202 325.841492 -49.298302 0.164837
263.490540 325.841492 -49.298302 0.138915
276.973816 325.841492 -49.298302 0.117201
290.457092 325.841492 -49.298302 0.000000
303.940430 325.841492 -49.298302 0.000000
317.423706 325.841492 -49.298302 0.000000
330.907043 325.841492 -49.298302 0.000000
344.390320 325.841492 -49.298302 0.000000
-343.257996 312.358185 -49.298302 0.000000
-329.774689 312.358185 -49.298302 0.000000
-316.291382 312.358185 -49.298302 0.000000
-302.808105 312.358185 -49.298302 0.015878
-289.324799 312.358185 -49.298302 0.019815
-275.841492 312.358185 -49.298302 0.026092
-262.358185 312.358185 -49.298302 0.035333
-248.874893 312.358185 -49.298302 0.045094
-235.391602 312.358185 -49.298302 0.058455
-221.908295 312.358185 -49.298302 0.077854
-208.424988 312.358185 -49.298302 0.100224
-194.941696 312.358185 -49.298302 0.125750
-181.458389 312.358185 -49.298302 0.148681
-167.975098 312.358185 -49.298302 0.180719
-154.491791 312.358185 -49.298302 0.228687
-141.008499 312.358185 -49.298302 0.262497
-127.525192 312.358185 -49.298302 0.277836
-114.041885 312.358185 -49.298302 0.303044
-100.558594 312.358185 -49.298302 0.323586
-87.075287 312.358185 -49.298302 0.324307
-73.591980 312.358185 -49.298302 0.321676
-60.108704 312.358185 -49.298302 0.288239
-46.625397 312.358185 -49.298302 0.272166
-33.142090 312.358185 -49.298302 0.257128
-19.658783 312.358185 -49.298302 0.231941
-6.175476 312.358185 -49.298302 0.204832
7.307800 312.358185 -49.298302 0.168958
20.791107 312.358185 -49.298302 0.143184
34.274414 312.358185 -49.298302 0.119973
47.757721 312.358185 -49.298302 0.117368
61.240997 312.358185 -49.298302 0.122001
74.724304 312.358185 -49.298302 0.132933
88.207611 312.358185 -49.298302 0.171742
101.690918 312.358185 -49.298302 0.242560
115.174225 312.358185 -49.298302 0.304802
128.657501 312.358185 -49.298302 0.320735
142.140808 312.358185 -49.298302 0.337864
155.624115 312.358185 -49.298302 0.329325
169.107422 312.358185 -49.298302 0.311824
182.590698 312.358185 -49.298302 0.302678
196.074036 312.358185 -49.298302 0.296342
209.557312 312.358185 -49.298302 0.267236
223.040588 312.358185 -49.298302 0.234871
236.523926 312.358185 -49.298302 0.195340
250.007202 312.358185 -49.298302 0.156075
263.490540 312.358185 -49.298302 0.130007
276.973816 312.358185 -49.298302 0.108979
290.457092 312.358185 -49.298302 0.095708
303.940430 312.358185 -49.298302 0.000000
317.423706 312.358185 -49.298302 0.000000
330.907043 312.358185 -49.298302 0.000000
344.390320 312.358185 -49.298302 0.000000
-343.257996 298.874878 -49.298302 0.000000
-329.774689 298.874878 -49.298302 0.000000
-316.291382 298.874878 -49.298302 0.000000
-302.808105 298.874878 -49.298302 0.015361
-289.324799 298.874878 -49.298302 0.019279
-275.841492 298.874878 -49.298302 0.026034
-262.358185 298.874878 -49.298302 0.034262
-248.874893 298.874878 -49.298302 0.046145
-235.391602 298.874878 -49.298302 0.064898
-221.908295 298.874878 -49.298302 0.085117
-208.424988 298.874878 -49.298302 0.107537
-194.941696 298.874878 -49.298302 0.124650
-181.458389 298.874878 -49.298302 0.144812
-167.975098 298.874878 -49.298302 0.178573
-154.491791 298.874878 -49.298302 0.207770
-141.008499 298.874878 -49.298302 0.246277
-127.525192 298.874878 -49.298302 0.272153
-114.041885 298.874878 -49.298302 0.297289
-100.558594 298.874878 -49.298302 0.310367
-87.075287 298.874878 -49.298302 0.301715
-73.591980 298.874878 -49.298302 0.299860
-60.108704 298.874878 -49.298302 0.282261
-46.625397 298.874878 -49.298302 0.246798
-33.142090 298.874878 -49.298302 0.240089
-19.658783 298.874878 -49.298302 0.227620
-6.175476 298.874878 -49.298302 0.210646
7.307800 298.874878 -49.298302 0.188286
20.791107 298.874878 -49.298302 0.158807
34.274414 298.874878 -49.298302 0.134908
47.757721 298.874878 -49.298302 0.131670
61.240997 298.874878 -49.298302 0.141717
74.724304 298.874878 -49.298302 0.159529
88.207611 298.874878 -49.298302 0.220545
101.690918 298.874878 -49.298302 0.299096
115.174225 298.874878 -49.298302 0.341036
128.657501 298.874878 -49.298302 0.354587
142.140808 298.874878 -49.298302 0.354764
155.624115 298.874878 -49.298302 0.334138
169.107422 298.874878 -49.298302 0.299026
182.590698 298.874878 -49.298302 0.285221
196.074036 298.874878 -49.298302 0.275908
209.557312 298.874878 -49.298302 0.251483
223.040588 298.874878 -49.298302 0.231062
236.523926 298.874878 -49.298302 0.190503
250.007202 298.874878 -49.298302 0.147140
263.490540 298.874878 -49.298302 0.116134
276.973816 298.874878 -49.298302 0.096767
290.457092 298.874878 -49.298302 0.077303
303.940430 298.874878 -49.298302 0.000000
317.423706 298.874878 -49.298302 0.000000
330.907043 298.874878 -49.298302 0.000000
344.390320 298.874878 -49.298302 0.000000
-343.257996 285.391602 -49.298302 0.000000
-329.774689 285.391602 -49.298302 0.000000
-316.291382 285.391602 -49.298302 0.000000
-302.808105 285.391602 -49.298302 0.014777
-289.324799 285.391602 -49.298302 0.018440
-275.841492 285.391602 -49.298302 0.024488
-262.358185 285.391602 -49.298302 0.033480
-248.874893 285.391602 -49.298302 0.044807
-235.391602 285.391602 -49.298302 0.063962
-221.908295 285.391602 -49.298302 0.091526
-208.424988 285.391602 -49.298302 0.112156
-194.941696 285.391602 -49.298302 0.131354
-181.458389 285.391602 -49.298302 0.150773
-167.975098 285.391602 -49.298302 0.174686
-154.491791 285.391602 -49.298302 0.211268
-141.008499 285.391602 -49.298302 0.230295
-127.525192 285.391602 -49.298302 0.250193
-114.041885 285.391602 -49.298302 0.274092
-100.558594 285.391602 -49.298302 0.287530
-87.075287 285.391602 -49.298302 0.296210
-73.591980 285.391602 -49.298302 0.282295
-60.108704 285.391602 -49.298302 0.262536
-46.625397 285.391602 -49.298302 0.245416
-33.142090 285.391602 -49.298302 0.240602
-19.658783 285.391602 -49.298302 0.235013
-6.175476 285.391602 -49.298302 0.211123
7.307800 285.391602 -49.298302 0.204420
20.791107 285.391602 -49.298302 0.179237
34.274414 285.391602 -49.298302 0.161888
47.757721 285.391602 -49.298302 0.154268
61.240997 285.391602 -49.298302 0.174059
74.724304 285.391602 -49.298302 0.209298
88.207611 285.391602 -49.298302 0.285814
101.690918 285.391602 -49.298302 0.342778
115.174225 285.391602 -49.298302 0.365164
128.657501 285.391602 -49.298302 0.370986
142.140808 285.391602 -49.298302 0.357653
155.624115 285.391602 -49.298302 0.333252
169.107422 285.391602 -49.298302 0.296212
182.590698 285.391602 -49.298302 0.270267
196.074036 285.391602 -49.298302 0.251782
209.557312 285.391602 -49.298302 0.229039
223.040588 285.391602 -49.298302 0.217859
236.523926 285.391602 -49.298302 0.182137
250.007202 285.391602 -49.298302 0.134578
263.490540 285.391602 -49.298302 0.104402
276.973816 285.391602 -49.298302 0.084826
290.457092 285.391602 -49.298302 0.064086
303.940430 285.391602 -49.298302 0.000000
317.423706 285.391602 -49.298302 0.000000
330.907043 285.391602 -49.298302 0.000000
344.390320 285.391602 -49.298302 0.000000
-343.257996 271.908295 -49.298302 0.000000
-329.774689 271.908295 -49.298302 0.000000
-316.291382 271.908295 -49.298302 0.000000
-302.808105 271.908295 -49.298302 0.015337
-289.324799 271.908295 -49.298302 0.017986
-275.841492 271.908295 -49.298302 0.026145
-262.358185 271.908295 -49.298302 0.035645
-248.874893 271.908295 -49.298302 0.048407
-235.391602 271.908295 -49.298302 0.067648
-221.908295 271.908295 -49.298302 0.091784
-208.424988 271.908295 -49.298302 0.115238
-194.941696 271.908295 -49.298302 0.134632
-181.458389 271.908295 -49.298302 0.156684
-167.975098 271.908295 -49.298302 0.176734
-154.491791 271.908295 -49.298302 0.204362
-141.008499 271.908295 -49.298302 0.229761
-127.525192 271.908295 -49.298302 0.246598
-114.041885 271.908295 -49.298302 0.256452
-100.558594 271.908295 -49.298302 0.266441
-87.075287 271.908295 -49.298302 0.291974
-73.591980 271.908295 -49.298302 0.282244
-60.108704 271.908295 -49.298302 0.272567
-46.625397 271.908295 -49.298302 0.244376
-33.142090 271.908295 -49.298302 0.250871
-19.658783 271.908295 -49.298302 0.250308
-6.175476 271.908295 -49.298302 0.211090
7.307800 271.908295 -49.298302 0.197492
20.791107 271.908295 -49.298302 0.202914
34.274414 271.908295 -49.298302 0.193954
47.757721 271.908295 -49.298302 0.195515
61.240997 271.908295 -49.298302 0.000000
74.724304 271.908295 -49.298302 0.264409
88.207611 271.908295 -49.298302 0.314203
101.690918 271.908295 -49.298302 0.377898
115.174225 271.908295 -49.298302 0.401874
128.657501 271.908295 -49.298302 0.382289
142.140808 271.908295 -49.298302 0.358991
155.624115 271.908295 -49.298302 0.302704
169.107422 271.908295 -49.298302 0.288290
182.590698 271.908295 -49.298302 0.284996
196.074036 271.908295 -49.298302 0.232110
209.557312 271.908295 -49.298302 0.217223
223.040588 271.908295 -49.298302 0.200526
236.523926 271.908295 -49.298302 0.171084
250.007202 271.908295 -49.298302 0.126808
263.490540 271.908295 -49.298302 0.100896
276.973816 271.908295 -49.298302 0.073630
290.457092 271.908295 -49.298302 0.054570
303.940430 271.908295 -49.298302 0.000000
317.423706 271.908295 -49.298302 0.000000
330.907043 271.908295 -49.298302 0.000000
344.390320 271.908295 -49.298302 0.000000
-343.257996 258.424988 -49.298302 0.000000
-329.774689 258.424988 -49.298302 0.000000
-316.291382 258.424988 -49.298302 0.000000
-302.808105 258.424988 -49.298302 0.015284
-289.324799 258.424988 -49.298302 0.019308
-275.841492 258.424988 -49.298302 0.029391
-262.358185 258.424988 -49.298302 0.039564
-248.874893 258.424988 -49.298302 0.051381
-235.391602 258.424988 -49.298302 0.072490
-221.908295 258.424988 -49.298302 0.095235
-208.424988 258.424988 -49.298302 0.119410
-194.941696 258.424988 -49.298302 0.138827
-181.458389 258.424988 -49.298302 0.166611
-167.975098 258.424988 -49.298302 0.182437
-154.491791 258.424988 -49.298302 0.216545
-141.008499 258.424988 -49.298302 0.247508
-127.525192 258.424988 -49.298302 0.257657
-114.041885 258.424988 -49.298302 0.271466
-100.558594 258.424988 -49.298302 0.287411
-87.075287 258.424988 -49.298302 0.286533
-73.591980 258.424988 -49.298302 0.272844
-60.108704 258.424988 -49.298302 0.269277
-46.625397 258.424988 -49.298302 0.261980
-33.142090 258.424988 -49.298302 0.256231
-19.658783 258.424988 -49.298302 0.252646
-6.175476 258.424988 -49.298302 0.234222
7.307800 258.424988 -49.298302 0.221966
20.791107 258.424988 -49.298302 0.219469
34.274414 258.424988 -49.298302 0.223573
47.757721 258.424988 -49.298302 0.224573
61.240997 258.424988 -49.298302 0.000000
74.724304 258.424988 -49.298302 0.313110
88.207611 258.424988 -49.298302 0.361172
101.690918 258.424988 -49.298302 0.399901
115.174225 258.424988 -49.298302 0.385349
128.657501 258.424988 -49.298302 0.353799
142.140808 258.424988 -49.298302 0.315893
155.624115 258.424988 -49.298302 0.286483
169.107422 258.424988 -49.298302 0.287489
182.590698 258.424988 -49.298302 0.275499
196.074036 258.424988 -49.298302 0.234337
209.557312 258.424988 -49.298302 0.203270
223.040588 258.424988 -49.298302 0.184086
236.523926 258.424988 -49.298302 0.152917
250.007202 258.424988 -49.298302 0.120246
263.490540 258.424988 -49.298302 0.089799
276.973816 258.424988 -49.298302 0.062482
290.457092 258.424988 -49.298302 0.046330
303.940430 258.424988 -49.298302 0.034436
317.423706 258.424988 -49.298302 0.000000
330.907043 258.424988 -49.298302 0.000000
344.390320 258.424988 -49.298302 0.000000
-343.257996 244.941696 -49.298302 0.000000
-329.774689 244.941696 -49.298302 0.000000
-316.291382 244.941696 -49.298302 0.000000
-302.808105 244.941696 -49.298302 0.015803
-289.324799 244.941696 -49.298302 0.021317
-275.841492 244.941696 -49.298302 0.031675
-262.358185 244.941696 -49.298302 0.041522
-248.874893 244.941696 -49.298302 0.056294
-235.391602 244.941696 -49.298302 0.078103
-221.908295 244.941696 -49.298302 0.100110
-208.424988 244.941696 -49.298302 0.130511
-194.941696 244.941696 -49.298302 0.159340
-181.458389 244.941696 -49.298302 0.189517
-167.975098 244.941696 -49.298302 0.211173
-154.491791 244.941696 -49.298302 0.243713
-141.008499 244.941696 -49.298302 0.257944
-127.525192 244.941696 -49.298302 0.272947
-114.041885 244.941696 -49.298302 0.306509
-100.558594 244.941696 -49.298302 0.334023
-87.075287 244.941696 -49.298302 0.299347
-73.591980 244.941696 -49.298302 0.275052
-60.108704 244.941696 -49.298302 0.263951
-46.625397 244.941696 -49.298302 0.259616
-33.142090 244.941696 -49.298302 0.261734
-19.658783 244.941696 -49.298302 0.262689
-6.175476 244.941696 -49.298302 0.250615
7.307800 244.941696 -49.298302 0.246650
20.791107 244.941696 -49.298302 0.251095
34.274414 244.941696 -49.298302 0.253678
47.757721 244.941696 -49.298302 0.274822
61.240997 244.941696 -49.298302 0.308398
74.724304 244.941696 -49.298302 0.348544
88.207611 244.941696 -49.298302 0.423373
101.690918 244.941696 -49.298302 0.412496
115.174225 244.941696 -49.298302 0.000000
128.657501 244.941696 -49.298302 0.000000
142.140808 244.941696 -49.298302 0.000000
155.624115 244.941696 -49.298302 0.288392
169.107422 244.941696 -49.298302 0.276879
182.590698 244.941696 -49.298302 0.264367
196.074036 244.941696 -49.298302 0.221633
209.557312 244.941696 -49.298302 0.197259
223.040588 244.941696 -49.298302 0.169454
236.523926 244.941696 -49.298302 0.134886
250.007202 244.941696 -49.298302 0.114720
263.490540 244.941696 -49.298302 0.084559
276.973816 244.941696 -49.298302 0.062002
290.457092 244.941696 -49.298302 0.038909
303.940430 244.941696 -49.298302 0.025972
317.423706 244.941696 -49.298302 0.000000
330.907043 244.941696 -49.298302 0.000000
344.390320 244.941696 -49.298302 0.000000
-343.257996 231.458389 -49.298302 0.000000
-329.774689 231.458389 -49.298302 0.000000
-316.291382 231.458389 -49.298302 0.000000
-302.808105 231.458389 -49.298302 0.015818
-289.324799 231.458389 -49.298302 0.021955
-275.841492 231.458389 -49.298302 0.031708
-262.358185 231.458389 -49.298302 0.044905
-248.874893 231.458389 -49.298302 0.060403
-235.391602 231.458389 -49.298302 0.084035
-221.908295 231.458389 -49.298302 0.119332
-208.424988 231.458389 -49.298302 0.148358
-194.941696 231.458389 -49.298302 0.181809
-181.458389 231.458389 -49.298302 0.211090
-167.975098 231.458389 -49.298302 0.240562
-154.491791 231.458389 -49.298302 0.270494
-141.008499 231.458389 -49.298302 0.301814
-127.525192 231.458389 -49.298302 0.316241
-114.041885 231.458389 -49.298302 0.338723
-100.558594 231.458389 -49.298302 0.351703
-87.075287 231.458389 -49.298302 0.316081
-73.591980 231.458389 -49.298302 0.279325
-60.108704 231.458389 -49.298302 0.257433
-46.625397 231.458389 -49.298302 0.256029
-33.142090 231.458389 -49.298302 0.260936
-19.658783 231.458389 -49.298302 0.263581
-6.175476 231.458389 -49.298302 0.264383
7.307800 231.458389 -49.298302 0.272763
20.791107 231.458389 -49.298302 0.285653
34.274414 231.458389 -49.298302 0.294302
47.757721 231.458389 -49.298302 0.313558
61.240997 231.458389 -49.298302 0.349128
74.724304 231.458389 -49.298302 0.389609
88.207611 231.458389 -49.298302 0.426207
101.690918 231.458389 -49.298302 0.400076
115.174225 231.458389 -49.298302 0.000000
128.657501 231.458389 -49.298302 0.309686
142.140808 231.458389 -49.298302 0.272889
155.624115 231.458389 -49.298302 0.280317
169.107422 231.458389 -49.298302 0.260341
182.590698 231.458389 -49.298302 0.245183
196.074036 231.458389 -49.298302 0.203811
209.557312 231.458389 -49.298302 0.178306
223.040588 231.458389 -49.298302 0.150459
236.523926 231.458389 -49.298302 0.127800
250.007202 231.458389 -49.298302 0.106617
263.490540 231.458389 -49.298302 0.079953
276.973816 231.458389 -49.298302 0.054417
290.457092 231.458389 -49.298302 0.034069
303.940430 231.458389 -49.298302 0.023205
317.423706 231.458389 -49.298302 0.000000
330.907043 231.458389 -49.298302 0.000000
344.390320 231.458389 -49.298302 0.000000
-343.257996 217.975098 -49.298302 0.000000
-329.774689 217.975098 -49.298302 0.000000
-316.291382 217.975098 -49.298302 0.000000
-302.808105 217.975098 -49.298302 0.016869
-289.324799 217.975098 -49.298302 0.023606
-275.841492 217.975098 -49.298302 0.033108
-262.358185 217.975098 -49.298302 0.047115
-248.874893 217.975098 -49.298302 0.068522
-235.391602 217.975098 -49.298302 0.094786
-221.908295 217.975098 -49.298302 0.129672
-208.424988 217.975098 -49.298302 0.171770
-194.941696 217.975098 -49.298302 0.215360
-181.458389 217.975098 -49.298302 0.248476
-167.975098 217.975098 -49.298302 0.275141
-154.491791 217.975098 -49.298302 0.326125
-141.008499 217.975098 -49.298302 0.364504
-127.525192 217.975098 -49.298302 0.381416
-114.041885 217.975098 -49.298302 0.402633
-100.558594 217.975098 -49.298302 0.370196
-87.075287 217.975098 -49.298302 0.339545
-73.591980 217.975098 -49.298302 0.292855
-60.108704 217.975098 -49.298302 0.264173
-46.625397 217.975098 -49.298302 0.244996
-33.142090 217.975098 -49.298302 0.258403
-19.658783 217.975098 -49.298302 0.269991
-6.175476 217.975098 -49.298302 0.278909
7.307800 217.975098 -49.298302 0.304253
20.791107 217.975098 -49.298302 0.321630
34.274414 217.975098 -49.298302 0.000000
47.757721 217.975098 -49.298302 0.346099
61.240997 217.975098 -49.298302 0.373587
74.724304 217.975098 -49.298302 0.397507
88.207611 217.975098 -49.298302 0.382498
101.690918 217.975098 -49.298302 0.375844
115.174225 217.975098 -49.298302 0.320388
128.657501 217.975098 -49.298302 0.280806
142.140808 217.975098 -49.298302 0.256196
155.624115 217.975098 -49.298302 0.250300
169.107422 217.975098 -49.298302 0.249898
182.590698 217.975098 -49.298302 0.233306
196.074036 217.975098 -49.298302 0.194292
209.557312 217.975098 -49.298302 0.169709
223.040588 217.975098 -49.298302 0.144729
236.523926 217.975098 -49.298302 0.123855
250.007202 217.975098 -49.298302 0.101720
263.490540 217.975098 -49.298302 0.073890
276.973816 217.975098 -49.298302 0.050338
290.457092 217.975098 -49.298302 0.029108
303.940430 217.975098 -49.298302 0.019613
317.423706 217.975098 -49.298302 0.000000
330.907043 217.975098 -49.298302 0.000000
344.390320 217.975098 -49.298302 0.000000
-343.257996 204.491791 -49.298302 0.000000
-329.774689 204.491791 -49.298302 0.000000
-316.291382 204.491791 -49.298302 0.000000
-302.808105 204.491791 -49.298302 0.017116
-289.324799 204.491791 -49.298302 0.025000
-275.841492 204.491791 -49.298302 0.034437
-262.358185 204.491791 -49.298302 0.050794
-248.874893 204.491791 -49.298302 0.078721
-235.391602 204.491791 -49.298302 0.111037
-221.908295 204.491791 -49.298302 0.137926
-208.424988 204.491791 -49.298302 0.181600
-194.941696 204.491791 -49.298302 0.236637
-181.458389 204.491791 -49.298302 0.282782
-167.975098 204.491791 -49.298302 0.335879
-154.491791 204.491791 -49.298302 0.382381
-141.008499 204.491791 -49.298302 0.409782
-127.525192 204.491791 -49.298302 0.432407
-114.041885 204.491791 -49.298302 0.439494
-100.558594 204.491791 -49.298302 0.421180
-87.075287 204.491791 -49.298302 0.361279
-73.591980 204.491791 -49.298302 0.298292
-60.108704 204.491791 -49.298302 0.265286
-46.625397 204.491791 -49.298302 0.239186
-33.142090 204.491791 -49.298302 0.254962
-19.658783 204.491791 -49.298302 0.257484
-6.175476 204.491791 -49.298302 0.282516
7.307800 204.491791 -49.298302 0.316581
20.791107 204.491791 -49.298302 0.328157
34.274414 204.491791 -49.298302 0.363690
47.757721 204.491791 -49.298302 0.375564
61.240997 204.491791 -49.298302 0.376626
74.724304 204.491791 -49.298302 0.374809
88.207611 204.491791 -49.298302 0.361574
101.690918 204.491791 -49.298302 0.324531
115.174225 204.491791 -49.298302 0.288944
128.657501 204.491791 -49.298302 0.264584
142.140808 204.491791 -49.298302 0.242645
155.624115 204.491791 -49.298302 0.235211
169.107422 204.491791 -49.298302 0.217833
182.590698 204.491791 -49.298302 0.202436
196.074036 204.491791 -49.298302 0.178014
209.557312 204.491791 -49.298302 0.163681
223.040588 204.491791 -49.298302 0.143548
236.523926 204.491791 -49.298302 0.112912
250.007202 204.491791 -49.298302 0.091443
263.490540 204.491791 -49.298302 0.062441
276.973816 204.491791 -49.298302 0.043198
290.457092 204.491791 -49.298302 0.026433
303.940430 204.491791 -49.298302 0.018243
317.423706 204.491791 -49.298302 0.000000
330.907043 204.491791 -49.298302 0.000000
344.390320 204.491791 -49.298302 0.000000
-343.257996 191.008499 -49.298302 0.000000
-329.774689 191.008499 -49.298302 0.000000
-316.291382 191.008499 -49.298302 0.000000
-302.808105 191.008499 -49.298302 0.017661
-289.324799 191.008499 -49.298302 0.024279
-275.841492 191.008499 -49.298302 0.037306
-262.358185 191.008499 -49.298302 0.057358
-248.874893 191.008499 -49.298302 0.082595
-235.391602 191.008499 -49.298302 0.120637
-221.908295 191.008499 -49.298302 0.156231
-208.424988 191.008499 -49.298302 0.210718
-194.941696 191.008499 -49.298302 0.260104
-181.458389 191.008499 -49.298302 0.340098
-167.975098 191.008499 -49.298302 0.409713
-154.491791 191.008499 -49.298302 0.459819
-141.008499 191.008499 -49.298302 0.487371
-127.525192 191.008499 -49.298302 0.497960
-114.041885 191.008499 -49.298302 0.473384
-100.558594 191.008499 -49.298302 0.437988
-87.075287 191.008499 -49.298302 0.368702
-73.591980 191.008499 -49.298302 0.306067
-60.108704 191.008499 -49.298302 0.259660
-46.625397 191.008499 -49.298302 0.249332
-33.142090 191.008499 -49.298302 0.249801
-19.658783 191.008499 -49.298302 0.263765
-6.175476 191.008499 -49.298302 0.272957
7.307800 191.008499 -49.298302 0.291488
20.791107 191.008499 -49.298302 0.327353
34.274414 191.008499 -49.298302 0.359977
47.757721 191.008499 -49.298302 0.363442
61.240997 191.008499 -49.298302 0.369843
74.724304 191.008499 -49.298302 0.357242
88.207611 191.008499 -49.298302 0.319857
101.690918 191.008499 -49.298302 0.283221
115.174225 191.008499 -49.298302 0.263391
128.657501 191.008499 -49.298302 0.240561
142.140808 191.008499 -49.298302 0.223980
155.624115 191.008499 -49.298302 0.215702
169.107422 191.008499 -49.298302 0.199095
182.590698 191.008499 -49.298302 0.179373
196.074036 191.008499 -49.298302 0.165210
209.557312 191.008499 -49.298302 0.149180
223.040588 191.008499 -49.298302 0.129786
236.523926 191.008499 -49.298302 0.106760
250.007202 191.008499 -49.298302 0.084163
263.490540 191.008499 -49.298302 0.056196
276.973816 191.008499 -49.298302 0.037668
290.457092 191.008499 -49.298302 0.023699
303.940430 191.008499 -49.298302 0.017169
317.423706 191.008499 -49.298302 0.000000
330.907043 191.008499 -49.298302 0.000000
344.390320 191.008499 -49.298302 0.000000
-343.257996 177.525192 -49.298302 0.000000
-329.774689 177.525192 -49.298302 0.000000
-316.291382 177.525192 -49.298302 0.000000
-302.808105 177.525192 -49.298302 0.018810
-289.324799 177.525192 -49.298302 0.025823
-275.841492 177.525192 -49.298302 0.038510
-262.358185 177.525192 -49.298302 0.059366
-248.874893 177.525192 -49.298302 0.089831
-235.391602 177.525192 -49.298302 0.137039
-221.908295 177.525192 -49.298302 0.187307
-208.424988 177.525192 -49.298302 0.231872
-194.941696 177.525192 -49.298302 0.308890
-181.458389 177.525192 -49.298302 0.374347
-167.975098 177.525192 -49.298302 0.455356
-154.491791 177.525192 -49.298302 0.518689
-141.008499 177.525192 -49.298302 0.558658
-127.525192 177.525192 -49.298302 0.521652
-114.041885 177.525192 -49.298302 0.495939
-100.558594 177.525192 -49.298302 0.423259
-87.075287 177.525192 -49.298302 0.352871
-73.591980 177.525192 -49.298302 0.305901
-60.108704 177.525192 -49.298302 0.255847
-46.625397 177.525192 -49.298302 0.248687
-33.142090 177.525192 -49.298302 0.242109
-19.658783 177.525192 -49.298302 0.257198
-6.175476 177.525192 -49.298302 0.271824
7.307800 177.525192 -49.298302 0.281676
20.791107 177.525192 -49.298302 0.303400
34.274414 177.525192 -49.298302 0.324482
47.757721 177.525192 -49.298302 0.358713
61.240997 177.525192 -49.298302 0.349678
74.724304 177.525192 -49.298302 0.324932
88.207611 177.525192 -49.298302 0.296432
101.690918 177.525192 -49.298302 0.253534
115.174225 177.525192 -49.298302 0.232311
128.657501 177.525192 -49.298302 0.210660
142.140808 177.525192 -49.298302 0.203902
155.624115 177.525192 -49.298302 0.196202
169.107422 177.525192 -49.298302 0.176103
182.590698 177.525192 -49.298302 0.160776
196.074036 177.525192 -49.298302 0.146279
209.557312 177.525192 -49.298302 0.131146
223.040588 177.525192 -49.298302 0.117500
236.523926 177.525192 -49.298302 0.097746
250.007202 177.525192 -49.298302 0.073110
263.490540 177.525192 -49.298302 0.052357
276.973816 177.525192 -49.298302 0.035820
290.457092 177.525192 -49.298302 0.022871
303.940430 177.525192 -49.298302 0.015832
317.423706 177.525192 -49.298302 0.000000
330.907043 177.525192 -49.298302 0.000000
344.390320 177.525192 -49.298302 0.000000
-343.257996 164.041885 -49.298302 0.000000
-329.774689 164.041885 -49.298302 0.000000
-316.291382 164.041885 -49.298302 0.000000
-302.808105 164.041885 -49.298302 0.019566
-289.324799 164.041885 -49.298302 0.027342
-275.841492 164.041885 -49.298302 0.040408
-262.358185 164.041885 -49.298302 0.061762
-248.874893 164.041885 -49.298302 0.089588
-235.391602 164.041885 -49.298302 0.139036
-221.908295 164.041885 -49.298302 0.203010
-208.424988 164.041885 -49.298302 0.259133
-194.941696 164.041885 -49.298302 0.326957
-181.458389 164.041885 -49.298302 0.403289
-167.975098 164.041885 -49.298302 0.488932
-154.491791 164.041885 -49.298302 0.547804
-141.008499 164.041885 -49.298302 0.577644
-127.525192 164.041885 -49.298302 0.536464
-114.041885 164.041885 -49.298302 0.485668
-100.558594 164.041885 -49.298302 0.420217
-87.075287 164.041885 -49.298302 0.350906
-73.591980 164.041885 -49.298302 0.311110
-60.108704 164.041885 -49.298302 0.261022
-46.625397 164.041885 -49.298302 0.258522
-33.142090 164.041885 -49.298302 0.245105
-19.658783 164.041885 -49.298302 0.245897
-6.175476 164.041885 -49.298302 0.263630
7.307800 164.041885 -49.298302 0.272384
20.791107 164.041885 -49.298302 0.298719
34.274414 164.041885 -49.298302 0.309743
47.757721 164.041885 -49.298302 0.338728
61.240997 164.041885 -49.298302 0.322679
74.724304 164.041885 -49.298302 0.288682
88.207611 164.041885 -49.298302 0.263657
101.690918 164.041885 -49.298302 0.244253
115.174225 164.041885 -49.298302 0.218765
128.657501 164.041885 -49.298302 0.200403
142.140808 164.041885 -49.298302 0.188363
155.624115 164.041885 -49.298302 0.183250
169.107422 164.041885 -49.298302 0.165515
182.590698 164.041885 -49.298302 0.146834
196.074036 164.041885 -49.298302 0.131340
209.557312 164.041885 -49.298302 0.118248
223.040588 164.041885 -49.298302 0.101248
236.523926 164.041885 -49.298302 0.084292
250.007202 164.041885 -49.298302 0.059791
263.490540 164.041885 -49.298302 0.044928
276.973816 164.041885 -49.298302 0.029475
290.457092 164.041885 -49.298302 0.020909
303.940430 164.041885 -49.298302 0.014323
317.423706 164.041885 -49.298302 0.000000
330.907043 164.041885 -49.298302 0.000000
344.390320 164.041885 -49.298302 0.000000
-343.257996 150.558594 -49.298302 0.000000
-329.774689 150.558594 -49.298302 0.000000
-316.291382 150.558594 -49.298302 0.000000
-302.808105 150.558594 -49.298302 0.020814
-289.324799 150.558594 -49.298302 0.028015
-275.841492 150.558594 -49.298302 0.040968
-262.358185 150.558594 -49.298302 0.063501
-248.874893 150.558594 -49.298302 0.098315
-235.391602 150.558594 -49.298302 0.140276
-221.908295 150.558594 -49.298302 0.196091
-208.424988 150.558594 -49.298302 0.264752
-194.941696 150.558594 -49.298302 0.331248
-181.458389 150.558594 -49.298302 0.403611
-167.975098 150.558594 -49.298302 0.480089
-154.491791 150.558594 -49.298302 0.517235
-141.008499 150.558594 -49.298302 0.552636
-127.525192 150.558594 -49.298302 0.530240
-114.041885 150.558594 -49.298302 0.466047
-100.558594 150.558594 -49.298302 0.401782
-87.075287 150.558594 -49.298302 0.353726
-73.591980 150.558594 -49.298302 0.319686
-60.108704 150.558594 -49.298302 0.263411
-46.625397 150.558594 -49.298302 0.255142
-33.142090 150.558594 -49.298302 0.243751
-19.658783 150.558594 -49.298302 0.245900
-6.175476 150.558594 -49.298302 0.250174
7.307800 150.558594 -49.298302 0.263131
20.791107 150.558594 -49.298302 0.283405
34.274414 150.558594 -49.298302 0.299714
47.757721 150.558594 -49.298302 0.309824
61.240997 150.558594 -49.298302 0.295768
74.724304 150.558594 -49.298302 0.286898
88.207611 150.558594 -49.298302 0.257456
101.690918 150.558594 -49.298302 0.222885
115.174225 150.558594 -49.298302 0.196101
128.657501 150.558594 -49.298302 0.181728
142.140808 150.558594 -49.298302 0.178204
155.624115 150.558594 -49.298302 0.161394
169.107422 150.558594 -49.298302 0.146265
182.590698 150.558594 -49.298302 0.134025
196.074036 150.558594 -49.298302 0.116843
209.557312 150.558594 -49.298302 0.104128
223.040588 150.558594 -49.298302 0.083585
236.523926 150.558594 -49.298302 0.064947
250.007202 150.558594 -49.298302 0.048130
263.490540 150.558594 -49.298302 0.036868
276.973816 150.558594 -49.298302 0.025378
290.457092 150.558594 -49.298302 0.017177
303.940430 150.558594 -49.298302 0.013023
317.423706 150.558594 -49.298302 0.000000
330.907043 150.558594 -49.298302 0.000000
344.390320 150.558594 -49.298302 0.000000
-343.257996 137.075287 -49.298302 0.000000
-329.774689 137.075287 -49.298302 0.000000
-316.291382 137.075287 -49.298302 0.000000
-302.808105 137.075287 -49.298302 0.020092
-289.324799 137.075287 -49.298302 0.027993
-275.841492 137.075287 -49.298302 0.039899
-262.358185 137.075287 -49.298302 0.061198
-248.874893 137.075287 -49.298302 0.091963
-235.391602 137.075287 -49.298302 0.136529
-221.908295 137.075287 -49.298302 0.181209
-208.424988 137.075287 -49.298302 0.244944
-194.941696 137.075287 -49.298302 0.330476
-181.458389 137.075287 -49.298302 0.399942
-167.975098 137.075287 -49.298302 0.480654
-154.491791 137.075287 -49.298302 0.524880
-141.008499 137.075287 -49.298302 0.530821
-127.525192 137.075287 -49.298302 0.506124
-114.041885 137.075287 -49.298302 0.470039
-100.558594 137.075287 -49.298302 0.398197
-87.075287 137.075287 -49.298302 0.351999
-73.591980 137.075287 -49.298302 0.291022
-60.108704 137.075287 -49.298302 0.261746
-46.625397 137.075287 -49.298302 0.261119
-33.142090 137.075287 -49.298302 0.245888
-19.658783 137.075287 -49.298302 0.249866
-6.175476 137.075287 -49.298302 0.251966
7.307800 137.075287 -49.298302 0.272562
20.791107 137.075287 -49.298302 0.284155
34.274414 137.075287 -49.298302 0.303653
47.757721 137.075287 -49.298302 0.296973
61.240997 137.075287 -49.298302 0.286238
74.724304 137.075287 -49.298302 0.262955
88.207611 137.075287 -49.298302 0.251130
101.690918 137.075287 -49.298302 0.211677
115.174225 137.075287 -49.298302 0.188125
128.657501 137.075287 -49.298302 0.180116
142.140808 137.075287 -49.298302 0.169128
155.624115 137.075287 -49.298302 0.154190
169.107422 137.075287 -49.298302 0.129278
182.590698 137.075287 -49.298302 0.120208
196.074036 137.075287 -49.298302 0.101754
209.557312 137.075287 -49.298302 0.086774
223.040588 137.075287 -49.298302 0.068902
236.523926 137.075287 -49.298302 0.054928
250.007202 137.075287 -49.298302 0.038295
263.490540 137.075287 -49.298302 0.029144
276.973816 137.075287 -49.298302 0.020592
290.457092 137.075287 -49.298302 0.014675
303.940430 137.075287 -49.298302 0.011260
317.423706 137.075287 -49.298302 0.000000
330.907043 137.075287 -49.298302 0.000000
344.390320 137.075287 -49.298302 0.000000
-343.257996 123.591980 -49.298302 0.000000
-329.774689 123.591980 -49.298302 0.000000
-316.291382 123.591980 -49.298302 0.000000
-302.808105 123.591980 -49.298302 0.018843
-289.324799 123.591980 -49.298302 0.026977
-275.841492 123.591980 -49.298302 0.037605
-262.358185 123.591980 -49.298302 0.055752
-248.874893 123.591980 -49.298302 0.081513
-235.391602 123.591980 -49.298302 0.123193
-221.908295 123.591980 -49.298302 0.178876
-208.424988 123.591980 -49.298302 0.247460
-194.941696 123.591980 -49.298302 0.338553
-181.458389 123.591980 -49.298302 0.406290
-167.975098 123.591980 -49.298302 0.463072
-154.491791 123.591980 -49.298302 0.485903
-141.008499 123.591980 -49.298302 0.507792
-127.525192 123.591980 -49.298302 0.493297
-114.041885 123.591980 -49.298302 0.459229
-100.558594 123.591980 -49.298302 0.386660
-87.075287 123.591980 -49.298302 0.343843
-73.591980 123.591980 -49.298302 0.296707
-60.108704 123.591980 -49.298302 0.271325
-46.625397 123.591980 -49.298302 0.256045
-33.142090 123.591980 -49.298302 0.247211
-19.658783 123.591980 -49.298302 0.247956
-6.175476 123.591980 -49.298302 0.242765
7.307800 123.591980 -49.298302 0.250253
20.791107 123.591980 -49.298302 0.275037
34.274414 123.591980 -49.298302 0.294221
47.757721 123.591980 -49.298302 0.291279
61.240997 123.591980 -49.298302 0.281177
74.724304 123.591980 -49.298302 0.251424
88.207611 123.591980 -49.298302 0.236595
101.690918 123.591980 -49.298302 0.208847
115.174225 123.591980 -49.298302 0.190578
128.657501 123.591980 -49.298302 0.173994
142.140808 123.591980 -49.298302 0.159223
155.624115 123.591980 -49.298302 0.136224
169.107422 123.591980 -49.298302 0.117981
182.590698 123.591980 -49.298302 0.101578
196.074036 123.591980 -49.298302 0.083508
209.557312 123.591980 -49.298302 0.069141
223.040588 123.591980 -49.298302 0.055399
236.523926 123.591980 -49.298302 0.040406
250.007202 123.591980 -49.298302 0.030765
263.490540 123.591980 -49.298302 0.023491
276.973816 123.591980 -49.298302 0.016345
290.457092 123.591980 -49.298302 0.011976
303.940430 123.591980 -49.298302 0.009474
317.423706 123.591980 -49.298302 0.000000
330.907043 123.591980 -49.298302 0.000000
344.390320 123.591980 -49.298302 0.000000
-343.257996 110.108704 -49.298302 0.000000
-329.774689 110.108704 -49.298302 0.000000
-316.291382 110.108704 -49.298302 0.000000
-302.808105 110.108704 -49.298302 0.017448
-289.324799 110.108704 -49.298302 0.024133
-275.841492 110.108704 -49.298302 0.032871
-262.358185 110.108704 -49.298302 0.050980
-248.874893 110.108704 -49.298302 0.077690
-235.391602 110.108704 -49.298302 0.117114
-221.908295 110.108704 -49.298302 0.164576
-208.424988 110.108704 -49.298302 0.221557
-194.941696 110.108704 -49.298302 0.297001
-181.458389 110.108704 -49.298302 0.373508
-167.975098 110.108704 -49.298302 0.438592
-154.491791 110.108704 -49.298302 0.460660
-141.008499 110.108704 -49.298302 0.480473
-127.525192 110.108704 -49.298302 0.451115
-114.041885 110.108704 -49.298302 0.435003
-100.558594 110.108704 -49.298302 0.399264
-87.075287 110.108704 -49.298302 0.363672
-73.591980 110.108704 -49.298302 0.326988
-60.108704 110.108704 -49.298302 0.279151
-46.625397 110.108704 -49.298302 0.262656
-33.142090 110.108704 -49.298302 0.243676
-19.658783 110.108704 -49.298302 0.247472
-6.175476 110.108704 -49.298302 0.246073
7.307800 110.108704 -49.298302 0.259068
20.791107 110.108704 -49.298302 0.287707
34.274414 110.108704 -49.298302 0.288675
47.757721 110.108704 -49.298302 0.276966
61.240997 110.108704 -49.298302 0.272448
74.724304 110.108704 -49.298302 0.251008
88.207611 110.108704 -49.298302 0.228209
101.690918 110.108704 -49.298302 0.208311
115.174225 110.108704 -49.298302 0.192253
128.657501 110.108704 -49.298302 0.165938
142.140808 110.108704 -49.298302 0.151615
155.624115 110.108704 -49.298302 0.127989
169.107422 110.108704 -49.298302 0.111869
182.590698 110.108704 -49.298302 0.091963
196.074036 110.108704 -49.298302 0.069295
209.557312 110.108704 -49.298302 0.053509
223.040588 110.108704 -49.298302 0.044451
236.523926 110.108704 -49.298302 0.032087
250.007202 110.108704 -49.298302 0.025178
263.490540 110.108704 -49.298302 0.018585
276.973816 110.108704 -49.298302 0.013033
290.457092 110.108704 -49.298302 0.009962
303.940430 110.108704 -49.298302 0.008320
317.423706 110.108704 -49.298302 0.000000
330.907043 110.108704 -49.298302 0.000000
344.390320 110.108704 -49.298302 0.000000
-343.257996 96.625397 -49.298302 0.000000
-329.774689 96.625397 -49.298302 0.000000
-316.291382 96.625397 -49.298302 0.000000
-302.808105 96.625397 -49.298302 0.017399
-289.324799 96.625397 -49.298302 0.022059
-275.841492 96.625397 -49.298302 0.030156
-262.358185 96.625397 -49.298302 0.049078
-248.874893 96.625397 -49.298302 0.072632
-235.391602 96.625397 -49.298302 0.112444
-221.908295 96.625397 -49.298302 0.153333
-208.424988 96.625397 -49.298302 0.214294
-194.941696 96.625397 -49.298302 0.302420
-181.458389 96.625397 -49.298302 0.373311
-167.975098 96.625397 -49.298302 0.429874
-154.491791 96.625397 -49.298302 0.447726
-141.008499 96.625397 -49.298302 0.447703
-127.525192 96.625397 -49.298302 0.454916
-114.041885 96.625397 -49.298302 0.421369
-100.558594 96.625397 -49.298302 0.396560
-87.075287 96.625397 -49.298302 0.357076
-73.591980 96.625397 -49.298302 0.326967
-60.108704 96.625397 -49.298302 0.274986
-46.625397 96.625397 -49.298302 0.265265
-33.142090 96.625397 -49.298302 0.266202
-19.658783 96.625397 -49.298302 0.261445
-6.175476 96.625397 -49.298302 0.260405
7.307800 96.625397 -49.298302 0.273428
20.791107 96.625397 -49.298302 0.281046
34.274414 96.625397 -49.298302 0.267101
47.757721 96.625397 -49.298302 0.267718
61.240997 96.625397 -49.298302 0.249329
74.724304 96.625397 -49.298302 0.235521
88.207611 96.625397 -49.298302 0.211358
101.690918 96.625397 -49.298302 0.189362
115.174225 96.625397 -49.298302 0.175068
128.657501 96.625397 -49.298302 0.145261
142.140808 96.625397 -49.298302 0.134646
155.624115 96.625397 -49.298302 0.114730
169.107422 96.625397 -49.298302 0.098982
182.590698 96.625397 -49.298302 0.084247
196.074036 96.625397 -49.298302 0.058950
209.557312 96.625397 -49.298302 0.044852
223.040588 96.625397 -49.298302 0.034979
236.523926 96.625397 -49.298302 0.027817
250.007202 96.625397 -49.298302 0.021274
263.490540 96.625397 -49.298302 0.014964
276.973816 96.625397 -49.298302 0.010884
290.457092 96.625397 -49.298302 0.008270
303.940430 96.625397 -49.298302 0.006994
317.423706 96.625397 -49.298302 0.000000
330.907043 96.625397 -49.298302 0.000000
344.390320 96.625397 -49.298302 0.000000
-343.257996 83.142090 -49.298302 0.000000
-329.774689 83.142090 -49.298302 0.000000
-316.291382 83.142090 -49.298302 0.000000
-302.808105 83.142090 -49.298302 0.016461
-289.324799 83.142090 -49.298302 0.020426
-275.841492 83.142090 -49.298302 0.029039
-262.358185 83.142090 -49.298302 0.043625
-248.874893 83.142090 -49.298302 0.068673
-235.391602 83.142090 -49.298302 0.103902
-221.908295 83.142090 -49.298302 0.148765
-208.424988 83.142090 -49.298302 0.201046
-194.941696 83.142090 -49.298302 0.287992
-181.458389 83.142090 -49.298302 0.357223
-167.975098 83.142090 -49.298302 0.398885
-154.491791 83.142090 -49.298302 0.436472
-141.008499 83.142090 -49.298302 0.444525
-127.525192 83.142090 -49.298302 0.423560
-114.041885 83.142090 -49.298302 0.423258
-100.558594 83.142090 -49.298302 0.407751
-87.075287 83.142090 -49.298302 0.368893
-73.591980 83.142090 -49.298302 0.330243
-60.108704 83.142090 -49.298302 0.305046
-46.625397 83.142090 -49.298302 0.279146
-33.142090 83.142090 -49.298302 0.300134
-19.658783 83.142090 -49.298302 0.294417
-6.175476 83.142090 -49.298302 0.281236
7.307800 83.142090 -49.298302 0.288593
20.791107 83.142090 -49.298302 0.298529
34.274414 83.142090 -49.298302 0.264642
47.757721 83.142090 -49.298302 0.255902
61.240997 83.142090 -49.298302 0.245639
74.724304 83.142090 -49.298302 0.222593
88.207611 83.142090 -49.298302 0.197532
101.690918 83.142090 -49.298302 0.169934
115.174225 83.142090 -49.298302 0.152561
128.657501 83.142090 -49.298302 0.132555
142.140808 83.142090 -49.298302 0.114646
155.624115 83.142090 -49.298302 0.101532
169.107422 83.142090 -49.298302 0.088156
182.590698 83.142090 -49.298302 0.070344
196.074036 83.142090 -49.298302 0.053189
209.557312 83.142090 -49.298302 0.039312
223.040588 83.142090 -49.298302 0.029864
236.523926 83.142090 -49.298302 0.023410
250.007202 83.142090 -49.298302 0.017478
263.490540 83.142090 -49.298302 0.012552
276.973816 83.142090 -49.298302 0.008830
290.457092 83.142090 -49.298302 0.006742
303.940430 83.142090 -49.298302 0.005922
317.423706 83.142090 -49.298302 0.000000
330.907043 83.142090 -49.298302 0.000000
344.390320 83.142090 -49.298302 0.000000
-343.257996 69.658783 -49.298302 0.000000
-329.774689 69.658783 -49.298302 0.000000
-316.291382 69.658783 -49.298302 0.000000
-302.808105 69.658783 -49.298302 0.016937
-289.324799 69.658783 -49.298302 0.019804
-275.841492 69.658783 -49.298302 0.027055
-262.358185 69.658783 -49.298302 0.040935
-248.874893 69.658783 -49.298302 0.064581
-235.391602 69.658783 -49.298302 0.097504
-221.908295 69.658783 -49.298302 0.150495
-208.424988 69.658783 -49.298302 0.214109
-194.941696 69.658783 -49.298302 0.286691
-181.458389 69.658783 -49.298302 0.330382
-167.975098 69.658783 -49.298302 0.359484
-154.491791 69.658783 -49.298302 0.432105
-141.008499 69.658783 -49.298302 0.448892
-127.525192 69.658783 -49.298302 0.430019
-114.041885 69.658783 -49.298302 0.412288
-100.558594 69.658783 -49.298302 0.408743
-87.075287 69.658783 -49.298302 0.377067
-73.591980 69.658783 -49.298302 0.338882
-60.108704 69.658783 -49.298302 0.310737
-46.625397 69.658783 -49.298302 0.278360
-33.142090 69.658783 -49.298302 0.289405
-19.658783 69.658783 -49.298302 0.304760
-6.175476 69.658783 -49.298302 0.313925
7.307800 69.658783 -49.298302 0.327250
20.791107 69.658783 -49.298302 0.305613
34.274414 69.658783 -49.298302 0.278978
47.757721 69.658783 -49.298302 0.241736
61.240997 69.658783 -49.298302 0.221008
74.724304 69.658783 -49.298302 0.196599
88.207611 69.658783 -49.298302 0.174465
101.690918 69.658783 -49.298302 0.162025
115.174225 69.658783 -49.298302 0.138166
128.657501 69.658783 -49.298302 0.125387
142.140808 69.658783 -49.298302 0.109929
155.624115 69.658783 -49.298302 0.092308
169.107422 69.658783 -49.298302 0.077025
182.590698 69.658783 -49.298302 0.060770
196.074036 69.658783 -49.298302 0.045613
209.557312 69.658783 -49.298302 0.034388
223.040588 69.658783 -49.298302 0.025156
236.523926 69.658783 -49.298302 0.019336
250.007202 69.658783 -49.298302 0.014411
263.490540 69.658783 -49.298302 0.010570
276.973816 69.658783 -49.298302 0.007869
290.457092 69.658783 -49.298302 0.005945
303.940430 69.658783 -49.298302 0.005283
317.423706 69.658783 -49.298302 0.000000
330.907043 69.658783 -49.298302 0.000000
344.390320 69.658783 -49.298302 0.000000
-343.257996 56.175476 -49.298302 0.000000
-329.774689 56.175476 -49.298302 0.000000
-316.291382 56.175476 -49.298302 0.000000
-302.808105 56.175476 -49.298302 0.016292
-289.324799 56.175476 -49.298302 0.019770
-275.841492 56.175476 -49.298302 0.027268
-262.358185 56.175476 -49.298302 0.041740
-248.874893 56.175476 -49.298302 0.065247
-235.391602 56.175476 -49.298302 0.102422
-221.908295 56.175476 -49.298302 0.162011
-208.424988 56.175476 -49.298302 0.222042
-194.941696 56.175476 -49.298302 0.276158
-181.458389 56.175476 -49.298302 0.325560
-167.975098 56.175476 -49.298302 0.365525
-154.491791 56.175476 -49.298302 0.428973
-141.008499 56.175476 -49.298302 0.450855
-127.525192 56.175476 -49.298302 0.437260
-114.041885 56.175476 -49.298302 0.440260
-100.558594 56.175476 -49.298302 0.403062
-87.075287 56.175476 -49.298302 0.381556
-73.591980 56.175476 -49.298302 0.340895
-60.108704 56.175476 -49.298302 0.334883
-46.625397 56.175476 -49.298302 0.307918
-33.142090 56.175476 -49.298302 0.312638
-19.658783 56.175476 -49.298302 0.336581
-6.175476 56.175476 -49.298302 0.358246
7.307800 56.175476 -49.298302 0.338859
20.791107 56.175476 -49.298302 0.318375
34.274414 56.175476 -49.298302 0.274610
47.757721 56.175476 -49.298302 0.226110
61.240997 56.175476 -49.298302 0.202998
74.724304 56.175476 -49.298302 0.181489
88.207611 56.175476 -49.298302 0.165659
101.690918 56.175476 -49.298302 0.143512
115.174225 56.175476 -49.298302 0.128306
128.657501 56.175476 -49.298302 0.119043
142.140808 56.175476 -49.298302 0.107429
155.624115 56.175476 -49.298302 0.085420
169.107422 56.175476 -49.298302 0.068181
182.590698 56.175476 -49.298302 0.057214
196.074036 56.175476 -49.298302 0.044992
209.557312 56.175476 -49.298302 0.032886
223.040588 56.175476 -49.298302 0.023346
236.523926 56.175476 -49.298302 0.017312
250.007202 56.175476 -49.298302 0.012558
263.490540 56.175476 -49.298302 0.009424
276.973816 56.175476 -49.298302 0.007319
290.457092 56.175476 -49.298302 0.006010
303.940430 56.175476 -49.298302 0.005744
317.423706 56.175476 -49.298302 0.000000
330.907043 56.175476 -49.298302 0.000000
344.390320 56.175476 -49.298302 0.000000
-343.257996 42.692200 -49.298302 0.000000
-329.774689 42.692200 -49.298302 0.000000
-316.291382 42.692200 -49.298302 0.000000
-302.808105 42.692200 -49.298302 0.016731
-289.324799 42.692200 -49.298302 0.020193
-275.841492 42.692200 -49.298302 0.029053
-262.358185 42.692200 -49.298302 0.043883
-248.874893 42.692200 -49.298302 0.071844
-235.391602 42.692200 -49.298302 0.105042
-221.908295 42.692200 -49.298302 0.157922
-208.424988 42.692200 -49.298302 0.214843
-194.941696 42.692200 -49.298302 0.294249
-181.458389 42.692200 -49.298302 0.348785
-167.975098 42.692200 -49.298302 0.388582
-154.491791 42.692200 -49.298302 0.435620
-141.008499 42.692200 -49.298302 0.465970
-127.525192 42.692200 -49.298302 0.459825
-114.041885 42.692200 -49.298302 0.454654
-100.558594 42.692200 -49.298302 0.403023
-87.075287 42.692200 -49.298302 0.390985
-73.591980 42.692200 -49.298302 0.374371
-60.108704 42.692200 -49.298302 0.369241
-46.625397 42.692200 -49.298302 0.325994
-33.142090 42.692200 -49.298302 0.338440
-19.658783 42.692200 -49.298302 0.361933
-6.175476 42.692200 -49.298302 0.388009
7.307800 42.692200 -49.298302 0.369867
20.791107 42.692200 -49.298302 0.325278
34.274414 42.692200 -49.298302 0.286440
47.757721 42.692200 -49.298302 0.234007
61.240997 42.692200 -49.298302 0.196338
74.724304 42.692200 -49.298302 0.167112
88.207611 42.692200 -49.298302 0.150903
101.690918 42.692200 -49.298302 0.132357
115.174225 42.692200 -49.298302 0.120469
128.657501 42.692200 -49.298302 0.103420
142.140808 42.692200 -49.298302 0.093775
155.624115 42.692200 -49.298302 0.080979
169.107422 42.692200 -49.298302 0.068148
182.590698 42.692200 -49.298302 0.056521
196.074036 42.692200 -49.298302 0.044168
209.557312 42.692200 -49.298302 0.030715
223.040588 42.692200 -49.298302 0.021867
236.523926 42.692200 -49.298302 0.015775
250.007202 42.692200 -49.298302 0.011906
263.490540 42.692200 -49.298302 0.009252
276.973816 42.692200 -49.298302 0.007828
290.457092 42.692200 -49.298302 0.006979
303.940430 42.692200 -49.298302 0.000000
317.423706 42.692200 -49.298302 0.000000
330.907043 42.692200 -49.298302 0.000000
344.390320 42.692200 -49.298302 0.000000
-343.257996 29.208893 -49.298302 0.000000
-329.774689 29.208893 -49.298302 0.000000
-316.291382 29.208893 -49.298302 0.000000
-302.808105 29.208893 -49.298302 0.019043
-289.324799 29.208893 -49.298302 0.024772
-275.841492 29.208893 -49.298302 0.036854
-262.358185 29.208893 -49.298302 0.049984
-248.874893 29.208893 -49.298302 0.077941
-235.391602 29.208893 -49.298302 0.116010
-221.908295 29.208893 -49.298302 0.163964
-208.424988 29.208893 -49.298302 0.238846
-194.941696 29.208893 -49.298302 0.317535
-181.458389 29.208893 -49.298302 0.373612
-167.975098 29.208893 -49.298302 0.428108
-154.491791 29.208893 -49.298302 0.450159
-141.008499 29.208893 -49.298302 0.479350
-127.525192 29.208893 -49.298302 0.459409
-114.041885 29.208893 -49.298302 0.466045
-100.558594 29.208893 -49.298302 0.402175
-87.075287 29.208893 -49.298302 0.405559
-73.591980 29.208893 -49.298302 0.392524
-60.108704 29.208893 -49.298302 0.389621
-46.625397 29.208893 -49.298302 0.347884
-33.142090 29.208893 -49.298302 0.366632
-19.658783 29.208893 -49.298302 0.398104
-6.175476 29.208893 -49.298302 0.403068
7.307800 29.208893 -49.298302 0.377290
20.791107 29.208893 -49.298302 0.336983
34.274414 29.208893 -49.298302 0.287336
47.757721 29.208893 -49.298302 0.246622
61.240997 29.208893 -49.298302 0.182080
74.724304 29.208893 -49.298302 0.159565
88.207611 29.208893 -49.298302 0.150276
101.690918 29.208893 -49.298302 0.125012
115.174225 29.208893 -49.298302 0.112450
128.657501 29.208893 -49.298302 0.101185
142.140808 29.208893 -49.298302 0.088963
155.624115 29.208893 -49.298302 0.074203
169.107422 29.208893 -49.298302 0.065364
182.590698 29.208893 -49.298302 0.053851
196.074036 29.208893 -49.298302 0.040762
209.557312 29.208893 -49.298302 0.029416
223.040588 29.208893 -49.298302 0.021349
236.523926 29.208893 -49.298302 0.015334
250.007202 29.208893 -49.298302 0.011707
263.490540 29.208893 -49.298302 0.009759
276.973816 29.208893 -49.298302 0.008685
290.457092 29.208893 -49.298302 0.008018
303.940430 29.208893 -49.298302 0.000000
317.423706 29.208893 -49.298302 0.000000
330.907043 29.208893 -49.298302 0.000000
344.390320 29.208893 -49.298302 0.000000
-343.257996 15.725586 -49.298302 0.000000
-329.774689 15.725586 -49.298302 0.000000
-316.291382 15.725586 -49.298302 0.000000
-302.808105 15.725586 -49.298302 0.023348
-289.324799 15.725586 -49.298302 0.028656
-275.841492 15.725586 -49.298302 0.042648
-262.358185 15.725586 -49.298302 0.057322
-248.874893 15.725586 -49.298302 0.085151
-235.391602 15.725586 -49.298302 0.127269
-221.908295 15.725586 -49.298302 0.188356
-208.424988 15.725586 -49.298302 0.275060
-194.941696 15.725586 -49.298302 0.348800
-181.458389 15.725586 -49.298302 0.426912
-167.975098 15.725586 -49.298302 0.459569
-154.491791 15.725586 -49.298302 0.488722
-141.008499 15.725586 -49.298302 0.490823
-127.525192 15.725586 -49.298302 0.488480
-114.041885 15.725586 -49.298302 0.472887
-100.558594 15.725586 -49.298302 0.439407
-87.075287 15.725586 -49.298302 0.415140
-73.591980 15.725586 -49.298302 0.408211
-60.108704 15.725586 -49.298302 0.414594
-46.625397 15.725586 -49.298302 0.404275
-33.142090 15.725586 -49.298302 0.420842
-19.658783 15.725586 -49.298302 0.448680
-6.175476 15.725586 -49.298302 0.435791
7.307800 15.725586 -49.298302 0.399855
20.791107 15.725586 -49.298302 0.353134
34.274414 15.725586 -49.298302 0.289977
47.757721 15.725586 -49.298302 0.236924
61.240997 15.725586 -49.298302 0.183789
74.724304 15.725586 -49.298302 0.162846
88.207611 15.725586 -49.298302 0.138474
101.690918 15.725586 -49.298302 0.124298
115.174225 15.725586 -49.298302 0.109361
128.657501 15.725586 -49.298302 0.101386
142.140808 15.725586 -49.298302 0.087023
155.624115 15.725586 -49.298302 0.074354
169.107422 15.725586 -49.298302 0.063875
182.590698 15.725586 -49.298302 0.053028
196.074036 15.725586 -49.298302 0.039552
209.557312 15.725586 -49.298302 0.027251
223.040588 15.725586 -49.298302 0.019532
236.523926 15.725586 -49.298302 0.014918
250.007202 15.725586 -49.298302 0.011045
263.490540 15.725586 -49.298302 0.009345
276.973816 15.725586 -49.298302 0.008556
290.457092 15.725586 -49.298302 0.008526
303.940430 15.725586 -49.298302 0.000000
317.423706 15.725586 -49.298302 0.000000
330.907043 15.725586 -49.298302 0.000000
344.390320 15.725586 -49.298302 0.000000
-343.257996 2.242279 -49.298302 0.000000
-329.774689 2.242279 -49.298302 0.000000
-316.291382 2.242279 -49.298302 0.000000
-302.808105 2.242279 -49.298302 0.025981
-289.324799 2.242279 -49.298302 0.034405
-275.841492 2.242279 -49.298302 0.050679
-262.358185 2.242279 -49.298302 0.074805
-248.874893 2.242279 -49.298302 0.104596
-235.391602 2.242279 -49.298302 0.160019
-221.908295 2.242279 -49.298302 0.221371
-208.424988 2.242279 -49.298302 0.302508
-194.941696 2.242279 -49.298302 0.401488
-181.458389 2.242279 -49.298302 0.490639
-167.975098 2.242279 -49.298302 0.503527
-154.491791 2.242279 -49.298302 0.487031
-141.008499 2.242279 -49.298302 0.493799
-127.525192 2.242279 -49.298302 0.461632
-114.041885 2.242279 -49.298302 0.436066
-100.558594 2.242279 -49.298302 0.455734
-87.075287 2.242279 -49.298302 0.438320
-73.591980 2.242279 -49.298302 0.439998
-60.108704 2.242279 -49.298302 0.459243
-46.625397 2.242279 -49.298302 0.452538
-33.142090 2.242279 -49.298302 0.463719
-19.658783 2.242279 -49.298302 0.500576
-6.175476 2.242279 -49.298302 0.495774
7.307800 2.242279 -49.298302 0.438051
20.791107 2.242279 -49.298302 0.365882
34.274414 2.242279 -49.298302 0.297044
47.757721 2.242279 -49.298302 0.243350
61.240997 2.242279 -49.298302 0.193395
74.724304 2.242279 -49.298302 0.166809
88.207611 2.242279 -49.298302 0.138430
101.690918 2.242279 -49.298302 0.116728
115.174225 2.242279 -49.298302 0.099278
128.657501 2.242279 -49.298302 0.086457
142.140808 2.242279 -49.298302 0.079676
155.624115 2.242279 -49.298302 0.071211
169.107422 2.242279 -49.298302 0.060263
182.590698 2.242279 -49.298302 0.050350
196.074036 2.242279 -49.298302 0.038071
209.557312 2.242279 -49.298302 0.026919
223.040588 2.242279 -49.298302 0.018742
236.523926 2.242279 -49.298302 0.014126
250.007202 2.242279 -49.298302 0.010875
263.490540 2.242279 -49.298302 0.009298
276.973816 2.242279 -49.298302 0.008225
290.457092 2.242279 -49.298302 0.008013
303.940430 2.242279 -49.298302 0.000000
317.423706 2.242279 -49.298302 0.000000
330.907043 2.242279 -49.298302 0.000000
344.390320 2.242279 -49.298302 0.000000
-343.257996 -11.240997 -49.298302 0.000000
-329.774689 -11.240997 -49.298302 0.000000
-316.291382 -11.240997 -49.298302 0.000000
-302.808105 -11.240997 -49.298302 0.031035
-289.324799 -11.240997 -49.298302 0.041467
-275.841492 -11.240997 -49.298302 0.058434
-262.358185 -11.240997 -49.298302 0.088156
-248.874893 -11.240997 -49.298302 0.130522
-235.391602 -11.240997 -49.298302 0.198607
-221.908295 -11.240997 -49.298302 0.283253
-208.424988 -11.240997 -49.298302 0.371972
-194.941696 -11.240997 -49.298302 0.464552
-181.458389 -11.240997 -49.298302 0.511651
-167.975098 -11.240997 -49.298302 0.527225
-154.491791 -11.240997 -49.298302 0.499796
-141.008499 -11.240997 -49.298302 0.493306
-127.525192 -11.240997 -49.298302 0.471186
-114.041885 -11.240997 -49.298302 0.460236
-100.558594 -11.240997 -49.298302 0.440181
-87.075287 -11.240997 -49.298302 0.459033
-73.591980 -11.240997 -49.298302 0.476696
-60.108704 -11.240997 -49.298302 0.472732
-46.625397 -11.240997 -49.298302 0.480822
-33.142090 -11.240997 -49.298302 0.518995
-19.658783 -11.240997 -49.298302 0.553395
-6.175476 -11.240997 -49.298302 0.510974
7.307800 -11.240997 -49.298302 0.467462
20.791107 -11.240997 -49.298302 0.374289
34.274414 -11.240997 -49.298302 0.296726
47.757721 -11.240997 -49.298302 0.240766
61.240997 -11.240997 -49.298302 0.192208
74.724304 -11.240997 -49.298302 0.154868
88.207611 -11.240997 -49.298302 0.128289
101.690918 -11.240997 -49.298302 0.105559
115.174225 -11.240997 -49.298302 0.086891
128.657501 -11.240997 -49.298302 0.081329
142.140808 -11.240997 -49.298302 0.071828
155.624115 -11.240997 -49.298302 0.066161
169.107422 -11.240997 -49.298302 0.057643
182.590698 -11.240997 -49.298302 0.047659
196.074036 -11.240997 -49.298302 0.037342
209.557312 -11.240997 -49.298302 0.027146
223.040588 -11.240997 -49.298302 0.019752
236.523926 -11.240997 -49.298302 0.014151
250.007202 -11.240997 -49.298302 0.010855
263.490540 -11.240997 -49.298302 0.009272
276.973816 -11.240997 -49.298302 0.008080
290.457092 -11.240997 -49.298302 0.007363
303.940430 -11.240997 -49.298302 0.000000
317.423706 -11.240997 -49.298302 0.000000
330.907043 -11.240997 -49.298302 0.000000
344.390320 -11.240997 -49.298302 0.000000
-343.257996 -24.724304 -49.298302 0.000000
-329.774689 -24.724304 -49.298302 0.000000
-316.291382 -24.724304 -49.298302 0.000000
-302.808105 -24.724304 -49.298302 0.038378
-289.324799 -24.724304 -49.298302 0.050235
-275.841492 -24.724304 -49.298302 0.069776
-262.358185 -24.724304 -49.298302 0.103855
-248.874893 -24.724304 -49.298302 0.158540
-235.391602 -24.724304 -49.298302 0.232116
-221.908295 -24.724304 -49.298302 0.337330
-208.424988 -24.724304 -49.298302 0.454236
-194.941696 -24.724304 -49.298302 0.521921
-181.458389 -24.724304 -49.298302 0.551928
-167.975098 -24.724304 -49.298302 0.558667
-154.491791 -24.724304 -49.298302 0.551926
-141.008499 -24.724304 -49.298302 0.494678
-127.525192 -24.724304 -49.298302 0.478094
-114.041885 -24.724304 -49.298302 0.461335
-100.558594 -24.724304 -49.298302 0.439208
-87.075287 -24.724304 -49.298302 0.472193
-73.591980 -24.724304 -49.298302 0.495826
-60.108704 -24.724304 -49.298302 0.500354
-46.625397 -24.724304 -49.298302 0.507191
-33.142090 -24.724304 -49.298302 0.529975
-19.658783 -24.724304 -49.298302 0.553504
-6.175476 -24.724304 -49.298302 0.523564
7.307800 -24.724304 -49.298302 0.469816
20.791107 -24.724304 -49.298302 0.355041
34.274414 -24.724304 -49.298302 0.293976
47.757721 -24.724304 -49.298302 0.238149
61.240997 -24.724304 -49.298302 0.186560
74.724304 -24.724304 -49.298302 0.157150
88.207611 -24.724304 -49.298302 0.114075
101.690918 -24.724304 -49.298302 0.093936
115.174225 -24.724304 -49.298302 0.082354
128.657501 -24.724304 -49.298302 0.076614
142.140808 -24.724304 -49.298302 0.063186
155.624115 -24.724304 -49.298302 0.058761
169.107422 -24.724304 -49.298302 0.049522
182.590698 -24.724304 -49.298302 0.045615
196.074036 -24.724304 -49.298302 0.035958
209.557312 -24.724304 -49.298302 0.025872
223.040588 -24.724304 -49.298302 0.019683
236.523926 -24.724304 -49.298302 0.015188
250.007202 -24.724304 -49.298302 0.011111
263.490540 -24.724304 -49.298302 0.009477
276.973816 -24.724304 -49.298302 0.008171
290.457092 -24.724304 -49.298302 0.007106
303.940430 -24.724304 -49.298302 0.000000
317.423706 -24.724304 -49.298302 0.000000
330.907043 -24.724304 -49.298302 0.000000
344.390320 -24.724304 -49.298302 0.000000
-343.257996 -38.207611 -49.298302 0.000000
-329.774689 -38.207611 -49.298302 0.000000
-316.291382 -38.207611 -49.298302 0.000000
-302.808105 -38.207611 -49.298302 0.051128
-289.324799 -38.207611 -49.298302 0.068134
-275.841492 -38.207611 -49.298302 0.082514
-262.358185 -38.207611 -49.298302 0.125428
-248.874893 -38.207611 -49.298302 0.190211
-235.391602 -38.207611 -49.298302 0.279065
-221.908295 -38.207611 -49.298302 0.375227
-208.424988 -38.207611 -49.298302 0.479904
-194.941696 -38.207611 -49.298302 0.542322
-181.458389 -38.207611 -49.298302 0.532844
-167.975098 -38.207611 -49.298302 0.557041
-154.491791 -38.207611 -49.298302 0.536716
-141.008499 -38.207611 -49.298302 0.487770
-127.525192 -38.207611 -49.298302 0.491392
-114.041885 -38.207611 -49.298302 0.450020
-100.558594 -38.207611 -49.298302 0.441467
-87.075287 -38.207611 -49.298302 0.481627
-73.591980 -38.207611 -49.298302 0.495104
-60.108704 -38.207611 -49.298302 0.490582
-46.625397 -38.207611 -49.298302 0.506508
-33.142090 -38.207611 -49.298302 0.504430
-19.658783 -38.207611 -49.298302 0.531452
-6.175476 -38.207611 -49.298302 0.513716
7.307800 -38.207611 -49.298302 0.420954
20.791107 -38.207611 -49.298302 0.366462
34.274414 -38.207611 -49.298302 0.282070
47.757721 -38.207611 -49.298302 0.222191
61.240997 -38.207611 -49.298302 0.166411
74.724304 -38.207611 -49.298302 0.139666
88.207611 -38.207611 -49.298302 0.106112
101.690918 -38.207611 -49.298302 0.084097
115.174225 -38.207611 -49.298302 0.072250
128.657501 -38.207611 -49.298302 0.064082
142.140808 -38.207611 -49.298302 0.054790
155.624115 -38.207611 -49.298302 0.049438
169.107422 -38.207611 -49.298302 0.048803
182.590698 -38.207611 -49.298302 0.041741
196.074036 -38.207611 -49.298302 0.035156
209.557312 -38.207611 -49.298302 0.025666
223.040588 -38.207611 -49.298302 0.019953
236.523926 -38.207611 -49.298302 0.016190
250.007202 -38.207611 -49.298302 0.011675
263.490540 -38.207611 -49.298302 0.009784
276.973816 -38.207611 -49.298302 0.008045
290.457092 -38.207611 -49.298302 0.006730
303.940430 -38.207611 -49.298302 0.000000
317.423706 -38.207611 -49.298302 0.000000
330.907043 -38.207611 -49.298302 0.000000
344.390320 -38.207611 -49.298302 0.000000
-343.257996 -51.690918 -49.298302 0.000000
-329.774689 -51.690918 -49.298302 0.000000
-316.291382 -51.690918 -49.298302 0.000000
-302.808105 -51.690918 -49.298302 0.000000
-289.324799 -51.690918 -49.298302 0.083268
-275.841492 -51.690918 -49.298302 0.000000
-262.358185 -51.690918 -49.298302 0.000000
-248.874893 -51.690918 -49.298302 0.000000
-235.391602 -51.690918 -49.298302 0.000000
-221.908295 -51.690918 -49.298302 0.000000
-208.424988 -51.690918 -49.298302 0.511660
-194.941696 -51.690918 -49.298302 0.000000
-181.458389 -51.690918 -49.298302 0.578356
-167.975098 -51.690918 -49.298302 0.562474
-154.491791 -51.690918 -49.298302 0.544334
-141.008499 -51.690918 -49.298302 0.500981
-127.525192 -51.690918 -49.298302 0.481311
-114.041885 -51.690918 -49.298302 0.471594
-100.558594 -51.690918 -49.298302 0.470847
-87.075287 -51.690918 -49.298302 0.479336
-73.591980 -51.690918 -49.298302 0.000000
-60.108704 -51.690918 -49.298302 0.476674
-46.625397 -51.690918 -49.298302 0.462708
-33.142090 -51.690918 -49.298302 0.464175
-19.658783 -51.690918 -49.298302 0.475970
-6.175476 -51.690918 -49.298302 0.449291
7.307800 -51.690918 -49.298302 0.381471
20.791107 -51.690918 -49.298302 0.319210
34.274414 -51.690918 -49.298302 0.255214
47.757721 -51.690918 -49.298302 0.199160
61.240997 -51.690918 -49.298302 0.152217
74.724304 -51.690918 -49.298302 0.121001
88.207611 -51.690918 -49.298302 0.088331
101.690918 -51.690918 -49.298302 0.075255
115.174225 -51.690918 -49.298302 0.062422
128.657501 -51.690918 -49.298302 0.057753
142.140808 -51.690918 -49.298302 0.049439
155.624115 -51.690918 -49.298302 0.046129
169.107422 -51.690918 -49.298302 0.044749
182.590698 -51.690918 -49.298302 0.039982
196.074036 -51.690918 -49.298302 0.034025
209.557312 -51.690918 -49.298302 0.025696
223.040588 -51.690918 -49.298302 0.021239
236.523926 -51.690918 -49.298302 0.017371
250.007202 -51.690918 -49.298302 0.012993
263.490540 -51.690918 -49.298302 0.010168
276.973816 -51.690918 -49.298302 0.008697
290.457092 -51.690918 -49.298302 0.007343
303.940430 -51.690918 -49.298302 0.000000
317.423706 -51.690918 -49.298302 0.000000
330.907043 -51.690918 -49.298302 0.000000
344.390320 -51.690918 -49.298302 0.000000
-343.257996 -65.174225 -49.298302 0.000000
-329.774689 -65.174225 -49.298302 0.000000
-316.291382 -65.174225 -49.298302 0.000000
-302.808105 -65.174225 -49.298302 0.000000
-289.324799 -65.174225 -49.298302 0.000000
-275.841492 -65.174225 -49.298302 0.000000
-262.358185 -65.174225 -49.298302 0.000000
-248.874893 -65.174225 -49.298302 0.000000
-235.391602 -65.174225 -49.298302 0.000000
-221.908295 -65.174225 -49.298302 0.450227
-208.424988 -65.174225 -49.298302 0.000000
-194.941696 -65.174225 -49.298302 0.000000
-181.458389 -65.174225 -49.298302 0.584612
-167.975098 -65.174225 -49.298302 0.542712
-154.491791 -65.174225 -49.298302 0.500545
-141.008499 -65.174225 -49.298302 0.503027
-127.525192 -65.174225 -49.298302 0.504897
-114.041885 -65.174225 -49.298302 0.493614
-100.558594 -65.174225 -49.298302 0.472536
-87.075287 -65.174225 -49.298302 0.480058
-73.591980 -65.174225 -49.298302 0.480267
-60.108704 -65.174225 -49.298302 0.475998
-46.625397 -65.174225 -49.298302 0.450789
-33.142090 -65.174225 -49.298302 0.421540
-19.658783 -65.174225 -49.298302 0.416687
-6.175476 -65.174225 -49.298302 0.403141
7.307800 -65.174225 -49.298302 0.349883
20.791107 -65.174225 -49.298302 0.290576
34.274414 -65.174225 -49.298302 0.222052
47.757721 -65.174225 -49.298302 0.173870
61.240997 -65.174225 -49.298302 0.140280
74.724304 -65.174225 -49.298302 0.112538
88.207611 -65.174225 -49.298302 0.084155
101.690918 -65.174225 -49.298302 0.066543
115.174225 -65.174225 -49.298302 0.056277
128.657501 -65.174225 -49.298302 0.049732
142.140808 -65.174225 -49.298302 0.045133
155.624115 -65.174225 -49.298302 0.043863
169.107422 -65.174225 -49.298302 0.041781
182.590698 -65.174225 -49.298302 0.040137
196.074036 -65.174225 -49.298302 0.034652
209.557312 -65.174225 -49.298302 0.030029
223.040588 -65.174225 -49.298302 0.025939
236.523926 -65.174225 -49.298302 0.019366
250.007202 -65.174225 -49.298302 0.014904
263.490540 -65.174225 -49.298302 0.011756
276.973816 -65.174225 -49.298302 0.009953
290.457092 -65.174225 -49.298302 0.008724
303.940430 -65.174225 -49.298302 0.000000
317.423706 -65.174225 -49.298302 0.000000
330.907043 -65.174225 -49.298302 0.000000
344.390320 -65.174225 -49.298302 0.000000
-343.257996 -78.657501 -49.298302 0.000000
-329.774689 -78.657501 -49.298302 0.000000
-316.291382 -78.657501 -49.298302 0.000000
-302.808105 -78.657501 -49.298302 0.000000
-289.324799 -78.657501 -49.298302 0.000000
-275.841492 -78.657501 -49.298302 0.000000
-262.358185 -78.657501 -49.298302 0.000000
-248.874893 -78.657501 -49.298302 0.000000
-235.391602 -78.657501 -49.298302 0.000000
-221.908295 -78.657501 -49.298302 0.000000
-208.424988 -78.657501 -49.298302 0.000000
-194.941696 -78.657501 -49.298302 0.000000
-181.458389 -78.657501 -49.298302 0.000000
-167.975098 -78.657501 -49.298302 0.519501
-154.491791 -78.657501 -49.298302 0.480002
-141.008499 -78.657501 -49.298302 0.478788
-127.525192 -78.657501 -49.298302 0.499367
-114.041885 -78.657501 -49.298302 0.000000
-100.558594 -78.657501 -49.298302 0.000000
-87.075287 -78.657501 -49.298302 0.459689
-73.591980 -78.657501 -49.298302 0.479229
-60.108704 -78.657501 -49.298302 0.445378
-46.625397 -78.657501 -49.298302 0.442479
-33.142090 -78.657501 -49.298302 0.414552
-19.658783 -78.657501 -49.298302 0.393207
-6.175476 -78.657501 -49.298302 0.357352
7.307800 -78.657501 -49.298302 0.306820
20.791107 -78.657501 -49.298302 0.252618
34.274414 -78.657501 -49.298302 0.207161
47.757721 -78.657501 -49.298302 0.165480
61.240997 -78.657501 -49.298302 0.133031
74.724304 -78.657501 -49.298302 0.102795
88.207611 -78.657501 -49.298302 0.079136
101.690918 -78.657501 -49.298302 0.061975
115.174225 -78.657501 -49.298302 0.052297
128.657501 -78.657501 -49.298302 0.049512
142.140808 -78.657501 -49.298302 0.046736
155.624115 -78.657501 -49.298302 0.046685
169.107422 -78.657501 -49.298302 0.046597
182.590698 -78.657501 -49.298302 0.047233
196.074036 -78.657501 -49.298302 0.043169
209.557312 -78.657501 -49.298302 0.038526
223.040588 -78.657501 -49.298302 0.029823
236.523926 -78.657501 -49.298302 0.022271
250.007202 -78.657501 -49.298302 0.017328
263.490540 -78.657501 -49.298302 0.014069
276.973816 -78.657501 -49.298302 0.011479
290.457092 -78.657501 -49.298302 0.012024
303.940430 -78.657501 -49.298302 0.000000
317.423706 -78.657501 -49.298302 0.000000
330.907043 -78.657501 -49.298302 0.000000
344.390320 -78.657501 -49.298302 0.000000
-343.257996 -92.140808 -49.298302 0.000000
-329.774689 -92.140808 -49.298302 0.000000
-316.291382 -92.140808 -49.298302 0.000000
-302.808105 -92.140808 -49.298302 0.000000
-289.324799 -92.140808 -49.298302 0.000000
-275.841492 -92.140808 -49.298302 0.000000
-262.358185 -92.140808 -49.298302 0.000000
-248.874893 -92.140808 -49.298302 0.000000
-235.391602 -92.140808 -49.298302 0.000000
-221.908295 -92.140808 -49.298302 0.000000
-208.424988 -92.140808 -49.298302 0.000000
-194.941696 -92.140808 -49.298302 0.000000
-181.458389 -92.140808 -49.298302 0.000000
-167.975098 -92.140808 -49.298302 0.000000
-154.491791 -92.140808 -49.298302 0.000000
-141.008499 -92.140808 -49.298302 0.000000
-127.525192 -92.140808 -49.298302 0.000000
-114.041885 -92.140808 -49.298302 0.000000
-100.558594 -92.140808 -49.298302 0.000000
-87.075287 -92.140808 -49.298302 0.000000
-73.591980 -92.140808 -49.298302 0.439041
-60.108704 -92.140808 -49.298302 0.438821
-46.625397 -92.140808 -49.298302 0.430764
-33.142090 -92.140808 -49.298302 0.402392
-19.658783 -92.140808 -49.298302 0.352819
-6.175476 -92.140808 -49.298302 0.337549
7.307800 -92.140808 -49.298302 0.287352
20.791107 -92.140808 -49.298302 0.243890
34.274414 -92.140808 -49.298302 0.202119
47.757721 -92.140808 -49.298302 0.165274
61.240997 -92.140808 -49.298302 0.132599
74.724304 -92.140808 -49.298302 0.103325
88.207611 -92.140808 -49.298302 0.079420
101.690918 -92.140808 -49.298302 0.067495
115.174225 -92.140808 -49.298302 0.058240
128.657501 -92.140808 -49.298302 0.053393
142.140808 -92.140808 -49.298302 0.052493
155.624115 -92.140808 -49.298302 0.054145
169.107422 -92.140808 -49.298302 0.056281
182.590698 -92.140808 -49.298302 0.057117
196.074036 -92.140808 -49.298302 0.054134
209.557312 -92.140808 -49.298302 0.047004
223.040588 -92.140808 -49.298302 0.036465
236.523926 -92.140808 -49.298302 0.027245
250.007202 -92.140808 -49.298302 0.021863
263.490540 -92.140808 -49.298302 0.017019
276.973816 -92.140808 -49.298302 0.013793
290.457092 -92.140808 -49.298302 0.014576
303.940430 -92.140808 -49.298302 0.000000
317.423706 -92.140808 -49.298302 0.000000
330.907043 -92.140808 -49.298302 0.000000
344.390320 -92.140808 -49.298302 0.000000
-343.257996 -105.624115 -49.298302 0.000000
-329.774689 -105.624115 -49.298302 0.000000
-316.291382 -105.624115 -49.298302 0.000000
-302.808105 -105.624115 -49.298302 0.000000
-289.324799 -105.624115 -49.298302 0.000000
-275.841492 -105.624115 -49.298302 0.000000
-262.358185 -105.624115 -49.298302 0.000000
-248.874893 -105.624115 -49.298302 0.000000
-235.391602 -105.624115 -49.298302 0.000000
-221.908295 -105.624115 -49.298302 0.000000
-208.424988 -105.624115 -49.298302 0.000000
-194.941696 -105.624115 -49.298302 0.000000
-181.458389 -105.624115 -49.298302 0.000000
-167.975098 -105.624115 -49.298302 0.000000
-154.491791 -105.624115 -49.298302 0.000000
-141.008499 -105.624115 -49.298302 0.396861
-127.525192 -105.624115 -49.298302 0.000000
-114.041885 -105.624115 -49.298302 0.437088
-100.558594 -105.624115 -49.298302 0.000000
-87.075287 -105.624115 -49.298302 0.000000
-73.591980 -105.624115 -49.298302 0.000000
-60.108704 -105.624115 -49.298302 0.000000
-46.625397 -105.624115 -49.298302 0.000000
-33.142090 -105.624115 -49.298302 0.377609
-19.658783 -105.624115 -49.298302 0.334735
-6.175476 -105.624115 -49.298302 0.290798
7.307800 -105.624115 -49.298302 0.287189
20.791107 -105.624115 -49.298302 0.255157
34.274414 -105.624115 -49.298302 0.210896
47.757721 -105.624115 -49.298302 0.167899
61.240997 -105.624115 -49.298302 0.139677
74.724304 -105.624115 -49.298302 0.117733
88.207611 -105.624115 -49.298302 0.098247
101.690918 -105.624115 -49.298302 0.081547
115.174225 -105.624115 -49.298302 0.068437
128.657501 -105.624115 -49.298302 0.061276
142.140808 -105.624115 -49.298302 0.060939
155.624115 -105.624115 -49.298302 0.059891
169.107422 -105.624115 -49.298302 0.063325
182.590698 -105.624115 -49.298302 0.066697
196.074036 -105.624115 -49.298302 0.070108
209.557312 -105.624115 -49.298302 0.061825
223.040588 -105.624115 -49.298302 0.047294
236.523926 -105.624115 -49.298302 0.034573
250.007202 -105.624115 -49.298302 0.026355
263.490540 -105.624115 -49.298302 0.020983
276.973816 -105.624115 -49.298302 0.019532
290.457092 -105.624115 -49.298302 0.018344
303.940430 -105.624115 -49.298302 0.000000
317.423706 -105.624115 -49.298302 0.000000
330.907043 -105.624115 -49.298302 0.000000
344.390320 -105.624115 -49.298302 0.000000
-343.257996 -119.107422 -49.298302 0.000000
-329.774689 -119.107422 -49.298302 0.000000
-316.291382 -119.107422 -49.298302 0.000000
-302.808105 -119.107422 -49.298302 0.000000
-289.324799 -119.107422 -49.298302 0.000000
-275.841492 -119.107422 -49.298302 0.000000
-262.358185 -119.107422 -49.298302 0.000000
-248.874893 -119.107422 -49.298302 0.000000
-235.391602 -119.107422 -49.298302 0.000000
-221.908295 -119.107422 -49.298302 0.000000
-208.424988 -119.107422 -49.298302 0.000000
-194.941696 -119.107422 -49.298302 0.000000
-181.458389 -119.107422 -49.298302 0.000000
-167.975098 -119.107422 -49.298302 0.000000
-154.491791 -119.107422 -49.298302 0.000000
-141.008499 -119.107422 -49.298302 0.000000
-127.525192 -119.107422 -49.298302 0.000000
-114.041885 -119.107422 -49.298302 0.000000
-100.558594 -119.107422 -49.298302 0.000000
-87.075287 -119.107422 -49.298302 0.000000
-73.591980 -119.107422 -49.298302 0.000000
-60.108704 -119.107422 -49.298302 0.000000
-46.625397 -119.107422 -49.298302 0.392576
-33.142090 -119.107422 -49.298302 0.000000
-19.658783 -119.107422 -49.298302 0.306267
-6.175476 -119.107422 -49.298302 0.000000
7.307800 -119.107422 -49.298302 0.000000
20.791107 -119.107422 -49.298302 0.253940
34.274414 -119.107422 -49.298302 0.224419
47.757721 -119.107422 -49.298302 0.193844
61.240997 -119.107422 -49.298302 0.170295
74.724304 -119.107422 -49.298302 0.134787
88.207611 -119.107422 -49.298302 0.114759
101.690918 -119.107422 -49.298302 0.098179
115.174225 -119.107422 -49.298302 0.076517
128.657501 -119.107422 -49.298302 0.069370
142.140808 -119.107422 -49.298302 0.066195
155.624115 -119.107422 -49.298302 0.068177
169.107422 -119.107422 -49.298302 0.076605
182.590698 -119.107422 -49.298302 0.080125
196.074036 -119.107422 -49.298302 0.084721
209.557312 -119.107422 -49.298302 0.076446
223.040588 -119.107422 -49.298302 0.061102
236.523926 -119.107422 -49.298302 0.044948
250.007202 -119.107422 -49.298302 0.034349
263.490540 -119.107422 -49.298302 0.026063
276.973816 -119.107422 -49.298302 0.023856
290.457092 -119.107422 -49.298302 0.025006
303.940430 -119.107422 -49.298302 0.000000
317.423706 -119.107422 -49.298302 0.000000
330.907043 -119.107422 -49.298302 0.000000
344.390320 -119.107422 -49.298302 0.000000
-343.257996 -132.590698 -49.298302 0.000000
-329.774689 -132.590698 -49.298302 0.000000
-316.291382 -132.590698 -49.298302 0.000000
-302.808105 -132.590698 -49.298302 0.000000
-289.324799 -132.590698 -49.298302 0.000000
-275.841492 -132.590698 -49.298302 0.000000
-262.358185 -132.590698 -49.298302 0.000000
-248.874893 -132.590698 -49.298302 0.000000
-235.391602 -132.590698 -49.298302 0.000000
-221.908295 -132.590698 -49.298302 0.000000
-208.424988 -132.590698 -49.298302 0.000000
-194.941696 -132.590698 -49.298302 0.000000
-181.458389 -132.590698 -49.298302 0.000000
-167.975098 -132.590698 -49.298302 0.000000
-154.491791 -132.590698 -49.298302 0.402100
-141.008499 -132.590698 -49.298302 0.000000
-127.525192 -132.590698 -49.298302 0.000000
-114.041885 -132.590698 -49.298302 0.000000
-100.558594 -132.590698 -49.298302 0.000000
-87.075287 -132.590698 -49.298302 0.000000
-73.591980 -132.590698 -49.298302 0.000000
-60.108704 -132.590698 -49.298302 0.000000
-46.625397 -132.590698 -49.298302 0.000000
-33.142090 -132.590698 -49.298302 0.000000
-19.658783 -132.590698 -49.298302 0.000000
-6.175476 -132.590698 -49.298302 0.000000
7.307800 -132.590698 -49.298302 0.000000
20.791107 -132.590698 -49.298302 0.000000
34.274414 -132.590698 -49.298302 0.000000
47.757721 -132.590698 -49.298302 0.000000
61.240997 -132.590698 -49.298302 0.000000
74.724304 -132.590698 -49.298302 0.167826
88.207611 -132.590698 -49.298302 0.137901
101.690918 -132.590698 -49.298302 0.109077
115.174225 -132.590698 -49.298302 0.090999
128.657501 -132.590698 -49.298302 0.078203
142.140808 -132.590698 -49.298302 0.075293
155.624115 -132.590698 -49.298302 0.075664
169.107422 -132.590698 -49.298302 0.082965
182.590698 -132.590698 -49.298302 0.088384
196.074036 -132.590698 -49.298302 0.098673
209.557312 -132.590698 -49.298302 0.097197
223.040588 -132.590698 -49.298302 0.078853
236.523926 -132.590698 -49.298302 0.056268
250.007202 -132.590698 -49.298302 0.045298
263.490540 -132.590698 -49.298302 0.036068
276.973816 -132.590698 -49.298302 0.031007
290.457092 -132.590698 -49.298302 0.031127
303.940430 -132.590698 -49.298302 0.000000
317.423706 -132.590698 -49.298302 0.000000
330.907043 -132.590698 -49.298302 0.000000
344.390320 -132.590698 -49.298302 0.000000
-343.257996 -146.074036 -49.298302 0.000000
-329.774689 -146.074036 -49.298302 0.000000
-316.291382 -146.074036 -49.298302 0.000000
-302.808105 -146.074036 -49.298302 0.000000
-289.324799 -146.074036 -49.298302 0.000000
-275.841492 -146.074036 -49.298302 0.000000
-262.358185 -146.074036 -49.298302 0.000000
-248.874893 -146.074036 -49.298302 0.000000
-235.391602 -146.074036 -49.298302 0.000000
-221.908295 -146.074036 -49.298302 0.000000
-208.424988 -146.074036 -49.298302 0.000000
-194.941696 -146.074036 -49.298302 0.000000
-181.458389 -146.074036 -49.298302 0.000000
-167.975098 -146.074036 -49.298302 0.000000
-154.491791 -146.074036 -49.298302 0.000000
-141.008499 -146.074036 -49.298302 0.000000
-127.525192 -146.074036 -49.298302 0.000000
-114.041885 -146.074036 -49.298302 0.000000
-100.558594 -146.074036 -49.298302 0.000000
-87.075287 -146.074036 -49.298302 0.000000
-73.591980 -146.074036 -49.298302 0.000000
-60.108704 -146.074036 -49.298302 0.000000
-46.625397 -146.074036 -49.298302 0.000000
-33.142090 -146.074036 -49.298302 0.000000
-19.658783 -146.074036 -49.298302 0.000000
-6.175476 -146.074036 -49.298302 0.000000
7.307800 -146.074036 -49.298302 0.000000
20.791107 -146.074036 -49.298302 0.000000
34.274414 -146.074036 -49.298302 0.000000
47.757721 -146.074036 -49.298302 0.000000
61.240997 -146.074036 -49.298302 0.000000
74.724304 -146.074036 -49.298302 0.000000
88.207611 -146.074036 -49.298302 0.000000
101.690918 -146.074036 -49.298302 0.000000
115.174225 -146.074036 -49.298302 0.000000
128.657501 -146.074036 -49.298302 0.000000
142.140808 -146.074036 -49.298302 0.082613
155.624115 -146.074036 -49.298302 0.087038
169.107422 -146.074036 -49.298302 0.092503
182.590698 -146.074036 -49.298302 0.098128
196.074036 -146.074036 -49.298302 0.105060
209.557312 -146.074036 -49.298302 0.107119
223.040588 -146.074036 -49.298302 0.000000
236.523926 -146.074036 -49.298302 0.000000
250.007202 -146.074036 -49.298302 0.063093
263.490540 -146.074036 -49.298302 0.000000
276.973816 -146.074036 -49.298302 0.000000
290.457092 -146.074036 -49.298302 0.000000
303.940430 -146.074036 -49.298302 0.000000
317.423706 -146.074036 -49.298302 0.000000
330.907043 -146.074036 -49.298302 0.000000
344.390320 -146.074036 -49.298302 0.000000
-343.257996 -159.557312 -49.298302 0.000000
-329.774689 -159.557312 -49.298302 0.000000
-316.291382 -159.557312 -49.298302 0.000000
-302.808105 -159.557312 -49.298302 0.000000
-289.324799 -159.557312 -49.298302 0.000000
-275.841492 -159.557312 -49.298302 0.000000
-262.358185 -159.557312 -49.298302 0.000000
-248.874893 -159.557312 -49.298302 0.000000
-235.391602 -159.557312 -49.298302 0.000000
-221.908295 -159.557312 -49.298302 0.000000
-208.424988 -159.557312 -49.298302 0.000000
-194.941696 -159.557312 -49.298302 0.000000
-181.458389 -159.557312 -49.298302 0.000000
-167.975098 -159.557312 -49.298302 0.000000
-154.491791 -159.557312 -49.298302 0.000000
-141.008499 -159.557312 -49.298302 0.000000
-127.525192 -159.557312 -49.298302 0.000000
-114.041885 -159.557312 -49.298302 0.000000
-100.558594 -159.557312 -49.298302 0.000000
-87.075287 -159.557312 -49.298302 0.000000
-73.591980 -159.557312 -49.298302 0.000000
-60.108704 -159.557312 -49.298302 0.000000
-46.625397 -159.557312 -49.298302 0.000000
-33.142090 -159.557312 -49.298302 0.000000
-19.658783 -159.557312 -49.298302 0.000000
-6.175476 -159.557312 -49.298302 0.000000
7.307800 -159.557312 -49.298302 0.000000
20.791107 -159.557312 -49.298302 0.000000
34.274414 -159.557312 -49.298302 0.000000
47.757721 -159.557312 -49.298302 0.000000
61.240997 -159.557312 -49.298302 0.000000
74.724304 -159.557312 -49.298302 0.000000
88.207611 -159.557312 -49.298302 0.000000
101.690918 -159.557312 -49.298302 0.000000
115.174225 -159.557312 -49.298302 0.000000
128.657501 -159.557312 -49.298302 0.000000
142.140808 -159.557312 -49.298302 0.000000
155.624115 -159.557312 -49.298302 0.000000
169.107422 -159.557312 -49.298302 0.000000
182.590698 -159.557312 -49.298302 0.000000
196.074036 -159.557312 -49.298302 0.000000
209.557312 -159.557312 -49.298302 0.000000
223.040588 -159.557312 -49.298302 0.000000
236.523926 -159.557312 -49.298302 0.000000
250.007202 -159.557312 -49.298302 0.000000
263.490540 -159.557312 -49.298302 0.000000
276.973816 -159.557312 -49.298302 0.000000
290.457092 -159.557312 -49.298302 0.000000
303.940430 -159.557312 -49.298302 0.000000
317.423706 -159.557312 -49.298302 0.000000
330.907043 -159.557312 -49.298302 0.000000
344.390320 -159.557312 -49.298302 0.000000
-343.257996 -173.040588 -49.298302 0.000000
-329.774689 -173.040588 -49.298302 0.000000
-316.291382 -173.040588 -49.298302 0.000000
-302.808105 -173.040588 -49.298302 0.000000
-289.324799 -173.040588 -49.298302 0.000000
-275.841492 -173.040588 -49.298302 0.000000
-262.358185 -173.040588 -49.298302 0.000000
-248.874893 -173.040588 -49.298302 0.000000
-235.391602 -173.040588 -49.298302 0.000000
-221.908295 -173.040588 -49.298302 0.000000
-208.424988 -173.040588 -49.298302 0.000000
-194.941696 -173.040588 -49.298302 0.000000
-181.458389 -173.040588 -49.298302 0.000000
-167.975098 -173.040588 -49.298302 0.000000
-154.491791 -173.040588 -49.298302 0.000000
-141.008499 -173.040588 -49.298302 0.000000
-127.525192 -173.040588 -49.298302 0.000000
-114.041885 -173.040588 -49.298302 0.000000
-100.558594 -173.040588 -49.298302 0.000000
-87.075287 -173.040588 -49.298302 0.000000
-73.591980 -173.040588 -49.298302 0.000000
-60.108704 -173.040588 -49.298302 0.000000
-46.625397 -173.040588 -49.298302 0.000000
-33.142090 -173.040588 -49.298302 0.000000
-19.658783 -173.040588 -49.298302 0.000000
-6.175476 -173.040588 -49.298302 0.000000
7.307800 -173.040588 -49.298302 0.000000
20.791107 -173.040588 -49.298302 0.000000
34.274414 -173.040588 -49.298302 0.000000
47.757721 -173.040588 -49.298302 0.000000
61.240997 -173.040588 -49.298302 0.000000
74.724304 -173.040588 -49.298302 0.000000
88.207611 -173.040588 -49.298302 0.000000
101.690918 -173.040588 -49.298302 0.000000
115.174225 -173.040588 -49.298302 0.000000
128.657501 -173.040588 -49.298302 0.000000
142.140808 -173.040588 -49.298302 0.000000
155.624115 -173.040588 -49.298302 0.000000
169.107422 -173.040588 -49.298302 0.000000
182.590698 -173.040588 -49.298302 0.000000
196.074036 -173.040588 -49.298302 0.000000
209.557312 -173.040588 -49.298302 0.000000
223.040588 -173.040588 -49.298302 0.000000
236.523926 -173.040588 -49.298302 0.000000
250.007202 -173.040588 -49.298302 0.000000
263.490540 -173.040588 -49.298302 0.000000
276.973816 -173.040588 -49.298302 0.000000
290.457092 -173.040588 -49.298302 0.000000
303.940430 -173.040588 -49.298302 0.000000
317.423706 -173.040588 -49.298302 0.000000
330.907043 -173.040588 -49.298302 0.000000
344.390320 -173.040588 -49.298302 0.000000
-343.257996 -186.523926 -49.298302 0.000000
-329.774689 -186.523926 -49.298302 0.000000
-316.291382 -186.523926 -49.298302 0.000000
-302.808105 -186.523926 -49.298302 0.000000
-289.324799 -186.523926 -49.298302 0.000000
-275.841492 -186.523926 -49.298302 0.000000
-262.358185 -186.523926 -49.298302 0.000000
-248.874893 -186.523926 -49.298302 0.000000
-235.391602 -186.523926 -49.298302 0.000000
-221.908295 -186.523926 -49.298302 0.000000
-208.424988 -186.523926 -49.298302 0.000000
-194.941696 -186.523926 -49.298302 0.000000
-181.458389 -186.523926 -49.298302 0.000000
-167.975098 -186.523926 -49.298302 0.000000
-154.491791 -186.523926 -49.298302 0.000000
-141.008499 -186.523926 -49.298302 0.000000
-127.525192 -186.523926 -49.298302 0.000000
-114.041885 -186.523926 -49.298302 0.000000
-100.558594 -186.523926 -49.298302 0.000000
-87.075287 -186.523926 -49.298302 0.000000
-73.591980 -186.523926 -49.298302 0.000000
-60.108704 -186.523926 -49.298302 0.000000
-46.625397 -186.523926 -49.298302 0.000000
-33.142090 -186.523926 -49.298302 0.000000
-19.658783 -186.523926 -49.298302 0.000000
-6.175476 -186.523926 -49.298302 0.000000
7.307800 -186.523926 -49.298302 0.000000
20.791107 -186.523926 -49.298302 0.000000
34.274414 -186.523926 -49.298302 0.000000
47.757721 -186.523926 -49.298302 0.000000
61.240997 -186.523926 -49.298302 0.000000
74.724304 -186.523926 -49.298302 0.000000
88.207611 -186.523926 -49.298302 0.000000
101.690918 -186.523926 -49.298302 0.000000
115.174225 -186.523926 -49.298302 0.000000
128.657501 -186.523926 -49.298302 0.000000
142.140808 -186.523926 -49.298302 0.000000
155.624115 -186.523926 -49.298302 0.000000
169.107422 -186.523926 -49.298302 0.000000
182.590698 -186.523926 -49.298302 0.000000
196.074036 -186.523926 -49.298302 0.000000
209.557312 -186.523926 -49.298302 0.000000
223.040588 -186.523926 -49.298302 0.000000
236.523926 -186.523926 -49.298302 0.000000
250.007202 -186.523926 -49.298302 0.000000
263.490540 -186.523926 -49.298302 0.000000
276.973816 -186.523926 -49.298302 0.000000
290.457092 -186.523926 -49.298302 0.000000
303.940430 -186.523926 -49.298302 0.000000
317.423706 -186.523926 -49.298302 0.000000
330.907043 -186.523926 -49.298302 0.000000
344.390320 -186.523926 -49.298302 0.000000
-343.257996 -200.007202 -49.298302 0.000000
-329.774689 -200.007202 -49.298302 0.000000
-316.291382 -200.007202 -49.298302 0.000000
-302.808105 -200.007202 -49.298302 0.000000
-289.324799 -200.007202 -49.298302 0.000000
-275.841492 -200.007202 -49.298302 0.000000
-262.358185 -200.007202 -49.298302 0.000000
-248.874893 -200.007202 -49.298302 0.000000
-235.391602 -200.007202 -49.298302 0.000000
-221.908295 -200.007202 -49.298302 0.000000
-208.424988 -200.007202 -49.298302 0.000000
-194.941696 -200.007202 -49.298302 0.000000
-181.458389 -200.007202 -49.298302 0.000000
-167.975098 -200.007202 -49.298302 0.000000
-154.491791 -200.007202 -49.298302 0.000000
-141.008499 -200.007202 -49.298302 0.000000
-127.525192 -200.007202 -49.298302 0.000000
-114.041885 -200.007202 -49.298302 0.000000
-100.558594 -200.007202 -49.298302 0.000000
-87.075287 -200.007202 -49.298302 0.000000
-73.591980 -200.007202 -49.298302 0.000000
-60.108704 -200.007202 -49.298302 0.000000
-46.625397 -200.007202 -49.298302 0.000000
-33.142090 -200.007202 -49.298302 0.000000
-19.658783 -200.007202 -49.298302 0.000000
-6.175476 -200.007202 -49.298302 0.000000
7.307800 -200.007202 -49.298302 0.000000
20.791107 -200.007202 -49.298302 0.000000
34.274414 -200.007202 -49.298302 0.000000
47.757721 -200.007202 -49.298302 0.000000
61.240997 -200.007202 -49.298302 0.000000
74.724304 -200.007202 -49.298302 0.000000
88.207611 -200.007202 -49.298302 0.000000
101.690918 -200.007202 -49.298302 0.000000
115.174225 -200.007202 -49.298302 0.000000
128.657501 -200.007202 -49.298302 0.000000
142.140808 -200.007202 -49.298302 0.000000
155.624115 -200.007202 -49.298302 0.000000
169.107422 -200.007202 -49.298302 0.000000
182.590698 -200.007202 -49.298302 0.000000
196.074036 -200.007202 -49.298302 0.000000
209.557312 -200.007202 -49.298302 0.000000
223.040588 -200.007202 -49.298302 0.000000
236.523926 -200.007202 -49.298302 0.000000
250.007202 -200.007202 -49.298302 0.000000
263.490540 -200.007202 -49.298302 0.000000
276.973816 -200.007202 -49.298302 0.000000
290.457092 -200.007202 -49.298302 0.000000
303.940430 -200.007202 -49.298302 0.000000
317.423706 -200.007202 -49.298302 0.000000
330.907043 -200.007202 -49.298302 0.000000
344.390320 -200.007202 -49.298302 0.000000
-343.257996 393.257996 -35.815002 0.000000
-329.774689 393.257996 -35.815002 0.000000
-316.291382 393.257996 -35.815002 0.000000
-302.808105 393.257996 -35.815002 0.000000
-289.324799 393.257996 -35.815002 0.000000
-275.841492 393.257996 -35.815002 0.000000
-262.358185 393.257996 -35.815002 0.000000
-248.874893 393.257996 -35.815002 0.000000
-235.391602 393.257996 -35.815002 0.000000
-221.908295 393.257996 -35.815002 0.000000
-208.424988 393.257996 -35.815002 0.000000
-194.941696 393.257996 -35.815002 0.000000
-181.458389 393.257996 -35.815002 0.000000
-167.975098 393.257996 -35.815002 0.000000
-154.491791 393.257996 -35.815002 0.000000
-141.008499 393.257996 -35.815002 0.000000
-127.525192 393.257996 -35.815002 0.000000
-114.041885 393.257996 -35.815002 0.000000
-100.558594 393.257996 -35.815002 0.000000
-87.075287 393.257996 -35.815002 0.000000
-73.591980 393.257996 -35.815002 0.000000
-60.108704 393.257996 -35.815002 0.000000
-46.625397 393.257996 -35.815002 0.000000
-33.142090 393.257996 -35.815002 0.000000
-19.658783 393.257996 -35.815002 0.000000
-6.175476 393.257996 -35.815002 0.000000
7.307800 393.257996 -35.815002 0.000000
20.791107 393.257996 -35.815002 0.000000
34.274414 393.257996 -35.815002 0.000000
47.757721 393.257996 -35.815002 0.000000
61.240997 393.257996 -35.815002 0.000000
74.724304 393.257996 -35.815002 0.000000
88.207611 393.257996 -35.815002 0.000000
101.690918 393.257996 -35.815002 0.000000
115.174225 393.257996 -35.815002 0.000000
128.657501 393.257996 -35.815002 0.000000
142.140808 393.257996 -35.815002 0.000000
155.624115 393.257996 -35.815002 0.000000
169.107422 393.257996 -35.815002 0.000000
182.590698 393.257996 -35.815002 0.000000
196.074036 393.257996 -35.815002 0.000000
209.557312 393.257996 -35.815002 0.000000
223.040588 393.257996 -35.815002 0.000000
236.523926 393.257996 -35.815002 0.000000
250.007202 393.257996 -35.815002 0.000000
263.490540 393.257996 -35.815002 0.000000
276.973816 393.257996 -35.815002 0.000000
290.457092 393.257996 -35.815002 0.000000
303.940430 393.257996 -35.815002 0.000000
317.423706 393.257996 -35.815002 0.000000
330.907043 393.257996 -35.815002 0.000000
344.390320 393.257996 -35.815002 0.000000
-343.257996 379.774689 -35.815002 0.000000
-329.774689 379.774689 -35.815002 0.000000
-316.291382 379.774689 -35.815002 0.000000
-302.808105 379.774689 -35.815002 0.000000
-289.324799 379.774689 -35.815002 0.000000
-275.841492 379.774689 -35.815002 0.000000
-262.358185 379.774689 -35.815002 0.000000
-248.874893 379.774689 -35.815002 0.000000
-235.391602 379.774689 -35.815002 0.000000
-221.908295 379.774689 -35.815002 0.000000
-208.424988 379.774689 -35.815002 0.000000
-194.941696 379.774689 -35.815002 0.000000
-181.458389 379.774689 -35.815002 0.000000
-167.975098 379.774689 -35.815002 0.000000
-154.491791 379.774689 -35.815002 0.000000
-141.008499 379.774689 -35.815002 0.000000
-127.525192 379.774689 -35.815002 0.000000
-114.041885 379.774689 -35.815002 0.000000
-100.558594 379.774689 -35.815002 0.000000
-87.075287 379.774689 -35.815002 0.000000
-73.591980 379.774689 -35.815002 0.000000
-60.108704 379.774689 -35.815002 0.000000
-46.625397 379.774689 -35.815002 0.000000
-33.142090 379.774689 -35.815002 0.000000
-19.658783 379.774689 -35.815002 0.000000
-6.175476 379.774689 -35.815002 0.000000
7.307800 379.774689 -35.815002 0.000000
20.791107 379.774689 -35.815002 0.000000
34.274414 379.774689 -35.815002 0.000000
47.757721 379.774689 -35.815002 0.000000
61.240997 379.774689 -35.815002 0.000000
74.724304 379.774689 -35.815002 0.000000
88.207611 379.774689 -35.815002 0.000000
101.690918 379.774689 -35.815002 0.000000
115.174225 379.774689 -35.815002 0.000000
128.657501 379.774689 -35.815002 0.000000
142.140808 379.774689 -35.815002 0.000000
155.624115 379.774689 -35.815002 0.000000
169.107422 379.774689 -35.815002 0.000000
182.590698 379.774689 -35.815002 0.000000
196.074036 379.774689 -35.815002 0.000000
209.557312 379.774689 -35.815002 0.000000
223.040588 379.774689 -35.815002 0.000000
236.523926 379.774689 -35.815002 0.000000
250.007202 379.774689 -35.815002 0.000000
263.490540 379.774689 -35.815002 0.000000
276.973816 379.774689 -35.815002 0.000000
290.457092 379.774689 -35.815002 0.000000
303.940430 379.774689 -35.815002 0.000000
317.423706 379.774689 -35.815002 0.000000
330.907043 379.774689 -35.815002 0.000000
344.390320 379.774689 -35.815002 0.000000
-343.257996 366.291382 -35.815002 0.000000
-329.774689 366.291382 -35.815002 0.000000
-316.291382 366.291382 -35.815002 0.045922
-302.808105 366.291382 -35.815002 0.000000
-289.324799 366.291382 -35.815002 0.000000
-275.841492 366.291382 -35.815002 0.000000
-262.358185 366.291382 -35.815002 0.000000
-248.874893 366.291382 -35.815002 0.000000
-235.391602 366.291382 -35.815002 0.000000
-221.908295 366.291382 -35.815002 0.000000
-208.424988 366.291382 -35.815002 0.000000
-194.941696 366.291382 -35.815002 0.000000
-181.458389 366.291382 -35.815002 0.000000
-167.975098 366.291382 -35.815002 0.000000
-154.491791 366.291382 -35.815002 0.000000
-141.008499 366.291382 -35.815002 0.000000
-127.525192 366.291382 -35.815002 0.000000
-114.041885 366.291382 -35.815002 0.000000
-100.558594 366.291382 -35.815002 0.000000
-87.075287 366.291382 -35.815002 0.000000
-73.591980 366.291382 -35.815002 0.000000
-60.108704 366.291382 -35.815002 0.000000
-46.625397 366.291382 -35.815002 0.000000
-33.142090 366.291382 -35.815002 0.000000
-19.658783 366.291382 -35.815002 0.000000
-6.175476 366.291382 -35.815002 0.000000
7.307800 366.291382 -35.815002 0.000000
20.791107 366.291382 -35.815002 0.000000
34.274414 366.291382 -35.815002 0.000000
47.757721 366.291382 -35.815002 0.000000
61.240997 366.291382 -35.815002 0.000000
74.724304 366.291382 -35.815002 0.000000
88.207611 366.291382 -35.815002 0.000000
101.690918 366.291382 -35.815002 0.000000
115.174225 366.291382 -35.815002 0.000000
128.657501 366.291382 -35.815002 0.000000
142.140808 366.291382 -35.815002 0.000000
155.624115 366.291382 -35.815002 0.000000
169.107422 366.291382 -35.815002 0.000000
182.590698 366.291382 -35.815002 0.000000
196.074036 366.291382 -35.815002 0.000000
209.557312 366.291382 -35.815002 0.000000
223.040588 366.291382 -35.815002 0.000000
236.523926 366.291382 -35.815002 0.000000
250.007202 366.291382 -35.815002 0.000000
263.490540 366.291382 -35.815002 0.000000
276.973816 366.291382 -35.815002 0.000000
290.457092 366.291382 -35.815002 0.000000
303.940430 366.291382 -35.815002 0.000000
317.423706 366.291382 -35.815002 0.000000
330.907043 366.291382 -35.815002 0.000000
344.390320 366.291382 -35.815002 0.000000
-343.257996 352.808105 -35.815002 0.000000
-329.774689 352.808105 -35.815002 0.000000
-316.291382 352.808105 -35.815002 0.000000
-302.808105 352.808105 -35.815002 0.024025
-289.324799 352.808105 -35.815002 0.027002
-275.841492 352.808105 -35.815002 0.029135
-262.358185 352.808105 -35.815002 0.036909
-248.874893 352.808105 -35.815002 0.041900
-235.391602 352.808105 -35.815002 0.055683
-221.908295 352.808105 -35.815002 0.077329
-208.424988 352.808105 -35.815002 0.097938
-194.941696 352.808105 -35.815002 0.120334
-181.458389 352.808105 -35.815002 0.000000
-167.975098 352.808105 -35.815002 0.000000
-154.491791 352.808105 -35.815002 0.000000
-141.008499 352.808105 -35.815002 0.000000
-127.525192 352.808105 -35.815002 0.000000
-114.041885 352.808105 -35.815002 0.000000
-100.558594 352.808105 -35.815002 0.000000
-87.075287 352.808105 -35.815002 0.000000
-73.591980 352.808105 -35.815002 0.000000
-60.108704 352.808105 -35.815002 0.000000
-46.625397 352.808105 -35.815002 0.000000
-33.142090 352.808105 -35.815002 0.000000
-19.658783 352.808105 -35.815002 0.000000
-6.175476 352.808105 -35.815002 0.000000
7.307800 352.808105 -35.815002 0.000000
20.791107 352.808105 -35.815002 0.000000
34.274414 352.808105 -35.815002 0.088779
47.757721 352.808105 -35.815002 0.075903
61.240997 352.808105 -35.815002 0.068567
74.724304 352.808105 -35.815002 0.000000
88.207611 352.808105 -35.815002 0.000000
101.690918 352.808105 -35.815002 0.000000
115.174225 352.808105 -35.815002 0.000000
128.657501 352.808105 -35.815002 0.000000
142.140808 352.808105 -35.815002 0.000000
155.624115 352.808105 -35.815002 0.000000
169.107422 352.808105 -35.815002 0.000000
182.590698 352.808105 -35.815002 0.000000
196.074036 352.808105 -35.815002 0.000000
209.557312 352.808105 -35.815002 0.000000
223.040588 352.808105 -35.815002 0.000000
236.523926 352.808105 -35.815002 0.000000
250.007202 352.808105 -35.815002 0.000000
263.490540 352.808105 -35.815002 0.000000
276.973816 352.808105 -35.815002 0.000000
290.457092 352.808105 -35.815002 0.000000
303.940430 352.808105 -35.815002 0.000000
317.423706 352.808105 -35.815002 0.000000
330.907043 352.808105 -35.815002 0.000000
344.390320 352.808105 -35.815002 0.000000
-343.257996 339.324799 -35.815002 0.000000
-329.774689 339.324799 -35.815002 0.000000
-316.291382 339.324799 -35.815002 0.017860
-302.808105 339.324799 -35.815002 0.019394
-289.324799 339.324799 -35.815002 0.023896
-275.841492 339.324799 -35.815002 0.026706
-262.358185 339.324799 -35.815002 0.033982
-248.874893 339.324799 -35.815002 0.042715
-235.391602 339.324799 -35.815002 0.057900
-221.908295 339.324799 -35.815002 0.075295
-208.424988 339.324799 -35.815002 0.106030
-194.941696 339.324799 -35.815002 0.130068
-181.458389 339.324799 -35.815002 0.157090
-167.975098 339.324799 -35.815002 0.188574
-154.491791 339.324799 -35.815002 0.245359
-141.008499 339.324799 -35.815002 0.294736
-127.525192 339.324799 -35.815002 0.319736
-114.041885 339.324799 -35.815002 0.349410
-100.558594 339.324799 -35.815002 0.367275
-87.075287 339.324799 -35.815002 0.377689
-73.591980 339.324799 -35.815002 0.353070
-60.108704 339.324799 -35.815002 0.322989
-46.625397 339.324799 -35.815002 0.317785
-33.142090 339.324799 -35.815002 0.278267
-19.658783 339.324799 -35.815002 0.224050
-6.175476 339.324799 -35.815002 0.185655
7.307800 339.324799 -35.815002 0.143495
20.791107 339.324799 -35.815002 0.116487
34.274414 339.324799 -35.815002 0.095784
47.757721 339.324799 -35.815002 0.088046
61.240997 339.324799 -35.815002 0.082152
74.724304 339.324799 -35.815002 0.088216
88.207611 339.324799 -35.815002 0.110970
101.690918 339.324799 -35.815002 0.138189
115.174225 339.324799 -35.815002 0.185120
128.657501 339.324799 -35.815002 0.223601
142.140808 339.324799 -35.815002 0.252462
155.624115 339.324799 -35.815002 0.266378
169.107422 339.324799 -35.815002 0.263100
182.590698 339.324799 -35.815002 0.269325
196.074036 339.324799 -35.815002 0.261731
209.557312 339.324799 -35.815002 0.245820
223.040588 339.324799 -35.815002 0.225683
236.523926 339.324799 -35.815002 0.191274
250.007202 339.324799 -35.815002 0.164220
263.490540 339.324799 -35.815002 0.142131
276.973816 339.324799 -35.815002 0.125442
290.457092 339.324799 -35.815002 0.000000
303.940430 339.324799 -35.815002 0.000000
317.423706 339.324799 -35.815002 0.000000
330.907043 339.324799 -35.815002 0.000000
344.390320 339.324799 -35.815002 0.000000
-343.257996 325.841492 -35.815002 0.000000
-329.774689 325.841492 -35.815002 0.000000
-316.291382 325.841492 -35.815002 0.015047
-302.808105 325.841492 -35.815002 0.016999
-289.324799 325.841492 -35.815002 0.021486
-275.841492 325.841492 -35.815002 0.026299
-262.358185 325.841492 -35.815002 0.033547
-248.874893 325.841492 -35.815002 0.042820
-235.391602 325.841492 -35.815002 0.056358
-221.908295 325.841492 -35.815002 0.072553
-208.424988 325.841492 -35.815002 0.096106
-194.941696 325.841492 -35.815002 0.124016
-181.458389 325.841492 -35.815002 0.158683
-167.975098 325.841492 -35.815002 0.195170
-154.491791 325.841492 -35.815002 0.247548
-141.008499 325.841492 -35.815002 0.279616
-127.525192 325.841492 -35.815002 0.301111
-114.041885 325.841492 -35.815002 0.315325
-100.558594 325.841492 -35.815002 0.337297
-87.075287 325.841492 -35.815002 0.345343
-73.591980 325.841492 -35.815002 0.334174
-60.108704 325.841492 -35.815002 0.298188
-46.625397 325.841492 -35.815002 0.290429
-33.142090 325.841492 -35.815002 0.277832
-19.658783 325.841492 -35.815002 0.233495
-6.175476 325.841492 -35.815002 0.200654
7.307800 325.841492 -35.815002 0.159739
20.791107 325.841492 -35.815002 0.124575
34.274414 325.841492 -35.815002 0.105166
47.757721 325.841492 -35.815002 0.104469
61.240997 325.841492 -35.815002 0.101095
74.724304 325.841492 -35.815002 0.108981
88.207611 325.841492 -35.815002 0.137261
101.690918 325.841492 -35.815002 0.179106
115.174225 325.841492 -35.815002 0.239432
128.657501 325.841492 -35.815002 0.272208
142.140808 325.841492 -35.815002 0.281439
155.624115 325.841492 -35.815002 0.306196
169.107422 325.841492 -35.815002 0.303107
182.590698 325.841492 -35.815002 0.284414
196.074036 325.841492 -35.815002 0.273708
209.557312 325.841492 -35.815002 0.261191
223.040588 325.841492 -35.815002 0.230212
236.523926 325.841492 -35.815002 0.192910
250.007202 325.841492 -35.815002 0.165897
263.490540 325.841492 -35.815002 0.136931
276.973816 325.841492 -35.815002 0.114738
290.457092 325.841492 -35.815002 0.106275
303.940430 325.841492 -35.815002 0.000000
317.423706 325.841492 -35.815002 0.000000
330.907043 325.841492 -35.815002 0.000000
344.390320 325.841492 -35.815002 0.000000
-343.257996 312.358185 -35.815002 0.000000
-329.774689 312.358185 -35.815002 0.000000
-316.291382 312.358185 -35.815002 0.013193
-302.808105 312.358185 -35.815002 0.015190
-289.324799 312.358185 -35.815002 0.019464
-275.841492 312.358185 -35.815002 0.026059
-262.358185 312.358185 -35.815002 0.034031
-248.874893 312.358185 -35.815002 0.044096
-235.391602 312.358185 -35.815002 0.058788
-221.908295 312.358185 -35.815002 0.078235
-208.424988 312.358185 -35.815002 0.099923
-194.941696 312.358185 -35.815002 0.124234
-181.458389 312.358185 -35.815002 0.148163
-167.975098 312.358185 -35.815002 0.186833
-154.491791 312.358185 -35.815002 0.228212
-141.008499 312.358185 -35.815002 0.264681
-127.525192 312.358185 -35.815002 0.277484
-114.041885 312.358185 -35.815002 0.297265
-100.558594 312.358185 -35.815002 0.320409
-87.075287 312.358185 -35.815002 0.321104
-73.591980 312.358185 -35.815002 0.320735
-60.108704 312.358185 -35.815002 0.291477
-46.625397 312.358185 -35.815002 0.271023
-33.142090 312.358185 -35.815002 0.258123
-19.658783 312.358185 -35.815002 0.234430
-6.175476 312.358185 -35.815002 0.206986
7.307800 312.358185 -35.815002 0.167017
20.791107 312.358185 -35.815002 0.142090
34.274414 312.358185 -35.815002 0.118641
47.757721 312.358185 -35.815002 0.116265
61.240997 312.358185 -35.815002 0.119417
74.724304 312.358185 -35.815002 0.133814
88.207611 312.358185 -35.815002 0.170362
101.690918 312.358185 -35.815002 0.236983
115.174225 312.358185 -35.815002 0.299539
128.657501 312.358185 -35.815002 0.322068
142.140808 312.358185 -35.815002 0.332751
155.624115 312.358185 -35.815002 0.333227
169.107422 312.358185 -35.815002 0.313919
182.590698 312.358185 -35.815002 0.292518
196.074036 312.358185 -35.815002 0.288531
209.557312 312.358185 -35.815002 0.264832
223.040588 312.358185 -35.815002 0.229064
236.523926 312.358185 -35.815002 0.193146
250.007202 312.358185 -35.815002 0.156048
263.490540 312.358185 -35.815002 0.128748
276.973816 312.358185 -35.815002 0.104685
290.457092 312.358185 -35.815002 0.097034
303.940430 312.358185 -35.815002 0.000000
317.423706 312.358185 -35.815002 0.000000
330.907043 312.358185 -35.815002 0.000000
344.390320 312.358185 -35.815002 0.000000
-343.257996 298.874878 -35.815002 0.000000
-329.774689 298.874878 -35.815002 0.000000
-316.291382 298.874878 -35.815002 0.012145
-302.808105 298.874878 -35.815002 0.014958
-289.324799 298.874878 -35.815002 0.018872
-275.841492 298.874878 -35.815002 0.025656
-262.358185 298.874878 -35.815002 0.033926
-248.874893 298.874878 -35.815002 0.045802
-235.391602 298.874878 -35.815002 0.064655
-221.908295 298.874878 -35.815002 0.083730
-208.424988 298.874878 -35.815002 0.106248
-194.941696 298.874878 -35.815002 0.124692
-181.458389 298.874878 -35.815002 0.144970
-167.975098 298.874878 -35.815002 0.175297
-154.491791 298.874878 -35.815002 0.216523
-141.008499 298.874878 -35.815002 0.247995
-127.525192 298.874878 -35.815002 0.270167
-114.041885 298.874878 -35.815002 0.293886
-100.558594 298.874878 -35.815002 0.301669
-87.075287 298.874878 -35.815002 0.306105
-73.591980 298.874878 -35.815002 0.293783
-60.108704 298.874878 -35.815002 0.282771
-46.625397 298.874878 -35.815002 0.244889
-33.142090 298.874878 -35.815002 0.239364
-19.658783 298.874878 -35.815002 0.227888
-6.175476 298.874878 -35.815002 0.204949
7.307800 298.874878 -35.815002 0.181987
20.791107 298.874878 -35.815002 0.155124
34.274414 298.874878 -35.815002 0.136411
47.757721 298.874878 -35.815002 0.134930
61.240997 298.874878 -35.815002 0.140122
74.724304 298.874878 -35.815002 0.156507
88.207611 298.874878 -35.815002 0.215260
101.690918 298.874878 -35.815002 0.302667
115.174225 298.874878 -35.815002 0.337892
128.657501 298.874878 -35.815002 0.362904
142.140808 298.874878 -35.815002 0.345846
155.624115 298.874878 -35.815002 0.322349
169.107422 298.874878 -35.815002 0.306250
182.590698 298.874878 -35.815002 0.284290
196.074036 298.874878 -35.815002 0.278244
209.557312 298.874878 -35.815002 0.254772
223.040588 298.874878 -35.815002 0.230566
236.523926 298.874878 -35.815002 0.188330
250.007202 298.874878 -35.815002 0.146187
263.490540 298.874878 -35.815002 0.116319
276.973816 298.874878 -35.815002 0.095950
290.457092 298.874878 -35.815002 0.078670
303.940430 298.874878 -35.815002 0.000000
317.423706 298.874878 -35.815002 0.000000
330.907043 298.874878 -35.815002 0.000000
344.390320 298.874878 -35.815002 0.000000
-343.257996 285.391602 -35.815002 0.000000
-329.774689 285.391602 -35.815002 0.000000
-316.291382 285.391602 -35.815002 0.011948
-302.808105 285.391602 -35.815002 0.014140
-289.324799 285.391602 -35.815002 0.017789
-275.841492 285.391602 -35.815002 0.024372
-262.358185 285.391602 -35.815002 0.033371
-248.874893 285.391602 -35.815002 0.046348
-235.391602 285.391602 -35.815002 0.063917
-221.908295 285.391602 -35.815002 0.090585
-208.424988 285.391602 -35.815002 0.111551
-194.941696 285.391602 -35.815002 0.127965
-181.458389 285.391602 -35.815002 0.147613
-167.975098 285.391602 -35.815002 0.173754
-154.491791 285.391602 -35.815002 0.211086
-141.008499 285.391602 -35.815002 0.231022
-127.525192 285.391602 -35.815002 0.250160
-114.041885 285.391602 -35.815002 0.280591
-100.558594 285.391602 -35.815002 0.280818
-87.075287 285.391602 -35.815002 0.291553
-73.591980 285.391602 -35.815002 0.288660
-60.108704 285.391602 -35.815002 0.262186
-46.625397 285.391602 -35.815002 0.247768
-33.142090 285.391602 -35.815002 0.242200
-19.658783 285.391602 -35.815002 0.230347
-6.175476 285.391602 -35.815002 0.206740
7.307800 285.391602 -35.815002 0.204854
20.791107 285.391602 -35.815002 0.176096
34.274414 285.391602 -35.815002 0.167828
47.757721 285.391602 -35.815002 0.154632
61.240997 285.391602 -35.815002 0.173087
74.724304 285.391602 -35.815002 0.209509
88.207611 285.391602 -35.815002 0.274821
101.690918 285.391602 -35.815002 0.342857
115.174225 285.391602 -35.815002 0.369895
128.657501 285.391602 -35.815002 0.374788
142.140808 285.391602 -35.815002 0.366192
155.624115 285.391602 -35.815002 0.328697
169.107422 285.391602 -35.815002 0.298510
182.590698 285.391602 -35.815002 0.267993
196.074036 285.391602 -35.815002 0.253209
209.557312 285.391602 -35.815002 0.229931
223.040588 285.391602 -35.815002 0.214861
236.523926 285.391602 -35.815002 0.181814
250.007202 285.391602 -35.815002 0.134067
263.490540 285.391602 -35.815002 0.105600
276.973816 285.391602 -35.815002 0.082811
290.457092 285.391602 -35.815002 0.063079
303.940430 285.391602 -35.815002 0.054153
317.423706 285.391602 -35.815002 0.000000
330.907043 285.391602 -35.815002 0.000000
344.390320 285.391602 -35.815002 0.000000
-343.257996 271.908295 -35.815002 0.000000
-329.774689 271.908295 -35.815002 0.000000
-316.291382 271.908295 -35.815002 0.010905
-302.808105 271.908295 -35.815002 0.014152
-289.324799 271.908295 -35.815002 0.017924
-275.841492 271.908295 -35.815002 0.025626
-262.358185 271.908295 -35.815002 0.035054
-248.874893 271.908295 -35.815002 0.047704
-235.391602 271.908295 -35.815002 0.067838
-221.908295 271.908295 -35.815002 0.091938
-208.424988 271.908295 -35.815002 0.114088
-194.941696 271.908295 -35.815002 0.132856
-181.458389 271.908295 -35.815002 0.154836
-167.975098 271.908295 -35.815002 0.173511
-154.491791 271.908295 -35.815002 0.206902
-141.008499 271.908295 -35.815002 0.227221
-127.525192 271.908295 -35.815002 0.243481
-114.041885 271.908295 -35.815002 0.259223
-100.558594 271.908295 -35.815002 0.268184
-87.075287 271.908295 -35.815002 0.284426
-73.591980 271.908295 -35.815002 0.282392
-60.108704 271.908295 -35.815002 0.265848
-46.625397 271.908295 -35.815002 0.246982
-33.142090 271.908295 -35.815002 0.250994
-19.658783 271.908295 -35.815002 0.246349
-6.175476 271.908295 -35.815002 0.211554
7.307800 271.908295 -35.815002 0.194416
20.791107 271.908295 -35.815002 0.198709
34.274414 271.908295 -35.815002 0.196619
47.757721 271.908295 -35.815002 0.189659
61.240997 271.908295 -35.815002 0.226185
74.724304 271.908295 -35.815002 0.256809
88.207611 271.908295 -35.815002 0.317411
101.690918 271.908295 -35.815002 0.369539
115.174225 271.908295 -35.815002 0.404451
128.657501 271.908295 -35.815002 0.394891
142.140808 271.908295 -35.815002 0.353792
155.624115 271.908295 -35.815002 0.304247
169.107422 271.908295 -35.815002 0.291612
182.590698 271.908295 -35.815002 0.278316
196.074036 271.908295 -35.815002 0.227983
209.557312 271.908295 -35.815002 0.211032
223.040588 271.908295 -35.815002 0.196217
236.523926 271.908295 -35.815002 0.173909
250.007202 271.908295 -35.815002 0.127082
263.490540 271.908295 -35.815002 0.100620
276.973816 271.908295 -35.815002 0.073438
290.457092 271.908295 -35.815002 0.055156
303.940430 271.908295 -35.815002 0.044053
317.423706 271.908295 -35.815002 0.000000
330.907043 271.908295 -35.815002 0.000000
344.390320 271.908295 -35.815002 0.000000
-343.257996 258.424988 -35.815002 0.000000
-329.774689 258.424988 -35.815002 0.000000
-316.291382 258.424988 -35.815002 0.010741
-302.808105 258.424988 -35.815002 0.014467
-289.324799 258.424988 -35.815002 0.018975
-275.841492 258.424988 -35.815002 0.028725
-262.358185 258.424988 -35.815002 0.038830
-248.874893 258.424988 -35.815002 0.050360
-235.391602 258.424988 -35.815002 0.071394
-221.908295 258.424988 -35.815002 0.094474
-208.424988 258.424988 -35.815002 0.119969
-194.941696 258.424988 -35.815002 0.145253
-181.458389 258.424988 -35.815002 0.161394
-167.975098 258.424988 -35.815002 0.184992
-154.491791 258.424988 -35.815002 0.217138
-141.008499 258.424988 -35.815002 0.245739
-127.525192 258.424988 -35.815002 0.257808
-114.041885 258.424988 -35.815002 0.274077
-100.558594 258.424988 -35.815002 0.293399
-87.075287 258.424988 -35.815002 0.278775
-73.591980 258.424988 -35.815002 0.272769
-60.108704 258.424988 -35.815002 0.266763
-46.625397 258.424988 -35.815002 0.253460
-33.142090 258.424988 -35.815002 0.258475
-19.658783 258.424988 -35.815002 0.249674
-6.175476 258.424988 -35.815002 0.227564
7.307800 258.424988 -35.815002 0.221915
20.791107 258.424988 -35.815002 0.214260
34.274414 258.424988 -35.815002 0.223794
47.757721 258.424988 -35.815002 0.227004
61.240997 258.424988 -35.815002 0.258054
74.724304 258.424988 -35.815002 0.310421
88.207611 258.424988 -35.815002 0.361198
101.690918 258.424988 -35.815002 0.395776
115.174225 258.424988 -35.815002 0.373066
128.657501 258.424988 -35.815002 0.349548
142.140808 258.424988 -35.815002 0.315230
155.624115 258.424988 -35.815002 0.280419
169.107422 258.424988 -35.815002 0.279679
182.590698 258.424988 -35.815002 0.267128
196.074036 258.424988 -35.815002 0.230443
209.557312 258.424988 -35.815002 0.202789
223.040588 258.424988 -35.815002 0.181836
236.523926 258.424988 -35.815002 0.153282
250.007202 258.424988 -35.815002 0.118823
263.490540 258.424988 -35.815002 0.091691
276.973816 258.424988 -35.815002 0.062562
290.457092 258.424988 -35.815002 0.045043
303.940430 258.424988 -35.815002 0.032922
317.423706 258.424988 -35.815002 0.025307
330.907043 258.424988 -35.815002 0.000000
344.390320 258.424988 -35.815002 0.000000
-343.257996 244.941696 -35.815002 0.000000
-329.774689 244.941696 -35.815002 0.000000
-316.291382 244.941696 -35.815002 0.011226
-302.808105 244.941696 -35.815002 0.014969
-289.324799 244.941696 -35.815002 0.021141
-275.841492 244.941696 -35.815002 0.030628
-262.358185 244.941696 -35.815002 0.041201
-248.874893 244.941696 -35.815002 0.057286
-235.391602 244.941696 -35.815002 0.076062
-221.908295 244.941696 -35.815002 0.099753
-208.424988 244.941696 -35.815002 0.130032
-194.941696 244.941696 -35.815002 0.156978
-181.458389 244.941696 -35.815002 0.188914
-167.975098 244.941696 -35.815002 0.207129
-154.491791 244.941696 -35.815002 0.245615
-141.008499 244.941696 -35.815002 0.257354
-127.525192 244.941696 -35.815002 0.272847
-114.041885 244.941696 -35.815002 0.295099
-100.558594 244.941696 -35.815002 0.323390
-87.075287 244.941696 -35.815002 0.301251
-73.591980 244.941696 -35.815002 0.276017
-60.108704 244.941696 -35.815002 0.264769
-46.625397 244.941696 -35.815002 0.261706
-33.142090 244.941696 -35.815002 0.256972
-19.658783 244.941696 -35.815002 0.262936
-6.175476 244.941696 -35.815002 0.246835
7.307800 244.941696 -35.815002 0.244668
20.791107 244.941696 -35.815002 0.249999
34.274414 244.941696 -35.815002 0.251529
47.757721 244.941696 -35.815002 0.276810
61.240997 244.941696 -35.815002 0.291458
74.724304 244.941696 -35.815002 0.344040
88.207611 244.941696 -35.815002 0.418709
101.690918 244.941696 -35.815002 0.406549
115.174225 244.941696 -35.815002 0.356878
128.657501 244.941696 -35.815002 0.309526
142.140808 244.941696 -35.815002 0.280111
155.624115 244.941696 -35.815002 0.290448
169.107422 244.941696 -35.815002 0.267732
182.590698 244.941696 -35.815002 0.261771
196.074036 244.941696 -35.815002 0.231011
209.557312 244.941696 -35.815002 0.194266
223.040588 244.941696 -35.815002 0.168246
236.523926 244.941696 -35.815002 0.132568
250.007202 244.941696 -35.815002 0.111256
263.490540 244.941696 -35.815002 0.086965
276.973816 244.941696 -35.815002 0.060190
290.457092 244.941696 -35.815002 0.038684
303.940430 244.941696 -35.815002 0.024708
317.423706 244.941696 -35.815002 0.018746
330.907043 244.941696 -35.815002 0.000000
344.390320 244.941696 -35.815002 0.000000
-343.257996 231.458389 -35.815002 0.000000
-329.774689 231.458389 -35.815002 0.000000
-316.291382 231.458389 -35.815002 0.011091
-302.808105 231.458389 -35.815002 0.014704
-289.324799 231.458389 -35.815002 0.022436
-275.841492 231.458389 -35.815002 0.031271
-262.358185 231.458389 -35.815002 0.045075
-248.874893 231.458389 -35.815002 0.059397
-235.391602 231.458389 -35.815002 0.084599
-221.908295 231.458389 -35.815002 0.119096
-208.424988 231.458389 -35.815002 0.150284
-194.941696 231.458389 -35.815002 0.178273
-181.458389 231.458389 -35.815002 0.208555
-167.975098 231.458389 -35.815002 0.243218
-154.491791 231.458389 -35.815002 0.271952
-141.008499 231.458389 -35.815002 0.303095
-127.525192 231.458389 -35.815002 0.311489
-114.041885 231.458389 -35.815002 0.335710
-100.558594 231.458389 -35.815002 0.346496
-87.075287 231.458389 -35.815002 0.308551
-73.591980 231.458389 -35.815002 0.276633
-60.108704 231.458389 -35.815002 0.259445
-46.625397 231.458389 -35.815002 0.251591
-33.142090 231.458389 -35.815002 0.263371
-19.658783 231.458389 -35.815002 0.265355
-6.175476 231.458389 -35.815002 0.257772
7.307800 231.458389 -35.815002 0.263692
20.791107 231.458389 -35.815002 0.286885
34.274414 231.458389 -35.815002 0.286632
47.757721 231.458389 -35.815002 0.319418
61.240997 231.458389 -35.815002 0.345055
74.724304 231.458389 -35.815002 0.390157
88.207611 231.458389 -35.815002 0.426569
101.690918 231.458389 -35.815002 0.410564
115.174225 231.458389 -35.815002 0.350668
128.657501 231.458389 -35.815002 0.300422
142.140808 231.458389 -35.815002 0.270461
155.624115 231.458389 -35.815002 0.271987
169.107422 231.458389 -35.815002 0.252374
182.590698 231.458389 -35.815002 0.243647
196.074036 231.458389 -35.815002 0.206527
209.557312 231.458389 -35.815002 0.181887
223.040588 231.458389 -35.815002 0.148470
236.523926 231.458389 -35.815002 0.126111
250.007202 231.458389 -35.815002 0.104631
263.490540 231.458389 -35.815002 0.080583
276.973816 231.458389 -35.815002 0.052976
290.457092 231.458389 -35.815002 0.033083
303.940430 231.458389 -35.815002 0.021405
317.423706 231.458389 -35.815002 0.015180
330.907043 231.458389 -35.815002 0.000000
344.390320 231.458389 -35.815002 0.000000
-343.257996 217.975098 -35.815002 0.000000
-329.774689 217.975098 -35.815002 0.000000
-316.291382 217.975098 -35.815002 0.011085
-302.808105 217.975098 -35.815002 0.015805
-289.324799 217.975098 -35.815002 0.023661
-275.841492 217.975098 -35.815002 0.033459
-262.358185 217.975098 -35.815002 0.046652
-248.874893 217.975098 -35.815002 0.069252
-235.391602 217.975098 -35.815002 0.095396
-221.908295 217.975098 -35.815002 0.129979
-208.424988 217.975098 -35.815002 0.170577
-194.941696 217.975098 -35.815002 0.211144
-181.458389 217.975098 -35.815002 0.250118
-167.975098 217.975098 -35.815002 0.279902
-154.491791 217.975098 -35.815002 0.324139
-141.008499 217.975098 -35.815002 0.361247
-127.525192 217.975098 -35.815002 0.371691
-114.041885 217.975098 -35.815002 0.396840
-100.558594 217.975098 -35.815002 0.375404
-87.075287 217.975098 -35.815002 0.339712
-73.591980 217.975098 -35.815002 0.298738
-60.108704 217.975098 -35.815002 0.265550
-46.625397 217.975098 -35.815002 0.241662
-33.142090 217.975098 -35.815002 0.262077
-19.658783 217.975098 -35.815002 0.268057
-6.175476 217.975098 -35.815002 0.275385
7.307800 217.975098 -35.815002 0.297936
20.791107 217.975098 -35.815002 0.317459
34.274414 217.975098 -35.815002 0.327396
47.757721 217.975098 -35.815002 0.344764
61.240997 217.975098 -35.815002 0.373899
74.724304 217.975098 -35.815002 0.396132
88.207611 217.975098 -35.815002 0.386610
101.690918 217.975098 -35.815002 0.361435
115.174225 217.975098 -35.815002 0.322906
128.657501 217.975098 -35.815002 0.271951
142.140808 217.975098 -35.815002 0.258377
155.624115 217.975098 -35.815002 0.250944
169.107422 217.975098 -35.815002 0.242919
182.590698 217.975098 -35.815002 0.229208
196.074036 217.975098 -35.815002 0.187082
209.557312 217.975098 -35.815002 0.171125
223.040588 217.975098 -35.815002 0.141640
236.523926 217.975098 -35.815002 0.123014
250.007202 217.975098 -35.815002 0.099840
263.490540 217.975098 -35.815002 0.072545
276.973816 217.975098 -35.815002 0.049437
290.457092 217.975098 -35.815002 0.028420
303.940430 217.975098 -35.815002 0.018631
317.423706 217.975098 -35.815002 0.012402
330.907043 217.975098 -35.815002 0.000000
344.390320 217.975098 -35.815002 0.000000
-343.257996 204.491791 -35.815002 0.000000
-329.774689 204.491791 -35.815002 0.000000
-316.291382 204.491791 -35.815002 0.011727
-302.808105 204.491791 -35.815002 0.016518
-289.324799 204.491791 -35.815002 0.024916
-275.841492 204.491791 -35.815002 0.034898
-262.358185 204.491791 -35.815002 0.050951
-248.874893 204.491791 -35.815002 0.078458
-235.391602 204.491791 -35.815002 0.109117
-221.908295 204.491791 -35.815002 0.141206
-208.424988 204.491791 -35.815002 0.180378
-194.941696 204.491791 -35.815002 0.235099
-181.458389 204.491791 -35.815002 0.280299
-167.975098 204.491791 -35.815002 0.341352
-154.491791 204.491791 -35.815002 0.382510
-141.008499 204.491791 -35.815002 0.416984
-127.525192 204.491791 -35.815002 0.428333
-114.041885 204.491791 -35.815002 0.431137
-100.558594 204.491791 -35.815002 0.421888
-87.075287 204.491791 -35.815002 0.359436
-73.591980 204.491791 -35.815002 0.306372
-60.108704 204.491791 -35.815002 0.266596
-46.625397 204.491791 -35.815002 0.234561
-33.142090 204.491791 -35.815002 0.251588
-19.658783 204.491791 -35.815002 0.259268
-6.175476 204.491791 -35.815002 0.280968
7.307800 204.491791 -35.815002 0.308748
20.791107 204.491791 -35.815002 0.321430
34.274414 204.491791 -35.815002 0.363586
47.757721 204.491791 -35.815002 0.369953
61.240997 204.491791 -35.815002 0.378414
74.724304 204.491791 -35.815002 0.365484
88.207611 204.491791 -35.815002 0.353213
101.690918 204.491791 -35.815002 0.320894
115.174225 204.491791 -35.815002 0.283332
128.657501 204.491791 -35.815002 0.254266
142.140808 204.491791 -35.815002 0.237378
155.624115 204.491791 -35.815002 0.228852
169.107422 204.491791 -35.815002 0.216803
182.590698 204.491791 -35.815002 0.193543
196.074036 204.491791 -35.815002 0.173115
209.557312 204.491791 -35.815002 0.162302
223.040588 204.491791 -35.815002 0.139899
236.523926 204.491791 -35.815002 0.112269
250.007202 204.491791 -35.815002 0.090093
263.490540 204.491791 -35.815002 0.064193
276.973816 204.491791 -35.815002 0.041416
290.457092 204.491791 -35.815002 0.026289
303.940430 204.491791 -35.815002 0.016747
317.423706 204.491791 -35.815002 0.011416
330.907043 204.491791 -35.815002 0.000000
344.390320 204.491791 -35.815002 0.000000
-343.257996 191.008499 -35.815002 0.000000
-329.774689 191.008499 -35.815002 0.000000
-316.291382 191.008499 -35.815002 0.012048
-302.808105 191.008499 -35.815002 0.016739
-289.324799 191.008499 -35.815002 0.024737
-275.841492 191.008499 -35.815002 0.038200
-262.358185 191.008499 -35.815002 0.057074
-248.874893 191.008499 -35.815002 0.082054
-235.391602 191.008499 -35.815002 0.119564
-221.908295 191.008499 -35.815002 0.156420
-208.424988 191.008499 -35.815002 0.213395
-194.941696 191.008499 -35.815002 0.255275
-181.458389 191.008499 -35.815002 0.335179
-167.975098 191.008499 -35.815002 0.410875
-154.491791 191.008499 -35.815002 0.456670
-141.008499 191.008499 -35.815002 0.492272
-127.525192 191.008499 -35.815002 0.477908
-114.041885 191.008499 -35.815002 0.464267
-100.558594 191.008499 -35.815002 0.436207
-87.075287 191.008499 -35.815002 0.365243
-73.591980 191.008499 -35.815002 0.307609
-60.108704 191.008499 -35.815002 0.260866
-46.625397 191.008499 -35.815002 0.242564
-33.142090 191.008499 -35.815002 0.244653
-19.658783 191.008499 -35.815002 0.263928
-6.175476 191.008499 -35.815002 0.277362
7.307800 191.008499 -35.815002 0.299997
20.791107 191.008499 -35.815002 0.328087
34.274414 191.008499 -35.815002 0.362392
47.757721 191.008499 -35.815002 0.363244
61.240997 191.008499 -35.815002 0.378606
74.724304 191.008499 -35.815002 0.350638
88.207611 191.008499 -35.815002 0.315558
101.690918 191.008499 -35.815002 0.277980
115.174225 191.008499 -35.815002 0.260386
128.657501 191.008499 -35.815002 0.237979
142.140808 191.008499 -35.815002 0.220864
155.624115 191.008499 -35.815002 0.216884
169.107422 191.008499 -35.815002 0.193366
182.590698 191.008499 -35.815002 0.177876
196.074036 191.008499 -35.815002 0.158396
209.557312 191.008499 -35.815002 0.147190
223.040588 191.008499 -35.815002 0.128125
236.523926 191.008499 -35.815002 0.105550
250.007202 191.008499 -35.815002 0.082523
263.490540 191.008499 -35.815002 0.055971
276.973816 191.008499 -35.815002 0.037725
290.457092 191.008499 -35.815002 0.023569
303.940430 191.008499 -35.815002 0.015982
317.423706 191.008499 -35.815002 0.010760
330.907043 191.008499 -35.815002 0.000000
344.390320 191.008499 -35.815002 0.000000
-343.257996 177.525192 -35.815002 0.000000
-329.774689 177.525192 -35.815002 0.000000
-316.291382 177.525192 -35.815002 0.012986
-302.808105 177.525192 -35.815002 0.018107
-289.324799 177.525192 -35.815002 0.025715
-275.841492 177.525192 -35.815002 0.039283
-262.358185 177.525192 -35.815002 0.058987
-248.874893 177.525192 -35.815002 0.089312
-235.391602 177.525192 -35.815002 0.135464
-221.908295 177.525192 -35.815002 0.187033
-208.424988 177.525192 -35.815002 0.232433
-194.941696 177.525192 -35.815002 0.295732
-181.458389 177.525192 -35.815002 0.373660
-167.975098 177.525192 -35.815002 0.449700
-154.491791 177.525192 -35.815002 0.509422
-141.008499 177.525192 -35.815002 0.558775
-127.525192 177.525192 -35.815002 0.523273
-114.041885 177.525192 -35.815002 0.490340
-100.558594 177.525192 -35.815002 0.432498
-87.075287 177.525192 -35.815002 0.360857
-73.591980 177.525192 -35.815002 0.307276
-60.108704 177.525192 -35.815002 0.253514
-46.625397 177.525192 -35.815002 0.252894
-33.142090 177.525192 -35.815002 0.241720
-19.658783 177.525192 -35.815002 0.257452
-6.175476 177.525192 -35.815002 0.265519
7.307800 177.525192 -35.815002 0.283022
20.791107 177.525192 -35.815002 0.302598
34.274414 177.525192 -35.815002 0.327960
47.757721 177.525192 -35.815002 0.362294
61.240997 177.525192 -35.815002 0.350417
74.724304 177.525192 -35.815002 0.309425
88.207611 177.525192 -35.815002 0.287591
101.690918 177.525192 -35.815002 0.251807
115.174225 177.525192 -35.815002 0.227952
128.657501 177.525192 -35.815002 0.205471
142.140808 177.525192 -35.815002 0.204958
155.624115 177.525192 -35.815002 0.195418
169.107422 177.525192 -35.815002 0.181371
182.590698 177.525192 -35.815002 0.161070
196.074036 177.525192 -35.815002 0.144877
209.557312 177.525192 -35.815002 0.129078
223.040588 177.525192 -35.815002 0.115463
236.523926 177.525192 -35.815002 0.095952
250.007202 177.525192 -35.815002 0.072243
263.490540 177.525192 -35.815002 0.050778
276.973816 177.525192 -35.815002 0.035768
290.457092 177.525192 -35.815002 0.022552
303.940430 177.525192 -35.815002 0.014885
317.423706 177.525192 -35.815002 0.009970
330.907043 177.525192 -35.815002 0.000000
344.390320 177.525192 -35.815002 0.000000
-343.257996 164.041885 -35.815002 0.000000
-329.774689 164.041885 -35.815002 0.000000
-316.291382 164.041885 -35.815002 0.013656
-302.808105 164.041885 -35.815002 0.018732
-289.324799 164.041885 -35.815002 0.027329
-275.841492 164.041885 -35.815002 0.040529
-262.358185 164.041885 -35.815002 0.060876
-248.874893 164.041885 -35.815002 0.090705
-235.391602 164.041885 -35.815002 0.140202
-221.908295 164.041885 -35.815002 0.201285
-208.424988 164.041885 -35.815002 0.264960
-194.941696 164.041885 -35.815002 0.329668
-181.458389 164.041885 -35.815002 0.405697
-167.975098 164.041885 -35.815002 0.491374
-154.491791 164.041885 -35.815002 0.547099
-141.008499 164.041885 -35.815002 0.577328
-127.525192 164.041885 -35.815002 0.546141
-114.041885 164.041885 -35.815002 0.476899
-100.558594 164.041885 -35.815002 0.416953
-87.075287 164.041885 -35.815002 0.361949
-73.591980 164.041885 -35.815002 0.309110
-60.108704 164.041885 -35.815002 0.255832
-46.625397 164.041885 -35.815002 0.257164
-33.142090 164.041885 -35.815002 0.243654
-19.658783 164.041885 -35.815002 0.253070
-6.175476 164.041885 -35.815002 0.260876
7.307800 164.041885 -35.815002 0.268778
20.791107 164.041885 -35.815002 0.286351
34.274414 164.041885 -35.815002 0.313703
47.757721 164.041885 -35.815002 0.329649
61.240997 164.041885 -35.815002 0.318412
74.724304 164.041885 -35.815002 0.286300
88.207611 164.041885 -35.815002 0.258278
101.690918 164.041885 -35.815002 0.244627
115.174225 164.041885 -35.815002 0.218830
128.657501 164.041885 -35.815002 0.196416
142.140808 164.041885 -35.815002 0.188456
155.624115 164.041885 -35.815002 0.183190
169.107422 164.041885 -35.815002 0.165059
182.590698 164.041885 -35.815002 0.147093
196.074036 164.041885 -35.815002 0.131059
209.557312 164.041885 -35.815002 0.117551
223.040588 164.041885 -35.815002 0.097857
236.523926 164.041885 -35.815002 0.082857
250.007202 164.041885 -35.815002 0.058479
263.490540 164.041885 -35.815002 0.044085
276.973816 164.041885 -35.815002 0.029933
290.457092 164.041885 -35.815002 0.020607
303.940430 164.041885 -35.815002 0.013500
317.423706 164.041885 -35.815002 0.009970
330.907043 164.041885 -35.815002 0.000000
344.390320 164.041885 -35.815002 0.000000
-343.257996 150.558594 -35.815002 0.000000
-329.774689 150.558594 -35.815002 0.000000
-316.291382 150.558594 -35.815002 0.014184
-302.808105 150.558594 -35.815002 0.019485
-289.324799 150.558594 -35.815002 0.027590
-275.841492 150.558594 -35.815002 0.041377
-262.358185 150.558594 -35.815002 0.061963
-248.874893 150.558594 -35.815002 0.097105
-235.391602 150.558594 -35.815002 0.143058
-221.908295 150.558594 -35.815002 0.195788
-208.424988 150.558594 -35.815002 0.263371
-194.941696 150.558594 -35.815002 0.330324
-181.458389 150.558594 -35.815002 0.391656
-167.975098 150.558594 -35.815002 0.480602
-154.491791 150.558594 -35.815002 0.537076
-141.008499 150.558594 -35.815002 0.553642
-127.525192 150.558594 -35.815002 0.524896
-114.041885 150.558594 -35.815002 0.459982
-100.558594 150.558594 -35.815002 0.403918
-87.075287 150.558594 -35.815002 0.347442
-73.591980 150.558594 -35.815002 0.311785
-60.108704 150.558594 -35.815002 0.262060
-46.625397 150.558594 -35.815002 0.256270
-33.142090 150.558594 -35.815002 0.240991
-19.658783 150.558594 -35.815002 0.239608
-6.175476 150.558594 -35.815002 0.252392
7.307800 150.558594 -35.815002 0.259743
20.791107 150.558594 -35.815002 0.282208
34.274414 150.558594 -35.815002 0.307906
47.757721 150.558594 -35.815002 0.301244
61.240997 150.558594 -35.815002 0.294122
74.724304 150.558594 -35.815002 0.282832
88.207611 150.558594 -35.815002 0.254633
101.690918 150.558594 -35.815002 0.226019
115.174225 150.558594 -35.815002 0.197900
128.657501 150.558594 -35.815002 0.178933
142.140808 150.558594 -35.815002 0.170811
155.624115 150.558594 -35.815002 0.158858
169.107422 150.558594 -35.815002 0.145012
182.590698 150.558594 -35.815002 0.132732
196.074036 150.558594 -35.815002 0.115193
209.557312 150.558594 -35.815002 0.102614
223.040588 150.558594 -35.815002 0.085498
236.523926 150.558594 -35.815002 0.065293
250.007202 150.558594 -35.815002 0.048344
263.490540 150.558594 -35.815002 0.036538
276.973816 150.558594 -35.815002 0.024569
290.457092 150.558594 -35.815002 0.017259
303.940430 150.558594 -35.815002 0.012532
317.423706 150.558594 -35.815002 0.009183
330.907043 150.558594 -35.815002 0.000000
344.390320 150.558594 -35.815002 0.000000
-343.257996 137.075287 -35.815002 0.000000
-329.774689 137.075287 -35.815002 0.000000
-316.291382 137.075287 -35.815002 0.015543
-302.808105 137.075287 -35.815002 0.019504
-289.324799 137.075287 -35.815002 0.027232
-275.841492 137.075287 -35.815002 0.039987
-262.358185 137.075287 -35.815002 0.060622
-248.874893 137.075287 -35.815002 0.091427
-235.391602 137.075287 -35.815002 0.137299
-221.908295 137.075287 -35.815002 0.181641
-208.424988 137.075287 -35.815002 0.244873
-194.941696 137.075287 -35.815002 0.326497
-181.458389 137.075287 -35.815002 0.398169
-167.975098 137.075287 -35.815002 0.477409
-154.491791 137.075287 -35.815002 0.517568
-141.008499 137.075287 -35.815002 0.526976
-127.525192 137.075287 -35.815002 0.515116
-114.041885 137.075287 -35.815002 0.464999
-100.558594 137.075287 -35.815002 0.395158
-87.075287 137.075287 -35.815002 0.353415
-73.591980 137.075287 -35.815002 0.292288
-60.108704 137.075287 -35.815002 0.254662
-46.625397 137.075287 -35.815002 0.261611
-33.142090 137.075287 -35.815002 0.242874
-19.658783 137.075287 -35.815002 0.247158
-6.175476 137.075287 -35.815002 0.254703
7.307800 137.075287 -35.815002 0.266047
20.791107 137.075287 -35.815002 0.281034
34.274414 137.075287 -35.815002 0.298918
47.757721 137.075287 -35.815002 0.294546
61.240997 137.075287 -35.815002 0.272887
74.724304 137.075287 -35.815002 0.262697
88.207611 137.075287 -35.815002 0.243167
101.690918 137.075287 -35.815002 0.214341
115.174225 137.075287 -35.815002 0.183874
128.657501 137.075287 -35.815002 0.175728
142.140808 137.075287 -35.815002 0.167160
155.624115 137.075287 -35.815002 0.151647
169.107422 137.075287 -35.815002 0.127816
182.590698 137.075287 -35.815002 0.118055
196.074036 137.075287 -35.815002 0.100511
209.557312 137.075287 -35.815002 0.087453
223.040588 137.075287 -35.815002 0.068614
236.523926 137.075287 -35.815002 0.053875
250.007202 137.075287 -35.815002 0.038191
263.490540 137.075287 -35.815002 0.029019
276.973816 137.075287 -35.815002 0.019731
290.457092 137.075287 -35.815002 0.014391
303.940430 137.075287 -35.815002 0.010791
317.423706 137.075287 -35.815002 0.008511
330.907043 137.075287 -35.815002 0.000000
344.390320 137.075287 -35.815002 0.000000
-343.257996 123.591980 -35.815002 0.000000
-329.774689 123.591980 -35.815002 0.000000
-316.291382 123.591980 -35.815002 0.015731
-302.808105 123.591980 -35.815002 0.018397
-289.324799 123.591980 -35.815002 0.026259
-275.841492 123.591980 -35.815002 0.037758
-262.358185 123.591980 -35.815002 0.056802
-248.874893 123.591980 -35.815002 0.082744
-235.391602 123.591980 -35.815002 0.123733
-221.908295 123.591980 -35.815002 0.176478
-208.424988 123.591980 -35.815002 0.244596
-194.941696 123.591980 -35.815002 0.329493
-181.458389 123.591980 -35.815002 0.404817
-167.975098 123.591980 -35.815002 0.469139
-154.491791 123.591980 -35.815002 0.487399
-141.008499 123.591980 -35.815002 0.498855
-127.525192 123.591980 -35.815002 0.498928
-114.041885 123.591980 -35.815002 0.471505
-100.558594 123.591980 -35.815002 0.402381
-87.075287 123.591980 -35.815002 0.340987
-73.591980 123.591980 -35.815002 0.303700
-60.108704 123.591980 -35.815002 0.270604
-46.625397 123.591980 -35.815002 0.254803
-33.142090 123.591980 -35.815002 0.252712
-19.658783 123.591980 -35.815002 0.252032
-6.175476 123.591980 -35.815002 0.243512
7.307800 123.591980 -35.815002 0.250428
20.791107 123.591980 -35.815002 0.272353
34.274414 123.591980 -35.815002 0.296875
47.757721 123.591980 -35.815002 0.295803
61.240997 123.591980 -35.815002 0.280337
74.724304 123.591980 -35.815002 0.252733
88.207611 123.591980 -35.815002 0.234674
101.690918 123.591980 -35.815002 0.204430
115.174225 123.591980 -35.815002 0.184524
128.657501 123.591980 -35.815002 0.169902
142.140808 123.591980 -35.815002 0.155935
155.624115 123.591980 -35.815002 0.135541
169.107422 123.591980 -35.815002 0.117419
182.590698 123.591980 -35.815002 0.102045
196.074036 123.591980 -35.815002 0.082802
209.557312 123.591980 -35.815002 0.068566
223.040588 123.591980 -35.815002 0.053157
236.523926 123.591980 -35.815002 0.041095
250.007202 123.591980 -35.815002 0.031226
263.490540 123.591980 -35.815002 0.023677
276.973816 123.591980 -35.815002 0.016310
290.457092 123.591980 -35.815002 0.011875
303.940430 123.591980 -35.815002 0.009134
317.423706 123.591980 -35.815002 0.007526
330.907043 123.591980 -35.815002 0.000000
344.390320 123.591980 -35.815002 0.000000
-343.257996 110.108704 -35.815002 0.000000
-329.774689 110.108704 -35.815002 0.000000
-316.291382 110.108704 -35.815002 0.015256
-302.808105 110.108704 -35.815002 0.017477
-289.324799 110.108704 -35.815002 0.023757
-275.841492 110.108704 -35.815002 0.033080
-262.358185 110.108704 -35.815002 0.051539
-248.874893 110.108704 -35.815002 0.078919
-235.391602 110.108704 -35.815002 0.117094
-221.908295 110.108704 -35.815002 0.163270
-208.424988 110.108704 -35.815002 0.220202
-194.941696 110.108704 -35.815002 0.303399
-181.458389 110.108704 -35.815002 0.370477
-167.975098 110.108704 -35.815002 0.441126
-154.491791 110.108704 -35.815002 0.457211
-141.008499 110.108704 -35.815002 0.478528
-127.525192 110.108704 -35.815002 0.447731
-114.041885 110.108704 -35.815002 0.431173
-100.558594 110.108704 -35.815002 0.399348
-87.075287 110.108704 -35.815002 0.361113
-73.591980 110.108704 -35.815002 0.323980
-60.108704 110.108704 -35.815002 0.277686
-46.625397 110.108704 -35.815002 0.268419
-33.142090 110.108704 -35.815002 0.249467
-19.658783 110.108704 -35.815002 0.244511
-6.175476 110.108704 -35.815002 0.240299
7.307800 110.108704 -35.815002 0.253916
20.791107 110.108704 -35.815002 0.291294
34.274414 110.108704 -35.815002 0.285440
47.757721 110.108704 -35.815002 0.279900
61.240997 110.108704 -35.815002 0.267895
74.724304 110.108704 -35.815002 0.248606
88.207611 110.108704 -35.815002 0.222387
101.690918 110.108704 -35.815002 0.202733
115.174225 110.108704 -35.815002 0.186554
128.657501 110.108704 -35.815002 0.164540
142.140808 110.108704 -35.815002 0.148787
155.624115 110.108704 -35.815002 0.128467
169.107422 110.108704 -35.815002 0.110065
182.590698 110.108704 -35.815002 0.091053
196.074036 110.108704 -35.815002 0.068910
209.557312 110.108704 -35.815002 0.052719
223.040588 110.108704 -35.815002 0.043900
236.523926 110.108704 -35.815002 0.032429
250.007202 110.108704 -35.815002 0.025146
263.490540 110.108704 -35.815002 0.018648
276.973816 110.108704 -35.815002 0.012936
290.457092 110.108704 -35.815002 0.009789
303.940430 110.108704 -35.815002 0.008125
317.423706 110.108704 -35.815002 0.006909
330.907043 110.108704 -35.815002 0.000000
344.390320 110.108704 -35.815002 0.000000
-343.257996 96.625397 -35.815002 0.000000
-329.774689 96.625397 -35.815002 0.000000
-316.291382 96.625397 -35.815002 0.015016
-302.808105 96.625397 -35.815002 0.017031
-289.324799 96.625397 -35.815002 0.021468
-275.841492 96.625397 -35.815002 0.029588
-262.358185 96.625397 -35.815002 0.048661
-248.874893 96.625397 -35.815002 0.073083
-235.391602 96.625397 -35.815002 0.110901
-221.908295 96.625397 -35.815002 0.156136
-208.424988 96.625397 -35.815002 0.215645
-194.941696 96.625397 -35.815002 0.299246
-181.458389 96.625397 -35.815002 0.364773
-167.975098 96.625397 -35.815002 0.424426
-154.491791 96.625397 -35.815002 0.444575
-141.008499 96.625397 -35.815002 0.449247
-127.525192 96.625397 -35.815002 0.454407
-114.041885 96.625397 -35.815002 0.427639
-100.558594 96.625397 -35.815002 0.404622
-87.075287 96.625397 -35.815002 0.352324
-73.591980 96.625397 -35.815002 0.335314
-60.108704 96.625397 -35.815002 0.283720
-46.625397 96.625397 -35.815002 0.265228
-33.142090 96.625397 -35.815002 0.269199
-19.658783 96.625397 -35.815002 0.261840
-6.175476 96.625397 -35.815002 0.254168
7.307800 96.625397 -35.815002 0.263083
20.791107 96.625397 -35.815002 0.284130
34.274414 96.625397 -35.815002 0.268233
47.757721 96.625397 -35.815002 0.260481
61.240997 96.625397 -35.815002 0.243157
74.724304 96.625397 -35.815002 0.240865
88.207611 96.625397 -35.815002 0.208515
101.690918 96.625397 -35.815002 0.188211
115.174225 96.625397 -35.815002 0.170594
128.657501 96.625397 -35.815002 0.143417
142.140808 96.625397 -35.815002 0.128537
155.624115 96.625397 -35.815002 0.112916
169.107422 96.625397 -35.815002 0.096243
182.590698 96.625397 -35.815002 0.083690
196.074036 96.625397 -35.815002 0.058060
209.557312 96.625397 -35.815002 0.044459
223.040588 96.625397 -35.815002 0.034480
236.523926 96.625397 -35.815002 0.027525
250.007202 96.625397 -35.815002 0.021253
263.490540 96.625397 -35.815002 0.014987
276.973816 96.625397 -35.815002 0.010651
290.457092 96.625397 -35.815002 0.008244
303.940430 96.625397 -35.815002 0.006848
317.423706 96.625397 -35.815002 0.006191
330.907043 96.625397 -35.815002 0.000000
344.390320 96.625397 -35.815002 0.000000
-343.257996 83.142090 -35.815002 0.000000
-329.774689 83.142090 -35.815002 0.000000
-316.291382 83.142090 -35.815002 0.014611
-302.808105 83.142090 -35.815002 0.016362
-289.324799 83.142090 -35.815002 0.020605
-275.841492 83.142090 -35.815002 0.029300
-262.358185 83.142090 -35.815002 0.043505
-248.874893 83.142090 -35.815002 0.068152
-235.391602 83.142090 -35.815002 0.102728
-221.908295 83.142090 -35.815002 0.146593
-208.424988 83.142090 -35.815002 0.203511
-194.941696 83.142090 -35.815002 0.289753
-181.458389 83.142090 -35.815002 0.350246
-167.975098 83.142090 -35.815002 0.404718
-154.491791 83.142090 -35.815002 0.446253
-141.008499 83.142090 -35.815002 0.445775
-127.525192 83.142090 -35.815002 0.423587
-114.041885 83.142090 -35.815002 0.411300
-100.558594 83.142090 -35.815002 0.407088
-87.075287 83.142090 -35.815002 0.369186
-73.591980 83.142090 -35.815002 0.326411
-60.108704 83.142090 -35.815002 0.301867
-46.625397 83.142090 -35.815002 0.282656
-33.142090 83.142090 -35.815002 0.289547
-19.658783 83.142090 -35.815002 0.285636
-6.175476 83.142090 -35.815002 0.279016
7.307800 83.142090 -35.815002 0.295609
20.791107 83.142090 -35.815002 0.293577
34.274414 83.142090 -35.815002 0.270038
47.757721 83.142090 -35.815002 0.256828
61.240997 83.142090 -35.815002 0.245443
74.724304 83.142090 -35.815002 0.216593
88.207611 83.142090 -35.815002 0.193417
101.690918 83.142090 -35.815002 0.170062
115.174225 83.142090 -35.815002 0.152442
128.657501 83.142090 -35.815002 0.131099
142.140808 83.142090 -35.815002 0.116539
155.624115 83.142090 -35.815002 0.101836
169.107422 83.142090 -35.815002 0.088950
182.590698 83.142090 -35.815002 0.070470
196.074036 83.142090 -35.815002 0.051187
209.557312 83.142090 -35.815002 0.038525
223.040588 83.142090 -35.815002 0.029462
236.523926 83.142090 -35.815002 0.022759
250.007202 83.142090 -35.815002 0.017529
263.490540 83.142090 -35.815002 0.012439
276.973816 83.142090 -35.815002 0.008384
290.457092 83.142090 -35.815002 0.006627
303.940430 83.142090 -35.815002 0.005804
317.423706 83.142090 -35.815002 0.005356
330.907043 83.142090 -35.815002 0.000000
344.390320 83.142090 -35.815002 0.000000
-343.257996 69.658783 -35.815002 0.000000
-329.774689 69.658783 -35.815002 0.000000
-316.291382 69.658783 -35.815002 0.013998
-302.808105 69.658783 -35.815002 0.015936
-289.324799 69.658783 -35.815002 0.019567
-275.841492 69.658783 -35.815002 0.026416
-262.358185 69.658783 -35.815002 0.040700
-248.874893 69.658783 -35.815002 0.063226
-235.391602 69.658783 -35.815002 0.097955
-221.908295 69.658783 -35.815002 0.153336
-208.424988 69.658783 -35.815002 0.214289
-194.941696 69.658783 -35.815002 0.284333
-181.458389 69.658783 -35.815002 0.340443
-167.975098 69.658783 -35.815002 0.361586
-154.491791 69.658783 -35.815002 0.436405
-141.008499 69.658783 -35.815002 0.448603
-127.525192 69.658783 -35.815002 0.435795
-114.041885 69.658783 -35.815002 0.406723
-100.558594 69.658783 -35.815002 0.418046
-87.075287 69.658783 -35.815002 0.371319
-73.591980 69.658783 -35.815002 0.339069
-60.108704 69.658783 -35.815002 0.304459
-46.625397 69.658783 -35.815002 0.282433
-33.142090 69.658783 -35.815002 0.294316
-19.658783 69.658783 -35.815002 0.301436
-6.175476 69.658783 -35.815002 0.322028
7.307800 69.658783 -35.815002 0.331588
20.791107 69.658783 -35.815002 0.304274
34.274414 69.658783 -35.815002 0.273268
47.757721 69.658783 -35.815002 0.241015
61.240997 69.658783 -35.815002 0.229699
74.724304 69.658783 -35.815002 0.201328
88.207611 69.658783 -35.815002 0.178405
101.690918 69.658783 -35.815002 0.161497
115.174225 69.658783 -35.815002 0.138855
128.657501 69.658783 -35.815002 0.123805
142.140808 69.658783 -35.815002 0.107653
155.624115 69.658783 -35.815002 0.091909
169.107422 69.658783 -35.815002 0.075709
182.590698 69.658783 -35.815002 0.060801
196.074036 69.658783 -35.815002 0.044708
209.557312 69.658783 -35.815002 0.034088
223.040588 69.658783 -35.815002 0.025139
236.523926 69.658783 -35.815002 0.019164
250.007202 69.658783 -35.815002 0.014253
263.490540 69.658783 -35.815002 0.010384
276.973816 69.658783 -35.815002 0.007804
290.457092 69.658783 -35.815002 0.005803
303.940430 69.658783 -35.815002 0.005069
317.423706 69.658783 -35.815002 0.005359
330.907043 69.658783 -35.815002 0.000000
344.390320 69.658783 -35.815002 0.000000
-343.257996 56.175476 -35.815002 0.000000
-329.774689 56.175476 -35.815002 0.000000
-316.291382 56.175476 -35.815002 0.014460
-302.808105 56.175476 -35.815002 0.015367
-289.324799 56.175476 -35.815002 0.019805
-275.841492 56.175476 -35.815002 0.026926
-262.358185 56.175476 -35.815002 0.040715
-248.874893 56.175476 -35.815002 0.064290
-235.391602 56.175476 -35.815002 0.100873
-221.908295 56.175476 -35.815002 0.164226
-208.424988 56.175476 -35.815002 0.234932
-194.941696 56.175476 -35.815002 0.283101
-181.458389 56.175476 -35.815002 0.328393
-167.975098 56.175476 -35.815002 0.371134
-154.491791 56.175476 -35.815002 0.431761
-141.008499 56.175476 -35.815002 0.442544
-127.525192 56.175476 -35.815002 0.439542
-114.041885 56.175476 -35.815002 0.442510
-100.558594 56.175476 -35.815002 0.408590
-87.075287 56.175476 -35.815002 0.384626
-73.591980 56.175476 -35.815002 0.335155
-60.108704 56.175476 -35.815002 0.330286
-46.625397 56.175476 -35.815002 0.305969
-33.142090 56.175476 -35.815002 0.316054
-19.658783 56.175476 -35.815002 0.334547
-6.175476 56.175476 -35.815002 0.351821
7.307800 56.175476 -35.815002 0.342115
20.791107 56.175476 -35.815002 0.320366
34.274414 56.175476 -35.815002 0.273562
47.757721 56.175476 -35.815002 0.230204
61.240997 56.175476 -35.815002 0.198095
74.724304 56.175476 -35.815002 0.181351
88.207611 56.175476 -35.815002 0.163525
101.690918 56.175476 -35.815002 0.146437
115.174225 56.175476 -35.815002 0.130281
128.657501 56.175476 -35.815002 0.115807
142.140808 56.175476 -35.815002 0.106205
155.624115 56.175476 -35.815002 0.084167
169.107422 56.175476 -35.815002 0.067361
182.590698 56.175476 -35.815002 0.055752
196.074036 56.175476 -35.815002 0.043468
209.557312 56.175476 -35.815002 0.032618
223.040588 56.175476 -35.815002 0.023597
236.523926 56.175476 -35.815002 0.016883
250.007202 56.175476 -35.815002 0.012305
263.490540 56.175476 -35.815002 0.009464
276.973816 56.175476 -35.815002 0.007221
290.457092 56.175476 -35.815002 0.005946
303.940430 56.175476 -35.815002 0.005513
317.423706 56.175476 -35.815002 0.005724
330.907043 56.175476 -35.815002 0.000000
344.390320 56.175476 -35.815002 0.000000
-343.257996 42.692200 -35.815002 0.000000
-329.774689 42.692200 -35.815002 0.000000
-316.291382 42.692200 -35.815002 0.015155
-302.808105 42.692200 -35.815002 0.016186
-289.324799 42.692200 -35.815002 0.020112
-275.841492 42.692200 -35.815002 0.029615
-262.358185 42.692200 -35.815002 0.043985
-248.874893 42.692200 -35.815002 0.071684
-235.391602 42.692200 -35.815002 0.108371
-221.908295 42.692200 -35.815002 0.155237
-208.424988 42.692200 -35.815002 0.216084
-194.941696 42.692200 -35.815002 0.295633
-181.458389 42.692200 -35.815002 0.351957
-167.975098 42.692200 -35.815002 0.387495
-154.491791 42.692200 -35.815002 0.422798
-141.008499 42.692200 -35.815002 0.453180
-127.525192 42.692200 -35.815002 0.460782
-114.041885 42.692200 -35.815002 0.458102
-100.558594 42.692200 -35.815002 0.404539
-87.075287 42.692200 -35.815002 0.397276
-73.591980 42.692200 -35.815002 0.377724
-60.108704 42.692200 -35.815002 0.377790
-46.625397 42.692200 -35.815002 0.320371
-33.142090 42.692200 -35.815002 0.330268
-19.658783 42.692200 -35.815002 0.357923
-6.175476 42.692200 -35.815002 0.379472
7.307800 42.692200 -35.815002 0.366855
20.791107 42.692200 -35.815002 0.320899
34.274414 42.692200 -35.815002 0.285293
47.757721 42.692200 -35.815002 0.239353
61.240997 42.692200 -35.815002 0.196100
74.724304 42.692200 -35.815002 0.168531
88.207611 42.692200 -35.815002 0.149965
101.690918 42.692200 -35.815002 0.133260
115.174225 42.692200 -35.815002 0.119830
128.657501 42.692200 -35.815002 0.104417
142.140808 42.692200 -35.815002 0.092882
155.624115 42.692200 -35.815002 0.079177
169.107422 42.692200 -35.815002 0.068219
182.590698 42.692200 -35.815002 0.055261
196.074036 42.692200 -35.815002 0.043153
209.557312 42.692200 -35.815002 0.031751
223.040588 42.692200 -35.815002 0.022133
236.523926 42.692200 -35.815002 0.015551
250.007202 42.692200 -35.815002 0.011758
263.490540 42.692200 -35.815002 0.009115
276.973816 42.692200 -35.815002 0.007710
290.457092 42.692200 -35.815002 0.006847
303.940430 42.692200 -35.815002 0.006386
317.423706 42.692200 -35.815002 0.006421
330.907043 42.692200 -35.815002 0.000000
344.390320 42.692200 -35.815002 0.000000
-343.257996 29.208893 -35.815002 0.000000
-329.774689 29.208893 -35.815002 0.000000
-316.291382 29.208893 -35.815002 0.017759
-302.808105 29.208893 -35.815002 0.018864
-289.324799 29.208893 -35.815002 0.024325
-275.841492 29.208893 -35.815002 0.037096
-262.358185 29.208893 -35.815002 0.050384
-248.874893 29.208893 -35.815002 0.076891
-235.391602 29.208893 -35.815002 0.115273
-221.908295 29.208893 -35.815002 0.164112
-208.424988 29.208893 -35.815002 0.238476
-194.941696 29.208893 -35.815002 0.321541
-181.458389 29.208893 -35.815002 0.391747
-167.975098 29.208893 -35.815002 0.425345
-154.491791 29.208893 -35.815002 0.448034
-141.008499 29.208893 -35.815002 0.483601
-127.525192 29.208893 -35.815002 0.471374
-114.041885 29.208893 -35.815002 0.468058
-100.558594 29.208893 -35.815002 0.401041
-87.075287 29.208893 -35.815002 0.406942
-73.591980 29.208893 -35.815002 0.393602
-60.108704 29.208893 -35.815002 0.382250
-46.625397 29.208893 -35.815002 0.347928
-33.142090 29.208893 -35.815002 0.367658
-19.658783 29.208893 -35.815002 0.397820
-6.175476 29.208893 -35.815002 0.413201
7.307800 29.208893 -35.815002 0.380253
20.791107 29.208893 -35.815002 0.340581
34.274414 29.208893 -35.815002 0.289472
47.757721 29.208893 -35.815002 0.245019
61.240997 29.208893 -35.815002 0.183512
74.724304 29.208893 -35.815002 0.163364
88.207611 29.208893 -35.815002 0.147215
101.690918 29.208893 -35.815002 0.126621
115.174225 29.208893 -35.815002 0.111403
128.657501 29.208893 -35.815002 0.101293
142.140808 29.208893 -35.815002 0.088871
155.624115 29.208893 -35.815002 0.074516
169.107422 29.208893 -35.815002 0.064935
182.590698 29.208893 -35.815002 0.052008
196.074036 29.208893 -35.815002 0.040653
209.557312 29.208893 -35.815002 0.028695
223.040588 29.208893 -35.815002 0.021410
236.523926 29.208893 -35.815002 0.015262
250.007202 29.208893 -35.815002 0.011777
263.490540 29.208893 -35.815002 0.009602
276.973816 29.208893 -35.815002 0.008329
290.457092 29.208893 -35.815002 0.007769
303.940430 29.208893 -35.815002 0.007463
317.423706 29.208893 -35.815002 0.007512
330.907043 29.208893 -35.815002 0.000000
344.390320 29.208893 -35.815002 0.000000
-343.257996 15.725586 -35.815002 0.000000
-329.774689 15.725586 -35.815002 0.000000
-316.291382 15.725586 -35.815002 0.020376
-302.808105 15.725586 -35.815002 0.023276
-289.324799 15.725586 -35.815002 0.028845
-275.841492 15.725586 -35.815002 0.043483
-262.358185 15.725586 -35.815002 0.058969
-248.874893 15.725586 -35.815002 0.085946
-235.391602 15.725586 -35.815002 0.128697
-221.908295 15.725586 -35.815002 0.186081
-208.424988 15.725586 -35.815002 0.268809
-194.941696 15.725586 -35.815002 0.354775
-181.458389 15.725586 -35.815002 0.436457
-167.975098 15.725586 -35.815002 0.456111
-154.491791 15.725586 -35.815002 0.491392
-141.008499 15.725586 -35.815002 0.492567
-127.525192 15.725586 -35.815002 0.496292
-114.041885 15.725586 -35.815002 0.471955
-100.558594 15.725586 -35.815002 0.429874
-87.075287 15.725586 -35.815002 0.418275
-73.591980 15.725586 -35.815002 0.413748
-60.108704 15.725586 -35.815002 0.413165
-46.625397 15.725586 -35.815002 0.396173
-33.142090 15.725586 -35.815002 0.419058
-19.658783 15.725586 -35.815002 0.459437
-6.175476 15.725586 -35.815002 0.427646
7.307800 15.725586 -35.815002 0.400187
20.791107 15.725586 -35.815002 0.347043
34.274414 15.725586 -35.815002 0.286755
47.757721 15.725586 -35.815002 0.239648
61.240997 15.725586 -35.815002 0.181919
74.724304 15.725586 -35.815002 0.164316
88.207611 15.725586 -35.815002 0.140059
101.690918 15.725586 -35.815002 0.123500
115.174225 15.725586 -35.815002 0.107166
128.657501 15.725586 -35.815002 0.101889
142.140808 15.725586 -35.815002 0.085821
155.624115 15.725586 -35.815002 0.072655
169.107422 15.725586 -35.815002 0.062191
182.590698 15.725586 -35.815002 0.052466
196.074036 15.725586 -35.815002 0.038675
209.557312 15.725586 -35.815002 0.027157
223.040588 15.725586 -35.815002 0.019144
236.523926 15.725586 -35.815002 0.014505
250.007202 15.725586 -35.815002 0.010990
263.490540 15.725586 -35.815002 0.009406
276.973816 15.725586 -35.815002 0.008669
290.457092 15.725586 -35.815002 0.008236
303.940430 15.725586 -35.815002 0.007681
317.423706 15.725586 -35.815002 0.007680
330.907043 15.725586 -35.815002 0.000000
344.390320 15.725586 -35.815002 0.000000
-343.257996 2.242279 -35.815002 0.000000
-329.774689 2.242279 -35.815002 0.000000
-316.291382 2.242279 -35.815002 0.022202
-302.808105 2.242279 -35.815002 0.026396
-289.324799 2.242279 -35.815002 0.032303
-275.841492 2.242279 -35.815002 0.050565
-262.358185 2.242279 -35.815002 0.073636
-248.874893 2.242279 -35.815002 0.104754
-235.391602 2.242279 -35.815002 0.156000
-221.908295 2.242279 -35.815002 0.222628
-208.424988 2.242279 -35.815002 0.304412
-194.941696 2.242279 -35.815002 0.397297
-181.458389 2.242279 -35.815002 0.491574
-167.975098 2.242279 -35.815002 0.486893
-154.491791 2.242279 -35.815002 0.487477
-141.008499 2.242279 -35.815002 0.493052
-127.525192 2.242279 -35.815002 0.471880
-114.041885 2.242279 -35.815002 0.431288
-100.558594 2.242279 -35.815002 0.450000
-87.075287 2.242279 -35.815002 0.444491
-73.591980 2.242279 -35.815002 0.438631
-60.108704 2.242279 -35.815002 0.463457
-46.625397 2.242279 -35.815002 0.455143
-33.142090 2.242279 -35.815002 0.459211
-19.658783 2.242279 -35.815002 0.499393
-6.175476 2.242279 -35.815002 0.485396
7.307800 2.242279 -35.815002 0.427598
20.791107 2.242279 -35.815002 0.365380
34.274414 2.242279 -35.815002 0.298523
47.757721 2.242279 -35.815002 0.244652
61.240997 2.242279 -35.815002 0.192527
74.724304 2.242279 -35.815002 0.165465
88.207611 2.242279 -35.815002 0.140972
101.690918 2.242279 -35.815002 0.116065
115.174225 2.242279 -35.815002 0.100390
128.657501 2.242279 -35.815002 0.087578
142.140808 2.242279 -35.815002 0.077742
155.624115 2.242279 -35.815002 0.069597
169.107422 2.242279 -35.815002 0.058916
182.590698 2.242279 -35.815002 0.049947
196.074036 2.242279 -35.815002 0.038373
209.557312 2.242279 -35.815002 0.026071
223.040588 2.242279 -35.815002 0.018081
236.523926 2.242279 -35.815002 0.013430
250.007202 2.242279 -35.815002 0.010711
263.490540 2.242279 -35.815002 0.009233
276.973816 2.242279 -35.815002 0.007904
290.457092 2.242279 -35.815002 0.007778
303.940430 2.242279 -35.815002 0.007405
317.423706 2.242279 -35.815002 0.007300
330.907043 2.242279 -35.815002 0.000000
344.390320 2.242279 -35.815002 0.000000
-343.257996 -11.240997 -35.815002 0.000000
-329.774689 -11.240997 -35.815002 0.000000
-316.291382 -11.240997 -35.815002 0.027451
-302.808105 -11.240997 -35.815002 0.031557
-289.324799 -11.240997 -35.815002 0.041041
-275.841492 -11.240997 -35.815002 0.057553
-262.358185 -11.240997 -35.815002 0.088812
-248.874893 -11.240997 -35.815002 0.128993
-235.391602 -11.240997 -35.815002 0.198598
-221.908295 -11.240997 -35.815002 0.279550
-208.424988 -11.240997 -35.815002 0.372886
-194.941696 -11.240997 -35.815002 0.457817
-181.458389 -11.240997 -35.815002 0.511547
-167.975098 -11.240997 -35.815002 0.502048
-154.491791 -11.240997 -35.815002 0.514467
-141.008499 -11.240997 -35.815002 0.501182
-127.525192 -11.240997 -35.815002 0.484820
-114.041885 -11.240997 -35.815002 0.456916
-100.558594 -11.240997 -35.815002 0.443239
-87.075287 -11.240997 -35.815002 0.459888
-73.591980 -11.240997 -35.815002 0.479468
-60.108704 -11.240997 -35.815002 0.470354
-46.625397 -11.240997 -35.815002 0.484911
-33.142090 -11.240997 -35.815002 0.518901
-19.658783 -11.240997 -35.815002 0.541057
-6.175476 -11.240997 -35.815002 0.517301
7.307800 -11.240997 -35.815002 0.475038
20.791107 -11.240997 -35.815002 0.376014
34.274414 -11.240997 -35.815002 0.298000
47.757721 -11.240997 -35.815002 0.243624
61.240997 -11.240997 -35.815002 0.189405
74.724304 -11.240997 -35.815002 0.161742
88.207611 -11.240997 -35.815002 0.130304
101.690918 -11.240997 -35.815002 0.105081
115.174225 -11.240997 -35.815002 0.086125
128.657501 -11.240997 -35.815002 0.079948
142.140808 -11.240997 -35.815002 0.070730
155.624115 -11.240997 -35.815002 0.065048
169.107422 -11.240997 -35.815002 0.056073
182.590698 -11.240997 -35.815002 0.047557
196.074036 -11.240997 -35.815002 0.038036
209.557312 -11.240997 -35.815002 0.026536
223.040588 -11.240997 -35.815002 0.019114
236.523926 -11.240997 -35.815002 0.013811
250.007202 -11.240997 -35.815002 0.010410
263.490540 -11.240997 -35.815002 0.009126
276.973816 -11.240997 -35.815002 0.007702
290.457092 -11.240997 -35.815002 0.007071
303.940430 -11.240997 -35.815002 0.006577
317.423706 -11.240997 -35.815002 0.006690
330.907043 -11.240997 -35.815002 0.000000
344.390320 -11.240997 -35.815002 0.000000
-343.257996 -24.724304 -35.815002 0.000000
-329.774689 -24.724304 -35.815002 0.000000
-316.291382 -24.724304 -35.815002 0.032261
-302.808105 -24.724304 -35.815002 0.038551
-289.324799 -24.724304 -35.815002 0.051053
-275.841492 -24.724304 -35.815002 0.069029
-262.358185 -24.724304 -35.815002 0.102505
-248.874893 -24.724304 -35.815002 0.156096
-235.391602 -24.724304 -35.815002 0.233045
-221.908295 -24.724304 -35.815002 0.334617
-208.424988 -24.724304 -35.815002 0.461670
-194.941696 -24.724304 -35.815002 0.523282
-181.458389 -24.724304 -35.815002 0.554038
-167.975098 -24.724304 -35.815002 0.547013
-154.491791 -24.724304 -35.815002 0.542370
-141.008499 -24.724304 -35.815002 0.507667
-127.525192 -24.724304 -35.815002 0.468491
-114.041885 -24.724304 -35.815002 0.446787
-100.558594 -24.724304 -35.815002 0.440831
-87.075287 -24.724304 -35.815002 0.473570
-73.591980 -24.724304 -35.815002 0.500171
-60.108704 -24.724304 -35.815002 0.482306
-46.625397 -24.724304 -35.815002 0.509517
-33.142090 -24.724304 -35.815002 0.523093
-19.658783 -24.724304 -35.815002 0.567200
-6.175476 -24.724304 -35.815002 0.511357
7.307800 -24.724304 -35.815002 0.460379
20.791107 -24.724304 -35.815002 0.359077
34.274414 -24.724304 -35.815002 0.295685
47.757721 -24.724304 -35.815002 0.234182
61.240997 -24.724304 -35.815002 0.187824
74.724304 -24.724304 -35.815002 0.155869
88.207611 -24.724304 -35.815002 0.118444
101.690918 -24.724304 -35.815002 0.094752
115.174225 -24.724304 -35.815002 0.079938
128.657501 -24.724304 -35.815002 0.073707
142.140808 -24.724304 -35.815002 0.064182
155.624115 -24.724304 -35.815002 0.056030
169.107422 -24.724304 -35.815002 0.049782
182.590698 -24.724304 -35.815002 0.043949
196.074036 -24.724304 -35.815002 0.036238
209.557312 -24.724304 -35.815002 0.025753
223.040588 -24.724304 -35.815002 0.019638
236.523926 -24.724304 -35.815002 0.014444
250.007202 -24.724304 -35.815002 0.010932
263.490540 -24.724304 -35.815002 0.009366
276.973816 -24.724304 -35.815002 0.008077
290.457092 -24.724304 -35.815002 0.006910
303.940430 -24.724304 -35.815002 0.006527
317.423706 -24.724304 -35.815002 0.006558
330.907043 -24.724304 -35.815002 0.000000
344.390320 -24.724304 -35.815002 0.000000
-343.257996 -38.207611 -35.815002 0.000000
-329.774689 -38.207611 -35.815002 0.000000
-316.291382 -38.207611 -35.815002 0.043615
-302.808105 -38.207611 -35.815002 0.050355
-289.324799 -38.207611 -35.815002 0.065851
-275.841492 -38.207611 -35.815002 0.081671
-262.358185 -38.207611 -35.815002 0.125023
-248.874893 -38.207611 -35.815002 0.190035
-235.391602 -38.207611 -35.815002 0.277208
-221.908295 -38.207611 -35.815002 0.378052
-208.424988 -38.207611 -35.815002 0.481587
-194.941696 -38.207611 -35.815002 0.544649
-181.458389 -38.207611 -35.815002 0.538872
-167.975098 -38.207611 -35.815002 0.574071
-154.491791 -38.207611 -35.815002 0.545105
-141.008499 -38.207611 -35.815002 0.487542
-127.525192 -38.207611 -35.815002 0.472557
-114.041885 -38.207611 -35.815002 0.449728
-100.558594 -38.207611 -35.815002 0.449510
-87.075287 -38.207611 -35.815002 0.473957
-73.591980 -38.207611 -35.815002 0.497497
-60.108704 -38.207611 -35.815002 0.499653
-46.625397 -38.207611 -35.815002 0.503026
-33.142090 -38.207611 -35.815002 0.494849
-19.658783 -38.207611 -35.815002 0.510401
-6.175476 -38.207611 -35.815002 0.495023
7.307800 -38.207611 -35.815002 0.426804
20.791107 -38.207611 -35.815002 0.367073
34.274414 -38.207611 -35.815002 0.271578
47.757721 -38.207611 -35.815002 0.220830
61.240997 -38.207611 -35.815002 0.167853
74.724304 -38.207611 -35.815002 0.140833
88.207611 -38.207611 -35.815002 0.104686
101.690918 -38.207611 -35.815002 0.083412
115.174225 -38.207611 -35.815002 0.071648
128.657501 -38.207611 -35.815002 0.063154
142.140808 -38.207611 -35.815002 0.054298
155.624115 -38.207611 -35.815002 0.051084
169.107422 -38.207611 -35.815002 0.048132
182.590698 -38.207611 -35.815002 0.040502
196.074036 -38.207611 -35.815002 0.033867
209.557312 -38.207611 -35.815002 0.025033
223.040588 -38.207611 -35.815002 0.019634
236.523926 -38.207611 -35.815002 0.015636
250.007202 -38.207611 -35.815002 0.011602
263.490540 -38.207611 -35.815002 0.009596
276.973816 -38.207611 -35.815002 0.007772
290.457092 -38.207611 -35.815002 0.006543
303.940430 -38.207611 -35.815002 0.006529
317.423706 -38.207611 -35.815002 0.006182
330.907043 -38.207611 -35.815002 0.000000
344.390320 -38.207611 -35.815002 0.000000
-343.257996 -51.690918 -35.815002 0.000000
-329.774689 -51.690918 -35.815002 0.000000
-316.291382 -51.690918 -35.815002 0.000000
-302.808105 -51.690918 -35.815002 0.065811
-289.324799 -51.690918 -35.815002 0.087361
-275.841492 -51.690918 -35.815002 0.102811
-262.358185 -51.690918 -35.815002 0.150470
-248.874893 -51.690918 -35.815002 0.232046
-235.391602 -51.690918 -35.815002 0.320817
-221.908295 -51.690918 -35.815002 0.407457
-208.424988 -51.690918 -35.815002 0.498820
-194.941696 -51.690918 -35.815002 0.555583
-181.458389 -51.690918 -35.815002 0.580483
-167.975098 -51.690918 -35.815002 0.567066
-154.491791 -51.690918 -35.815002 0.538293
-141.008499 -51.690918 -35.815002 0.498467
-127.525192 -51.690918 -35.815002 0.472747
-114.041885 -51.690918 -35.815002 0.456340
-100.558594 -51.690918 -35.815002 0.468684
-87.075287 -51.690918 -35.815002 0.479566
-73.591980 -51.690918 -35.815002 0.489825
-60.108704 -51.690918 -35.815002 0.473142
-46.625397 -51.690918 -35.815002 0.464957
-33.142090 -51.690918 -35.815002 0.451303
-19.658783 -51.690918 -35.815002 0.464109
-6.175476 -51.690918 -35.815002 0.436304
7.307800 -51.690918 -35.815002 0.377626
20.791107 -51.690918 -35.815002 0.304166
34.274414 -51.690918 -35.815002 0.254501
47.757721 -51.690918 -35.815002 0.193082
61.240997 -51.690918 -35.815002 0.153702
74.724304 -51.690918 -35.815002 0.122760
88.207611 -51.690918 -35.815002 0.090893
101.690918 -51.690918 -35.815002 0.072535
115.174225 -51.690918 -35.815002 0.064239
128.657501 -51.690918 -35.815002 0.057752
142.140808 -51.690918 -35.815002 0.048528
155.624115 -51.690918 -35.815002 0.045025
169.107422 -51.690918 -35.815002 0.044049
182.590698 -51.690918 -35.815002 0.040433
196.074036 -51.690918 -35.815002 0.032597
209.557312 -51.690918 -35.815002 0.025312
223.040588 -51.690918 -35.815002 0.020957
236.523926 -51.690918 -35.815002 0.016818
250.007202 -51.690918 -35.815002 0.012893
263.490540 -51.690918 -35.815002 0.009975
276.973816 -51.690918 -35.815002 0.008543
290.457092 -51.690918 -35.815002 0.007075
303.940430 -51.690918 -35.815002 0.006507
317.423706 -51.690918 -35.815002 0.007181
330.907043 -51.690918 -35.815002 0.000000
344.390320 -51.690918 -35.815002 0.000000
-343.257996 -65.174225 -35.815002 0.000000
-329.774689 -65.174225 -35.815002 0.000000
-316.291382 -65.174225 -35.815002 0.000000
-302.808105 -65.174225 -35.815002 0.000000
-289.324799 -65.174225 -35.815002 0.000000
-275.841492 -65.174225 -35.815002 0.000000
-262.358185 -65.174225 -35.815002 0.000000
-248.874893 -65.174225 -35.815002 0.000000
-235.391602 -65.174225 -35.815002 0.000000
-221.908295 -65.174225 -35.815002 0.444463
-208.424988 -65.174225 -35.815002 0.520118
-194.941696 -65.174225 -35.815002 0.524026
-181.458389 -65.174225 -35.815002 0.579042
-167.975098 -65.174225 -35.815002 0.521847
-154.491791 -65.174225 -35.815002 0.485944
-141.008499 -65.174225 -35.815002 0.489655
-127.525192 -65.174225 -35.815002 0.501508
-114.041885 -65.174225 -35.815002 0.486082
-100.558594 -65.174225 -35.815002 0.484637
-87.075287 -65.174225 -35.815002 0.479539
-73.591980 -65.174225 -35.815002 0.482790
-60.108704 -65.174225 -35.815002 0.487298
-46.625397 -65.174225 -35.815002 0.453136
-33.142090 -65.174225 -35.815002 0.436760
-19.658783 -65.174225 -35.815002 0.405482
-6.175476 -65.174225 -35.815002 0.390719
7.307800 -65.174225 -35.815002 0.350126
20.791107 -65.174225 -35.815002 0.288914
34.274414 -65.174225 -35.815002 0.219640
47.757721 -65.174225 -35.815002 0.173442
61.240997 -65.174225 -35.815002 0.141694
74.724304 -65.174225 -35.815002 0.108906
88.207611 -65.174225 -35.815002 0.082314
101.690918 -65.174225 -35.815002 0.066983
115.174225 -65.174225 -35.815002 0.055934
128.657501 -65.174225 -35.815002 0.050148
142.140808 -65.174225 -35.815002 0.044613
155.624115 -65.174225 -35.815002 0.042701
169.107422 -65.174225 -35.815002 0.040507
182.590698 -65.174225 -35.815002 0.040481
196.074036 -65.174225 -35.815002 0.034001
209.557312 -65.174225 -35.815002 0.028801
223.040588 -65.174225 -35.815002 0.025504
236.523926 -65.174225 -35.815002 0.019149
250.007202 -65.174225 -35.815002 0.014411
263.490540 -65.174225 -35.815002 0.011537
276.973816 -65.174225 -35.815002 0.009713
290.457092 -65.174225 -35.815002 0.008324
303.940430 -65.174225 -35.815002 0.007514
317.423706 -65.174225 -35.815002 0.008166
330.907043 -65.174225 -35.815002 0.000000
344.390320 -65.174225 -35.815002 0.000000
-343.257996 -78.657501 -35.815002 0.000000
-329.774689 -78.657501 -35.815002 0.000000
-316.291382 -78.657501 -35.815002 0.000000
-302.808105 -78.657501 -35.815002 0.000000
-289.324799 -78.657501 -35.815002 0.000000
-275.841492 -78.657501 -35.815002 0.000000
-262.358185 -78.657501 -35.815002 0.000000
-248.874893 -78.657501 -35.815002 0.000000
-235.391602 -78.657501 -35.815002 0.000000
-221.908295 -78.657501 -35.815002 0.000000
-208.424988 -78.657501 -35.815002 0.489426
-194.941696 -78.657501 -35.815002 0.000000
-181.458389 -78.657501 -35.815002 0.000000
-167.975098 -78.657501 -35.815002 0.511511
-154.491791 -78.657501 -35.815002 0.480140
-141.008499 -78.657501 -35.815002 0.466937
-127.525192 -78.657501 -35.815002 0.493022
-114.041885 -78.657501 -35.815002 0.505237
-100.558594 -78.657501 -35.815002 0.488028
-87.075287 -78.657501 -35.815002 0.461309
-73.591980 -78.657501 -35.815002 0.484414
-60.108704 -78.657501 -35.815002 0.453999
-46.625397 -78.657501 -35.815002 0.436131
-33.142090 -78.657501 -35.815002 0.421540
-19.658783 -78.657501 -35.815002 0.385627
-6.175476 -78.657501 -35.815002 0.351155
7.307800 -78.657501 -35.815002 0.312568
20.791107 -78.657501 -35.815002 0.256796
34.274414 -78.657501 -35.815002 0.209509
47.757721 -78.657501 -35.815002 0.164788
61.240997 -78.657501 -35.815002 0.131262
74.724304 -78.657501 -35.815002 0.104606
88.207611 -78.657501 -35.815002 0.080929
101.690918 -78.657501 -35.815002 0.062527
115.174225 -78.657501 -35.815002 0.052061
128.657501 -78.657501 -35.815002 0.049081
142.140808 -78.657501 -35.815002 0.046617
155.624115 -78.657501 -35.815002 0.047297
169.107422 -78.657501 -35.815002 0.045669
182.590698 -78.657501 -35.815002 0.045963
196.074036 -78.657501 -35.815002 0.042071
209.557312 -78.657501 -35.815002 0.036262
223.040588 -78.657501 -35.815002 0.029009
236.523926 -78.657501 -35.815002 0.021619
250.007202 -78.657501 -35.815002 0.016628
263.490540 -78.657501 -35.815002 0.013793
276.973816 -78.657501 -35.815002 0.011802
290.457092 -78.657501 -35.815002 0.011649
303.940430 -78.657501 -35.815002 0.008993
317.423706 -78.657501 -35.815002 0.008693
330.907043 -78.657501 -35.815002 0.000000
344.390320 -78.657501 -35.815002 0.000000
-343.257996 -92.140808 -35.815002 0.000000
-329.774689 -92.140808 -35.815002 0.000000
-316.291382 -92.140808 -35.815002 0.000000
-302.808105 -92.140808 -35.815002 0.000000
-289.324799 -92.140808 -35.815002 0.000000
-275.841492 -92.140808 -35.815002 0.000000
-262.358185 -92.140808 -35.815002 0.000000
-248.874893 -92.140808 -35.815002 0.000000
-235.391602 -92.140808 -35.815002 0.000000
-221.908295 -92.140808 -35.815002 0.000000
-208.424988 -92.140808 -35.815002 0.000000
-194.941696 -92.140808 -35.815002 0.000000
-181.458389 -92.140808 -35.815002 0.486193
-167.975098 -92.140808 -35.815002 0.000000
-154.491791 -92.140808 -35.815002 0.457629
-141.008499 -92.140808 -35.815002 0.446226
-127.525192 -92.140808 -35.815002 0.425020
-114.041885 -92.140808 -35.815002 0.454767
-100.558594 -92.140808 -35.815002 0.460133
-87.075287 -92.140808 -35.815002 0.467661
-73.591980 -92.140808 -35.815002 0.445776
-60.108704 -92.140808 -35.815002 0.447831
-46.625397 -92.140808 -35.815002 0.434566
-33.142090 -92.140808 -35.815002 0.409000
-19.658783 -92.140808 -35.815002 0.352906
-6.175476 -92.140808 -35.815002 0.325102
7.307800 -92.140808 -35.815002 0.296437
20.791107 -92.140808 -35.815002 0.251053
34.274414 -92.140808 -35.815002 0.210273
47.757721 -92.140808 -35.815002 0.167618
61.240997 -92.140808 -35.815002 0.132875
74.724304 -92.140808 -35.815002 0.104243
88.207611 -92.140808 -35.815002 0.081472
101.690918 -92.140808 -35.815002 0.068952
115.174225 -92.140808 -35.815002 0.057493
128.657501 -92.140808 -35.815002 0.051838
142.140808 -92.140808 -35.815002 0.052187
155.624115 -92.140808 -35.815002 0.053071
169.107422 -92.140808 -35.815002 0.054461
182.590698 -92.140808 -35.815002 0.056095
196.074036 -92.140808 -35.815002 0.052753
209.557312 -92.140808 -35.815002 0.047355
223.040588 -92.140808 -35.815002 0.035052
236.523926 -92.140808 -35.815002 0.026006
250.007202 -92.140808 -35.815002 0.021168
263.490540 -92.140808 -35.815002 0.016615
276.973816 -92.140808 -35.815002 0.013820
290.457092 -92.140808 -35.815002 0.013768
303.940430 -92.140808 -35.815002 0.012147
317.423706 -92.140808 -35.815002 0.011720
330.907043 -92.140808 -35.815002 0.000000
344.390320 -92.140808 -35.815002 0.000000
-343.257996 -105.624115 -35.815002 0.000000
-329.774689 -105.624115 -35.815002 0.000000
-316.291382 -105.624115 -35.815002 0.000000
-302.808105 -105.624115 -35.815002 0.000000
-289.324799 -105.624115 -35.815002 0.000000
-275.841492 -105.624115 -35.815002 0.000000
-262.358185 -105.624115 -35.815002 0.000000
-248.874893 -105.624115 -35.815002 0.000000
-235.391602 -105.624115 -35.815002 0.000000
-221.908295 -105.624115 -35.815002 0.000000
-208.424988 -105.624115 -35.815002 0.000000
-194.941696 -105.624115 -35.815002 0.443075
-181.458389 -105.624115 -35.815002 0.000000
-167.975098 -105.624115 -35.815002 0.000000
-154.491791 -105.624115 -35.815002 0.458962
-141.008499 -105.624115 -35.815002 0.403446
-127.525192 -105.624115 -35.815002 0.388372
-114.041885 -105.624115 -35.815002 0.424028
-100.558594 -105.624115 -35.815002 0.419048
-87.075287 -105.624115 -35.815002 0.000000
-73.591980 -105.624115 -35.815002 0.000000
-60.108704 -105.624115 -35.815002 0.000000
-46.625397 -105.624115 -35.815002 0.399790
-33.142090 -105.624115 -35.815002 0.376498
-19.658783 -105.624115 -35.815002 0.332874
-6.175476 -105.624115 -35.815002 0.294377
7.307800 -105.624115 -35.815002 0.284052
20.791107 -105.624115 -35.815002 0.254961
34.274414 -105.624115 -35.815002 0.217151
47.757721 -105.624115 -35.815002 0.167542
61.240997 -105.624115 -35.815002 0.142298
74.724304 -105.624115 -35.815002 0.117655
88.207611 -105.624115 -35.815002 0.097796
101.690918 -105.624115 -35.815002 0.082396
115.174225 -105.624115 -35.815002 0.067460
128.657501 -105.624115 -35.815002 0.060174
142.140808 -105.624115 -35.815002 0.058938
155.624115 -105.624115 -35.815002 0.060158
169.107422 -105.624115 -35.815002 0.062578
182.590698 -105.624115 -35.815002 0.066883
196.074036 -105.624115 -35.815002 0.067247
209.557312 -105.624115 -35.815002 0.060345
223.040588 -105.624115 -35.815002 0.046533
236.523926 -105.624115 -35.815002 0.034194
250.007202 -105.624115 -35.815002 0.025832
263.490540 -105.624115 -35.815002 0.020673
276.973816 -105.624115 -35.815002 0.019486
290.457092 -105.624115 -35.815002 0.018250
303.940430 -105.624115 -35.815002 0.017419
317.423706 -105.624115 -35.815002 0.017078
330.907043 -105.624115 -35.815002 0.000000
344.390320 -105.624115 -35.815002 0.000000
-343.257996 -119.107422 -35.815002 0.000000
-329.774689 -119.107422 -35.815002 0.000000
-316.291382 -119.107422 -35.815002 0.000000
-302.808105 -119.107422 -35.815002 0.000000
-289.324799 -119.107422 -35.815002 0.000000
-275.841492 -119.107422 -35.815002 0.000000
-262.358185 -119.107422 -35.815002 0.000000
-248.874893 -119.107422 -35.815002 0.000000
-235.391602 -119.107422 -35.815002 0.000000
-221.908295 -119.107422 -35.815002 0.000000
-208.424988 -119.107422 -35.815002 0.000000
-194.941696 -119.107422 -35.815002 0.000000
-181.458389 -119.107422 -35.815002 0.000000
-167.975098 -119.107422 -35.815002 0.000000
-154.491791 -119.107422 -35.815002 0.435833
-141.008499 -119.107422 -35.815002 0.410704
-127.525192 -119.107422 -35.815002 0.393962
-114.041885 -119.107422 -35.815002 0.000000
-100.558594 -119.107422 -35.815002 0.412910
-87.075287 -119.107422 -35.815002 0.000000
-73.591980 -119.107422 -35.815002 0.377161
-60.108704 -119.107422 -35.815002 0.000000
-46.625397 -119.107422 -35.815002 0.383102
-33.142090 -119.107422 -35.815002 0.365795
-19.658783 -119.107422 -35.815002 0.310147
-6.175476 -119.107422 -35.815002 0.277530
7.307800 -119.107422 -35.815002 0.285243
20.791107 -119.107422 -35.815002 0.256045
34.274414 -119.107422 -35.815002 0.219288
47.757721 -119.107422 -35.815002 0.192124
61.240997 -119.107422 -35.815002 0.164233
74.724304 -119.107422 -35.815002 0.135896
88.207611 -119.107422 -35.815002 0.113505
101.690918 -119.107422 -35.815002 0.095268
115.174225 -119.107422 -35.815002 0.075379
128.657501 -119.107422 -35.815002 0.067599
142.140808 -119.107422 -35.815002 0.065133
155.624115 -119.107422 -35.815002 0.069550
169.107422 -119.107422 -35.815002 0.072323
182.590698 -119.107422 -35.815002 0.077486
196.074036 -119.107422 -35.815002 0.081805
209.557312 -119.107422 -35.815002 0.075622
223.040588 -119.107422 -35.815002 0.059575
236.523926 -119.107422 -35.815002 0.044273
250.007202 -119.107422 -35.815002 0.034222
263.490540 -119.107422 -35.815002 0.026954
276.973816 -119.107422 -35.815002 0.023498
290.457092 -119.107422 -35.815002 0.024186
303.940430 -119.107422 -35.815002 0.023767
317.423706 -119.107422 -35.815002 0.023756
330.907043 -119.107422 -35.815002 0.000000
344.390320 -119.107422 -35.815002 0.000000
-343.257996 -132.590698 -35.815002 0.000000
-329.774689 -132.590698 -35.815002 0.000000
-316.291382 -132.590698 -35.815002 0.000000
-302.808105 -132.590698 -35.815002 0.000000
-289.324799 -132.590698 -35.815002 0.000000
-275.841492 -132.590698 -35.815002 0.000000
-262.358185 -132.590698 -35.815002 0.000000
-248.874893 -132.590698 -35.815002 0.000000
-235.391602 -132.590698 -35.815002 0.000000
-221.908295 -132.590698 -35.815002 0.000000
-208.424988 -132.590698 -35.815002 0.000000
-194.941696 -132.590698 -35.815002 0.000000
-181.458389 -132.590698 -35.815002 0.406537
-167.975098 -132.590698 -35.815002 0.397282
-154.491791 -132.590698 -35.815002 0.000000
-141.008499 -132.590698 -35.815002 0.381812
-127.525192 -132.590698 -35.815002 0.403198
-114.041885 -132.590698 -35.815002 0.388923
-100.558594 -132.590698 -35.815002 0.403690
-87.075287 -132.590698 -35.815002 0.382301
-73.591980 -132.590698 -35.815002 0.370538
-60.108704 -132.590698 -35.815002 0.000000
-46.625397 -132.590698 -35.815002 0.000000
-33.142090 -132.590698 -35.815002 0.000000
-19.658783 -132.590698 -35.815002 0.329961
-6.175476 -132.590698 -35.815002 0.318680
7.307800 -132.590698 -35.815002 0.321036
20.791107 -132.590698 -35.815002 0.281295
34.274414 -132.590698 -35.815002 0.250283
47.757721 -132.590698 -35.815002 0.204682
61.240997 -132.590698 -35.815002 0.193226
74.724304 -132.590698 -35.815002 0.165342
88.207611 -132.590698 -35.815002 0.135911
101.690918 -132.590698 -35.815002 0.108395
115.174225 -132.590698 -35.815002 0.088982
128.657501 -132.590698 -35.815002 0.079459
142.140808 -132.590698 -35.815002 0.074939
155.624115 -132.590698 -35.815002 0.075729
169.107422 -132.590698 -35.815002 0.082933
182.590698 -132.590698 -35.815002 0.085949
196.074036 -132.590698 -35.815002 0.094890
209.557312 -132.590698 -35.815002 0.095569
223.040588 -132.590698 -35.815002 0.078492
236.523926 -132.590698 -35.815002 0.055109
250.007202 -132.590698 -35.815002 0.044999
263.490540 -132.590698 -35.815002 0.035754
276.973816 -132.590698 -35.815002 0.030340
290.457092 -132.590698 -35.815002 0.031841
303.940430 -132.590698 -35.815002 0.031170
317.423706 -132.590698 -35.815002 0.000000
330.907043 -132.590698 -35.815002 0.000000
344.390320 -132.590698 -35.815002 0.000000
-343.257996 -146.074036 -35.815002 0.000000
-329.774689 -146.074036 -35.815002 0.000000
-316.291382 -146.074036 -35.815002 0.000000
-302.808105 -146.074036 -35.815002 0.000000
-289.324799 -146.074036 -35.815002 0.000000
-275.841492 -146.074036 -35.815002 0.000000
-262.358185 -146.074036 -35.815002 0.000000
-248.874893 -146.074036 -35.815002 0.000000
-235.391602 -146.074036 -35.815002 0.000000
-221.908295 -146.074036 -35.815002 0.000000
-208.424988 -146.074036 -35.815002 0.000000
-194.941696 -146.074036 -35.815002 0.000000
-181.458389 -146.074036 -35.815002 0.000000
-167.975098 -146.074036 -35.815002 0.000000
-154.491791 -146.074036 -35.815002 0.000000
-141.008499 -146.074036 -35.815002 0.000000
-127.525192 -146.074036 -35.815002 0.000000
-114.041885 -146.074036 -35.815002 0.000000
-100.558594 -146.074036 -35.815002 0.000000
-87.075287 -146.074036 -35.815002 0.000000
-73.591980 -146.074036 -35.815002 0.000000
-60.108704 -146.074036 -35.815002 0.000000
-46.625397 -146.074036 -35.815002 0.000000
-33.142090 -146.074036 -35.815002 0.000000
-19.658783 -146.074036 -35.815002 0.000000
-6.175476 -146.074036 -35.815002 0.000000
7.307800 -146.074036 -35.815002 0.000000
20.791107 -146.074036 -35.815002 0.000000
34.274414 -146.074036 -35.815002 0.000000
47.757721 -146.074036 -35.815002 0.000000
61.240997 -146.074036 -35.815002 0.000000
74.724304 -146.074036 -35.815002 0.000000
88.207611 -146.074036 -35.815002 0.000000
101.690918 -146.074036 -35.815002 0.000000
115.174225 -146.074036 -35.815002 0.000000
128.657501 -146.074036 -35.815002 0.093978
142.140808 -146.074036 -35.815002 0.085413
155.624115 -146.074036 -35.815002 0.088314
169.107422 -146.074036 -35.815002 0.089434
182.590698 -146.074036 -35.815002 0.097619
196.074036 -146.074036 -35.815002 0.104838
209.557312 -146.074036 -35.815002 0.108240
223.040588 -146.074036 -35.815002 0.094019
236.523926 -146.074036 -35.815002 0.074761
250.007202 -146.074036 -35.815002 0.060645
263.490540 -146.074036 -35.815002 0.051708
276.973816 -146.074036 -35.815002 0.000000
290.457092 -146.074036 -35.815002 0.000000
303.940430 -146.074036 -35.815002 0.000000
317.423706 -146.074036 -35.815002 0.000000
330.907043 -146.074036 -35.815002 0.000000
344.390320 -146.074036 -35.815002 0.000000
-343.257996 -159.557312 -35.815002 0.000000
-329.774689 -159.557312 -35.815002 0.000000
-316.291382 -159.557312 -35.815002 0.000000
-302.808105 -159.557312 -35.815002 0.000000
-289.324799 -159.557312 -35.815002 0.000000
-275.841492 -159.557312 -35.815002 0.000000
-262.358185 -159.557312 -35.815002 0.000000
-248.874893 -159.557312 -35.815002 0.000000
-235.391602 -159.557312 -35.815002 0.000000
-221.908295 -159.557312 -35.815002 0.000000
-208.424988 -159.557312 -35.815002 0.000000
-194.941696 -159.557312 -35.815002 0.000000
-181.458389 -159.557312 -35.815002 0.000000
-167.975098 -159.557312 -35.815002 0.000000
-154.491791 -159.557312 -35.815002 0.000000
-141.008499 -159.557312 -35.815002 0.000000
-127.525192 -159.557312 -35.815002 0.000000
-114.041885 -159.557312 -35.815002 0.000000
-100.558594 -159.557312 -35.815002 0.000000
-87.075287 -159.557312 -35.815002 0.000000
-73.591980 -159.557312 -35.815002 0.000000
-60.108704 -159.557312 -35.815002 0.000000
-46.625397 -159.557312 -35.815002 0.000000
-33.142090 -159.557312 -35.815002 0.000000
-19.658783 -159.557312 -35.815002 0.000000
-6.175476 -159.557312 -35.815002 0.000000
7.307800 -159.557312 -35.815002 0.000000
20.791107 -159.557312 -35.815002 0.000000
34.274414 -159.557312 -35.815002 0.000000
47.757721 -159.557312 -35.815002 0.000000
61.240997 -159.557312 -35.815002 0.000000
74.724304 -159.557312 -35.815002 0.000000
88.207611 -159.557312 -35.815002 0.000000
101.690918 -159.557312 -35.815002 0.000000
115.174225 -159.557312 -35.815002 0.000000
128.657501 -159.557312 -35.815002 0.000000
142.140808 -159.557312 -35.815002 0.000000
155.624115 -159.557312 -35.815002 0.000000
169.107422 -159.557312 -35.815002 0.000000
182.590698 -159.557312 -35.815002 0.000000
196.074036 -159.557312 -35.815002 0.000000
209.557312 -159.557312 -35.815002 0.000000
223.040588 -159.557312 -35.815002 0.000000
236.523926 -159.557312 -35.815002 0.000000
250.007202 -159.557312 -35.815002 0.000000
263.490540 -159.557312 -35.815002 0.000000
276.973816 -159.557312 -35.815002 0.000000
290.457092 -159.557312 -35.815002 0.000000
303.940430 -159.557312 -35.815002 0.000000
317.423706 -159.557312 -35.815002 0.000000
330.907043 -159.557312 -35.815002 0.000000
344.390320 -159.557312 -35.815002 0.000000
-343.257996 -173.040588 -35.815002 0.000000
-329.774689 -173.040588 -35.815002 0.000000
-316.291382 -173.040588 -35.815002 0.000000
-302.808105 -173.040588 -35.815002 0.000000
-289.324799 -173.040588 -35.815002 0.000000
-275.841492 -173.040588 -35.815002 0.000000
-262.358185 -173.040588 -35.815002 0.000000
-248.874893 -173.040588 -35.815002 0.000000
-235.391602 -173.040588 -35.815002 0.000000
-221.908295 -173.040588 -35.815002 0.000000
-208.424988 -173.040588 -35.815002 0.000000
-194.941696 -173.040588 -35.815002 0.000000
-181.458389 -173.040588 -35.815002 0.000000
-167.975098 -173.040588 -35.815002 0.000000
-154.491791 -173.040588 -35.815002 0.000000
-141.008499 -173.040588 -35.815002 0.000000
-127.525192 -173.040588 -35.815002 0.000000
-114.041885 -173.040588 -35.815002 0.000000
-100.558594 -173.040588 -35.815002 0.000000
-87.075287 -173.040588 -35.815002 0.000000
-73.591980 -173.040588 -35.815002 0.000000
-60.108704 -173.040588 -35.815002 0.000000
-46.625397 -173.040588 -35.815002 0.000000
-33.142090 -173.040588 -35.815002 0.000000
-19.658783 -173.040588 -35.815002 0.000000
-6.175476 -173.040588 -35.815002 0.000000
7.307800 -173.040588 -35.815002 0.000000
20.791107 -173.040588 -35.815002 0.000000
34.274414 -173.040588 -35.815002 0.000000
47.757721 -173.040588 -35.815002 0.000000
61.240997 -173.040588 -35.815002 0.000000
74.724304 -173.040588 -35.815002 0.000000
88.207611 -173.040588 -35.815002 0.000000
101.690918 -173.040588 -35.815002 0.000000
115.174225 -173.040588 -35.815002 0.000000
128.657501 -173.040588 -35.815002 0.000000
142.140808 -173.040588 -35.815002 0.000000
155.624115 -173.040588 -35.815002 0.000000
169.107422 -173.040588 -35.815002 0.000000
182.590698 -173.040588 -35.815002 0.000000
196.074036 -173.040588 -35.815002 0.000000
209.557312 -173.040588 -35.815002 0.000000
223.040588 -173.040588 -35.815002 0.000000
236.523926 -173.040588 -35.815002 0.000000
250.007202 -173.040588 -35.815002 0.000000
263.490540 -173.040588 -35.815002 0.000000
276.973816 -173.040588 -35.815002 0.000000
290.457092 -173.040588 -35.815002 0.000000
303.940430 -173.040588 -35.815002 0.000000
317.423706 -173.040588 -35.815002 0.000000
330.907043 -173.040588 -35.815002 0.000000
344.390320 -173.040588 -35.815002 0.000000
-343.257996 -186.523926 -35.815002 0.000000
-329.774689 -186.523926 -35.815002 0.000000
-316.291382 -186.523926 -35.815002 0.000000
-302.808105 -186.523926 -35.815002 0.000000
-289.324799 -186.523926 -35.815002 0.000000
-275.841492 -186.523926 -35.815002 0.000000
-262.358185 -186.523926 -35.815002 0.000000
-248.874893 -186.523926 -35.815002 0.000000
-235.391602 -186.523926 -35.815002 0.000000
-221.908295 -186.523926 -35.815002 0.000000
-208.424988 -186.523926 -35.815002 0.000000
-194.941696 -186.523926 -35.815002 0.000000
-181.458389 -186.523926 -35.815002 0.000000
-167.975098 -186.523926 -35.815002 0.000000
-154.491791 -186.523926 -35.815002 0.000000
-141.008499 -186.523926 -35.815002 0.000000
-127.525192 -186.523926 -35.815002 0.000000
-114.041885 -186.523926 -35.815002 0.000000
-100.558594 -186.523926 -35.815002 0.000000
-87.075287 -186.523926 -35.815002 0.000000
-73.591980 -186.523926 -35.815002 0.000000
-60.108704 -186.523926 -35.815002 0.000000
-46.625397 -186.523926 -35.815002 0.000000
-33.142090 -186.523926 -35.815002 0.000000
-19.658783 -186.523926 -35.815002 0.000000
-6.175476 -186.523926 -35.815002 0.000000
7.307800 -186.523926 -35.815002 0.000000
20.791107 -186.523926 -35.815002 0.000000
34.274414 -186.523926 -35.815002 0.000000
47.757721 -186.523926 -35.815002 0.000000
61.240997 -186.523926 -35.815002 0.000000
74.724304 -186.523926 -35.815002 0.000000
88.207611 -186.523926 -35.815002 0.000000
101.690918 -186.523926 -35.815002 0.000000
115.174225 -186.523926 -35.815002 0.000000
128.657501 -186.523926 -35.815002 0.000000
142.140808 -186.523926 -35.815002 0.000000
155.624115 -186.523926 -35.815002 0.000000
169.107422 -186.523926 -35.815002 0.000000
182.590698 -186.523926 -35.815002 0.000000
196.074036 -186.523926 -35.815002 0.000000
209.557312 -186.523926 -35.815002 0.000000
223.040588 -186.523926 -35.815002 0.000000
236.523926 -186.523926 -35.815002 0.000000
250.007202 -186.523926 -35.815002 0.000000
263.490540 -186.523926 -35.815002 0.000000
276.973816 -186.523926 -35.815002 0.000000
290.457092 -186.523926 -35.815002 0.000000
303.940430 -186.523926 -35.815002 0.000000
317.423706 -186.523926 -35.815002 0.000000
330.907043 -186.523926 -35.815002 0.000000
344.390320 -186.523926 -35.815002 0.000000
-343.257996 -200.007202 -35.815002 0.000000
-329.774689 -200.007202 -35.815002 0.000000
-316.291382 -200.007202 -35.815002 0.000000
-302.808105 -200.007202 -35.815002 0.000000
-289.324799 -200.007202 -35.815002 0.000000
-275.841492 -200.007202 -35.815002 0.000000
-262.358185 -200.007202 -35.815002 0.000000
-248.874893 -200.007202 -35.815002 0.000000
-235.391602 -200.007202 -35.815002 0.000000
-221.908295 -200.007202 -35.815002 0.000000
-208.424988 -200.007202 -35.815002 0.000000
-194.941696 -200.007202 -35.815002 0.000000
-181.458389 -200.007202 -35.815002 0.000000
-167.975098 -200.007202 -35.815002 0.000000
-154.491791 -200.007202 -35.815002 0.000000
-141.008499 -200.007202 -35.815002 0.000000
-127.525192 -200.007202 -35.815002 0.000000
-114.041885 -200.007202 -35.815002 0.000000
-100.558594 -200.007202 -35.815002 0.000000
-87.075287 -200.007202 -35.815002 0.000000
-73.591980 -200.007202 -35.815002 0.000000
-60.108704 -200.007202 -35.815002 0.000000
-46.625397 -200.007202 -35.815002 0.000000
-33.142090 -200.007202 -35.815002 0.000000
-19.658783 -200.007202 -35.815002 0.000000
-6.175476 -200.007202 -35.815002 0.000000
7.307800 -200.007202 -35.815002 0.000000
20.791107 -200.007202 -35.815002 0.000000
34.274414 -200.007202 -35.815002 0.000000
47.757721 -200.007202 -35.815002 0.000000
61.240997 -200.007202 -35.815002 0.000000
74.724304 -200.007202 -35.815002 0.000000
88.207611 -200.007202 -35.815002 0.000000
101.690918 -200.007202 -35.815002 0.000000
115.174225 -200.007202 -35.815002 0.000000
128.657501 -200.007202 -35.815002 0.000000
142.140808 -200.007202 -35.815002 0.000000
155.624115 -200.007202 -35.815002 0.000000
169.107422 -200.007202 -35.815002 0.000000
182.590698 -200.007202 -35.815002 0.000000
196.074036 -200.007202 -35.815002 0.000000
209.557312 -200.007202 -35.815002 0.000000
223.040588 -200.007202 -35.815002 0.000000
236.523926 -200.007202 -35.815002 0.000000
250.007202 -200.007202 -35.815002 0.000000
263.490540 -200.007202 -35.815002 0.000000
276.973816 -200.007202 -35.815002 0.000000
290.457092 -200.007202 -35.815002 0.000000
303.940430 -200.007202 -35.815002 0.000000
317.423706 -200.007202 -35.815002 0.000000
330.907043 -200.007202 -35.815002 0.000000
344.390320 -200.007202 -35.815002 0.000000
-343.257996 393.257996 -22.331701 0.000000
-329.774689 393.257996 -22.331701 0.000000
-316.291382 393.257996 -22.331701 0.000000
-302.808105 393.257996 -22.331701 0.000000
-289.324799 393.257996 -22.331701 0.000000
-275.841492 393.257996 -22.331701 0.000000
-262.358185 393.257996 -22.331701 0.000000
-248.874893 393.257996 -22.331701 0.000000
-235.391602 393.257996 -22.331701 0.000000
-221.908295 393.257996 -22.331701 0.000000
-208.424988 393.257996 -22.331701 0.000000
-194.941696 393.257996 -22.331701 0.000000
-181.458389 393.257996 -22.331701 0.000000
-167.975098 393.257996 -22.331701 0.000000
-154.491791 393.257996 -22.331701 0.000000
-141.008499 393.257996 -22.331701 0.000000
-127.525192 393.257996 -22.331701 0.000000
-114.041885 393.257996 -22.331701 0.000000
-100.558594 393.257996 -22.331701 0.000000
-87.075287 393.257996 -22.331701 0.000000
-73.591980 393.257996 -22.331701 0.000000
-60.108704 393.257996 -22.331701 0.000000
-46.625397 393.257996 -22.331701 0.000000
-33.142090 393.257996 -22.331701 0.000000
-19.658783 393.257996 -22.331701 0.000000
-6.175476 393.257996 -22.331701 0.000000
7.307800 393.257996 -22.331701 0.000000
20.791107 393.257996 -22.331701 0.000000
34.274414 393.257996 -22.331701 0.000000
47.757721 393.257996 -22.331701 0.000000
61.240997 393.257996 -22.331701 0.000000
74.724304 393.257996 -22.331701 0.000000
88.207611 393.257996 -22.331701 0.000000
101.690918 393.257996 -22.331701 0.000000
115.174225 393.257996 -22.331701 0.000000
128.657501 393.257996 -22.331701 0.000000
142.140808 393.257996 -22.331701 0.000000
155.624115 393.257996 -22.331701 0.000000
169.107422 393.257996 -22.331701 0.000000
182.590698 393.257996 -22.331701 0.000000
196.074036 393.257996 -22.331701 0.000000
209.557312 393.257996 -22.331701 0.000000
223.040588 393.257996 -22.331701 0.000000
236.523926 393.257996 -22.331701 0.000000
250.007202 393.257996 -22.331701 0.000000
263.490540 393.257996 -22.331701 0.000000
276.973816 393.257996 -22.331701 0.000000
290.457092 393.257996 -22.331701 0.000000
303.940430 393.257996 -22.331701 0.000000
317.423706 393.257996 -22.331701 0.000000
330.907043 393.257996 -22.331701 0.000000
344.390320 393.257996 -22.331701 0.000000
-343.257996 379.774689 -22.331701 0.000000
-329.774689 379.774689 -22.331701 0.000000
-316.291382 379.774689 -22.331701 0.000000
-302.808105 379.774689 -22.331701 0.000000
-289.324799 379.774689 -22.331701 0.000000
-275.841492 379.774689 -22.331701 0.000000
-262.358185 379.774689 -22.331701 0.000000
-248.874893 379.774689 -22.331701 0.000000
-235.391602 379.774689 -22.331701 0.000000
-221.908295 379.774689 -22.331701 0.000000
-208.424988 379.774689 -22.331701 0.000000
-194.941696 379.774689 -22.331701 0.000000
-181.458389 379.774689 -22.331701 0.000000
-167.975098 379.774689 -22.331701 0.000000
-154.491791 379.774689 -22.331701 0.000000
-141.008499 379.774689 -22.331701 0.000000
-127.525192 379.774689 -22.331701 0.000000
-114.041885 379.774689 -22.331701 0.000000
-100.558594 379.774689 -22.331701 0.000000
-87.075287 379.774689 -22.331701 0.000000
-73.591980 379.774689 -22.331701 0.000000
-60.108704 379.774689 -22.331701 0.000000
-46.625397 379.774689 -22.331701 0.000000
-33.142090 379.774689 -22.331701 0.000000
-19.658783 379.774689 -22.331701 0.000000
-6.175476 379.774689 -22.331701 0.000000
7.307800 379.774689 -22.331701 0.000000
20.791107 379.774689 -22.331701 0.000000
34.274414 379.774689 -22.331701 0.000000
47.757721 379.774689 -22.331701 0.000000
61.240997 379.774689 -22.331701 0.000000
74.724304 379.774689 -22.331701 0.000000
88.207611 379.774689 -22.331701 0.000000
101.690918 379.774689 -22.331701 0.000000
115.174225 379.774689 -22.331701 0.000000
128.657501 379.774689 -22.331701 0.000000
142.140808 379.774689 -22.331701 0.000000
155.624115 379.774689 -22.331701 0.000000
169.107422 379.774689 -22.331701 0.000000
182.590698 379.774689 -22.331701 0.000000
196.074036 379.774689 -22.331701 0.000000
209.557312 379.774689 -22.331701 0.000000
223.040588 379.774689 -22.331701 0.000000
236.523926 379.774689 -22.331701 0.000000
250.007202 379.774689 -22.331701 0.000000
263.490540 379.774689 -22.331701 0.000000
276.973816 379.774689 -22.331701 0.000000
290.457092 379.774689 -22.331701 0.000000
303.940430 379.774689 -22.331701 0.000000
317.423706 379.774689 -22.331701 0.000000
330.907043 379.774689 -22.331701 0.000000
344.390320 379.774689 -22.331701 0.000000
-343.257996 366.291382 -22.331701 0.000000
-329.774689 366.291382 -22.331701 0.000000
-316.291382 366.291382 -22.331701 0.000000
-302.808105 366.291382 -22.331701 0.000000
-289.324799 366.291382 -22.331701 0.000000
-275.841492 366.291382 -22.331701 0.000000
-262.358185 366.291382 -22.331701 0.000000
-248.874893 366.291382 -22.331701 0.000000
-235.391602 366.291382 -22.331701 0.000000
-221.908295 366.291382 -22.331701 0.000000
-208.424988 366.291382 -22.331701 0.000000
-194.941696 366.291382 -22.331701 0.000000
-181.458389 366.291382 -22.331701 0.000000
-167.975098 366.291382 -22.331701 0.000000
-154.491791 366.291382 -22.331701 0.000000
-141.008499 366.291382 -22.331701 0.000000
-127.525192 366.291382 -22.331701 0.000000
-114.041885 366.291382 -22.331701 0.000000
-100.558594 366.291382 -22.331701 0.000000
-87.075287 366.291382 -22.331701 0.000000
-73.591980 366.291382 -22.331701 0.000000
-60.108704 366.291382 -22.331701 0.000000
-46.625397 366.291382 -22.331701 0.000000
-33.142090 366.291382 -22.331701 0.000000
-19.658783 366.291382 -22.331701 0.000000
-6.175476 366.291382 -22.331701 0.000000
7.307800 366.291382 -22.331701 0.000000
20.791107 366.291382 -22.331701 0.000000
34.274414 366.291382 -22.331701 0.000000
47.757721 366.291382 -22.331701 0.000000
61.240997 366.291382 -22.331701 0.000000
74.724304 366.291382 -22.331701 0.000000
88.207611 366.291382 -22.331701 0.000000
101.690918 366.291382 -22.331701 0.000000
115.174225 366.291382 -22.331701 0.000000
128.657501 366.291382 -22.331701 0.000000
142.140808 366.291382 -22.331701 0.000000
155.624115 366.291382 -22.331701 0.000000
169.107422 366.291382 -22.331701 0.000000
182.590698 366.291382 -22.331701 0.000000
196.074036 366.291382 -22.331701 0.000000
209.557312 366.291382 -22.331701 0.000000
223.040588 366.291382 -22.331701 0.000000
236.523926 366.291382 -22.331701 0.000000
250.007202 366.291382 -22.331701 0.000000
263.490540 366.291382 -22.331701 0.000000
276.973816 366.291382 -22.331701 0.000000
290.457092 366.291382 -22.331701 0.000000
303.940430 366.291382 -22.331701 0.000000
317.423706 366.291382 -22.331701 0.000000
330.907043 366.291382 -22.331701 0.000000
344.390320 366.291382 -22.331701 0.000000
-343.257996 352.808105 -22.331701 0.000000
-329.774689 352.808105 -22.331701 0.000000
-316.291382 352.808105 -22.331701 0.000000
-302.808105 352.808105 -22.331701 0.024245
-289.324799 352.808105 -22.331701 0.026431
-275.841492 352.808105 -22.331701 0.028194
-262.358185 352.808105 -22.331701 0.036403
-248.874893 352.808105 -22.331701 0.040963
-235.391602 352.808105 -22.331701 0.054559
-221.908295 352.808105 -22.331701 0.075817
-208.424988 352.808105 -22.331701 0.096261
-194.941696 352.808105 -22.331701 0.117802
-181.458389 352.808105 -22.331701 0.000000
-167.975098 352.808105 -22.331701 0.000000
-154.491791 352.808105 -22.331701 0.000000
-141.008499 352.808105 -22.331701 0.000000
-127.525192 352.808105 -22.331701 0.000000
-114.041885 352.808105 -22.331701 0.000000
-100.558594 352.808105 -22.331701 0.000000
-87.075287 352.808105 -22.331701 0.000000
-73.591980 352.808105 -22.331701 0.000000
-60.108704 352.808105 -22.331701 0.000000
-46.625397 352.808105 -22.331701 0.000000
-33.142090 352.808105 -22.331701 0.000000
-19.658783 352.808105 -22.331701 0.000000
-6.175476 352.808105 -22.331701 0.000000
7.307800 352.808105 -22.331701 0.000000
20.791107 352.808105 -22.331701 0.000000
34.274414 352.808105 -22.331701 0.089359
47.757721 352.808105 -22.331701 0.073282
61.240997 352.808105 -22.331701 0.067177
74.724304 352.808105 -22.331701 0.072296
88.207611 352.808105 -22.331701 0.000000
101.690918 352.808105 -22.331701 0.000000
115.174225 352.808105 -22.331701 0.000000
128.657501 352.808105 -22.331701 0.000000
142.140808 352.808105 -22.331701 0.000000
155.624115 352.808105 -22.331701 0.000000
169.107422 352.808105 -22.331701 0.000000
182.590698 352.808105 -22.331701 0.000000
196.074036 352.808105 -22.331701 0.000000
209.557312 352.808105 -22.331701 0.000000
223.040588 352.808105 -22.331701 0.000000
236.523926 352.808105 -22.331701 0.000000
250.007202 352.808105 -22.331701 0.000000
263.490540 352.808105 -22.331701 0.000000
276.973816 352.808105 -22.331701 0.000000
290.457092 352.808105 -22.331701 0.000000
303.940430 352.808105 -22.331701 0.000000
317.423706 352.808105 -22.331701 0.000000
330.907043 352.808105 -22.331701 0.000000
344.390320 352.808105 -22.331701 0.000000
-343.257996 339.324799 -22.331701 0.000000
-329.774689 339.324799 -22.331701 0.000000
-316.291382 339.324799 -22.331701 0.000000
-302.808105 339.324799 -22.331701 0.019429
-289.324799 339.324799 -22.331701 0.023133
-275.841492 339.324799 -22.331701 0.026569
-262.358185 339.324799 -22.331701 0.032973
-248.874893 339.324799 -22.331701 0.041764
-235.391602 339.324799 -22.331701 0.055733
-221.908295 339.324799 -22.331701 0.073270
-208.424988 339.324799 -22.331701 0.106822
-194.941696 339.324799 -22.331701 0.131764
-181.458389 339.324799 -22.331701 0.154910
-167.975098 339.324799 -22.331701 0.188954
-154.491791 339.324799 -22.331701 0.241688
-141.008499 339.324799 -22.331701 0.298127
-127.525192 339.324799 -22.331701 0.318043
-114.041885 339.324799 -22.331701 0.355809
-100.558594 339.324799 -22.331701 0.376503
-87.075287 339.324799 -22.331701 0.369096
-73.591980 339.324799 -22.331701 0.347529
-60.108704 339.324799 -22.331701 0.316268
-46.625397 339.324799 -22.331701 0.318856
-33.142090 339.324799 -22.331701 0.286951
-19.658783 339.324799 -22.331701 0.224367
-6.175476 339.324799 -22.331701 0.184627
7.307800 339.324799 -22.331701 0.146766
20.791107 339.324799 -22.331701 0.117883
34.274414 339.324799 -22.331701 0.096846
47.757721 339.324799 -22.331701 0.088149
61.240997 339.324799 -22.331701 0.082027
74.724304 339.324799 -22.331701 0.083661
88.207611 339.324799 -22.331701 0.108939
101.690918 339.324799 -22.331701 0.136502
115.174225 339.324799 -22.331701 0.185906
128.657501 339.324799 -22.331701 0.228223
142.140808 339.324799 -22.331701 0.247918
155.624115 339.324799 -22.331701 0.259703
169.107422 339.324799 -22.331701 0.262051
182.590698 339.324799 -22.331701 0.264576
196.074036 339.324799 -22.331701 0.259859
209.557312 339.324799 -22.331701 0.241254
223.040588 339.324799 -22.331701 0.221720
236.523926 339.324799 -22.331701 0.191229
250.007202 339.324799 -22.331701 0.161796
263.490540 339.324799 -22.331701 0.139507
276.973816 339.324799 -22.331701 0.130917
290.457092 339.324799 -22.331701 0.000000
303.940430 339.324799 -22.331701 0.000000
317.423706 339.324799 -22.331701 0.000000
330.907043 339.324799 -22.331701 0.000000
344.390320 339.324799 -22.331701 0.000000
-343.257996 325.841492 -22.331701 0.000000
-329.774689 325.841492 -22.331701 0.000000
-316.291382 325.841492 -22.331701 0.015415
-302.808105 325.841492 -22.331701 0.016764
-289.324799 325.841492 -22.331701 0.021283
-275.841492 325.841492 -22.331701 0.026467
-262.358185 325.841492 -22.331701 0.033288
-248.874893 325.841492 -22.331701 0.042902
-235.391602 325.841492 -22.331701 0.055509
-221.908295 325.841492 -22.331701 0.072918
-208.424988 325.841492 -22.331701 0.095092
-194.941696 325.841492 -22.331701 0.124373
-181.458389 325.841492 -22.331701 0.159553
-167.975098 325.841492 -22.331701 0.190790
-154.491791 325.841492 -22.331701 0.248943
-141.008499 325.841492 -22.331701 0.282910
-127.525192 325.841492 -22.331701 0.301370
-114.041885 325.841492 -22.331701 0.312432
-100.558594 325.841492 -22.331701 0.346631
-87.075287 325.841492 -22.331701 0.340853
-73.591980 325.841492 -22.331701 0.336580
-60.108704 325.841492 -22.331701 0.297974
-46.625397 325.841492 -22.331701 0.295779
-33.142090 325.841492 -22.331701 0.282718
-19.658783 325.841492 -22.331701 0.246637
-6.175476 325.841492 -22.331701 0.202827
7.307800 325.841492 -22.331701 0.161633
20.791107 325.841492 -22.331701 0.127577
34.274414 325.841492 -22.331701 0.109387
47.757721 325.841492 -22.331701 0.105213
61.240997 325.841492 -22.331701 0.102099
74.724304 325.841492 -22.331701 0.107971
88.207611 325.841492 -22.331701 0.138526
101.690918 325.841492 -22.331701 0.180779
115.174225 325.841492 -22.331701 0.230989
128.657501 325.841492 -22.331701 0.293726
142.140808 325.841492 -22.331701 0.282742
155.624115 325.841492 -22.331701 0.301033
169.107422 325.841492 -22.331701 0.296379
182.590698 325.841492 -22.331701 0.285270
196.074036 325.841492 -22.331701 0.270597
209.557312 325.841492 -22.331701 0.264359
223.040588 325.841492 -22.331701 0.231169
236.523926 325.841492 -22.331701 0.197504
250.007202 325.841492 -22.331701 0.163510
263.490540 325.841492 -22.331701 0.136534
276.973816 325.841492 -22.331701 0.111093
290.457092 325.841492 -22.331701 0.000000
303.940430 325.841492 -22.331701 0.000000
317.423706 325.841492 -22.331701 0.000000
330.907043 325.841492 -22.331701 0.000000
344.390320 325.841492 -22.331701 0.000000
-343.257996 312.358185 -22.331701 0.000000
-329.774689 312.358185 -22.331701 0.000000
-316.291382 312.358185 -22.331701 0.013012
-302.808105 312.358185 -22.331701 0.014933
-289.324799 312.358185 -22.331701 0.019133
-275.841492 312.358185 -22.331701 0.024925
-262.358185 312.358185 -22.331701 0.032309
-248.874893 312.358185 -22.331701 0.043964
-235.391602 312.358185 -22.331701 0.059481
-221.908295 312.358185 -22.331701 0.078905
-208.424988 312.358185 -22.331701 0.102727
-194.941696 312.358185 -22.331701 0.124103
-181.458389 312.358185 -22.331701 0.151478
-167.975098 312.358185 -22.331701 0.187362
-154.491791 312.358185 -22.331701 0.231290
-141.008499 312.358185 -22.331701 0.267042
-127.525192 312.358185 -22.331701 0.277701
-114.041885 312.358185 -22.331701 0.293112
-100.558594 312.358185 -22.331701 0.315071
-87.075287 312.358185 -22.331701 0.316822
-73.591980 312.358185 -22.331701 0.321390
-60.108704 312.358185 -22.331701 0.286113
-46.625397 312.358185 -22.331701 0.278588
-33.142090 312.358185 -22.331701 0.257780
-19.658783 312.358185 -22.331701 0.234571
-6.175476 312.358185 -22.331701 0.202462
7.307800 312.358185 -22.331701 0.173778
20.791107 312.358185 -22.331701 0.140486
34.274414 312.358185 -22.331701 0.117501
47.757721 312.358185 -22.331701 0.118217
61.240997 312.358185 -22.331701 0.120761
74.724304 312.358185 -22.331701 0.134986
88.207611 312.358185 -22.331701 0.176667
101.690918 312.358185 -22.331701 0.237292
115.174225 312.358185 -22.331701 0.284101
128.657501 312.358185 -22.331701 0.326292
142.140808 312.358185 -22.331701 0.336376
155.624115 312.358185 -22.331701 0.321807
169.107422 312.358185 -22.331701 0.317776
182.590698 312.358185 -22.331701 0.287937
196.074036 312.358185 -22.331701 0.281851
209.557312 312.358185 -22.331701 0.261627
223.040588 312.358185 -22.331701 0.233749
236.523926 312.358185 -22.331701 0.191320
250.007202 312.358185 -22.331701 0.159088
263.490540 312.358185 -22.331701 0.127017
276.973816 312.358185 -22.331701 0.105776
290.457092 312.358185 -22.331701 0.097403
303.940430 312.358185 -22.331701 0.000000
317.423706 312.358185 -22.331701 0.000000
330.907043 312.358185 -22.331701 0.000000
344.390320 312.358185 -22.331701 0.000000
-343.257996 298.874878 -22.331701 0.000000
-329.774689 298.874878 -22.331701 0.000000
-316.291382 298.874878 -22.331701 0.011846
-302.808105 298.874878 -22.331701 0.014457
-289.324799 298.874878 -22.331701 0.018798
-275.841492 298.874878 -22.331701 0.025372
-262.358185 298.874878 -22.331701 0.033443
-248.874893 298.874878 -22.331701 0.046371
-235.391602 298.874878 -22.331701 0.063543
-221.908295 298.874878 -22.331701 0.084356
-208.424988 298.874878 -22.331701 0.104220
-194.941696 298.874878 -22.331701 0.123929
-181.458389 298.874878 -22.331701 0.146783
-167.975098 298.874878 -22.331701 0.175205
-154.491791 298.874878 -22.331701 0.217702
-141.008499 298.874878 -22.331701 0.250434
-127.525192 298.874878 -22.331701 0.267508
-114.041885 298.874878 -22.331701 0.289589
-100.558594 298.874878 -22.331701 0.304781
-87.075287 298.874878 -22.331701 0.306999
-73.591980 298.874878 -22.331701 0.293922
-60.108704 298.874878 -22.331701 0.283090
-46.625397 298.874878 -22.331701 0.252593
-33.142090 298.874878 -22.331701 0.238607
-19.658783 298.874878 -22.331701 0.232959
-6.175476 298.874878 -22.331701 0.206499
7.307800 298.874878 -22.331701 0.182160
20.791107 298.874878 -22.331701 0.158514
34.274414 298.874878 -22.331701 0.137496
47.757721 298.874878 -22.331701 0.140076
61.240997 298.874878 -22.331701 0.137044
74.724304 298.874878 -22.331701 0.160001
88.207611 298.874878 -22.331701 0.210570
101.690918 298.874878 -22.331701 0.290059
115.174225 298.874878 -22.331701 0.335472
128.657501 298.874878 -22.331701 0.362795
142.140808 298.874878 -22.331701 0.353920
155.624115 298.874878 -22.331701 0.335267
169.107422 298.874878 -22.331701 0.313135
182.590698 298.874878 -22.331701 0.285069
196.074036 298.874878 -22.331701 0.272853
209.557312 298.874878 -22.331701 0.249321
223.040588 298.874878 -22.331701 0.228753
236.523926 298.874878 -22.331701 0.185189
250.007202 298.874878 -22.331701 0.146161
263.490540 298.874878 -22.331701 0.113761
276.973816 298.874878 -22.331701 0.093106
290.457092 298.874878 -22.331701 0.080850
303.940430 298.874878 -22.331701 0.000000
317.423706 298.874878 -22.331701 0.000000
330.907043 298.874878 -22.331701 0.000000
344.390320 298.874878 -22.331701 0.000000
-343.257996 285.391602 -22.331701 0.000000
-329.774689 285.391602 -22.331701 0.000000
-316.291382 285.391602 -22.331701 0.011762
-302.808105 285.391602 -22.331701 0.014003
-289.324799 285.391602 -22.331701 0.017729
-275.841492 285.391602 -22.331701 0.024000
-262.358185 285.391602 -22.331701 0.033178
-248.874893 285.391602 -22.331701 0.046404
-235.391602 285.391602 -22.331701 0.064726
-221.908295 285.391602 -22.331701 0.091070
-208.424988 285.391602 -22.331701 0.112746
-194.941696 285.391602 -22.331701 0.126269
-181.458389 285.391602 -22.331701 0.146486
-167.975098 285.391602 -22.331701 0.174845
-154.491791 285.391602 -22.331701 0.211388
-141.008499 285.391602 -22.331701 0.235320
-127.525192 285.391602 -22.331701 0.254440
-114.041885 285.391602 -22.331701 0.276204
-100.558594 285.391602 -22.331701 0.285102
-87.075287 285.391602 -22.331701 0.292546
-73.591980 285.391602 -22.331701 0.291979
-60.108704 285.391602 -22.331701 0.269902
-46.625397 285.391602 -22.331701 0.249614
-33.142090 285.391602 -22.331701 0.242233
-19.658783 285.391602 -22.331701 0.236214
-6.175476 285.391602 -22.331701 0.207861
7.307800 285.391602 -22.331701 0.205017
20.791107 285.391602 -22.331701 0.181126
34.274414 285.391602 -22.331701 0.173002
47.757721 285.391602 -22.331701 0.158295
61.240997 285.391602 -22.331701 0.172477
74.724304 285.391602 -22.331701 0.203988
88.207611 285.391602 -22.331701 0.275688
101.690918 285.391602 -22.331701 0.347318
115.174225 285.391602 -22.331701 0.376212
128.657501 285.391602 -22.331701 0.377675
142.140808 285.391602 -22.331701 0.369548
155.624115 285.391602 -22.331701 0.328365
169.107422 285.391602 -22.331701 0.296583
182.590698 285.391602 -22.331701 0.272574
196.074036 285.391602 -22.331701 0.254636
209.557312 285.391602 -22.331701 0.231335
223.040588 285.391602 -22.331701 0.214073
236.523926 285.391602 -22.331701 0.184678
250.007202 285.391602 -22.331701 0.134511
263.490540 285.391602 -22.331701 0.104914
276.973816 285.391602 -22.331701 0.081626
290.457092 285.391602 -22.331701 0.063063
303.940430 285.391602 -22.331701 0.055097
317.423706 285.391602 -22.331701 0.000000
330.907043 285.391602 -22.331701 0.000000
344.390320 285.391602 -22.331701 0.000000
-343.257996 271.908295 -22.331701 0.000000
-329.774689 271.908295 -22.331701 0.000000
-316.291382 271.908295 -22.331701 0.010830
-302.808105 271.908295 -22.331701 0.013656
-289.324799 271.908295 -22.331701 0.018174
-275.841492 271.908295 -22.331701 0.025111
-262.358185 271.908295 -22.331701 0.034973
-248.874893 271.908295 -22.331701 0.048123
-235.391602 271.908295 -22.331701 0.067227
-221.908295 271.908295 -22.331701 0.090220
-208.424988 271.908295 -22.331701 0.113621
-194.941696 271.908295 -22.331701 0.132439
-181.458389 271.908295 -22.331701 0.155185
-167.975098 271.908295 -22.331701 0.175232
-154.491791 271.908295 -22.331701 0.203096
-141.008499 271.908295 -22.331701 0.226364
-127.525192 271.908295 -22.331701 0.246583
-114.041885 271.908295 -22.331701 0.259289
-100.558594 271.908295 -22.331701 0.268250
-87.075287 271.908295 -22.331701 0.281818
-73.591980 271.908295 -22.331701 0.282331
-60.108704 271.908295 -22.331701 0.271284
-46.625397 271.908295 -22.331701 0.250556
-33.142090 271.908295 -22.331701 0.249570
-19.658783 271.908295 -22.331701 0.244427
-6.175476 271.908295 -22.331701 0.212765
7.307800 271.908295 -22.331701 0.197223
20.791107 271.908295 -22.331701 0.199056
34.274414 271.908295 -22.331701 0.193121
47.757721 271.908295 -22.331701 0.194327
61.240997 271.908295 -22.331701 0.215165
74.724304 271.908295 -22.331701 0.253304
88.207611 271.908295 -22.331701 0.321518
101.690918 271.908295 -22.331701 0.370117
115.174225 271.908295 -22.331701 0.402176
128.657501 271.908295 -22.331701 0.404721
142.140808 271.908295 -22.331701 0.349876
155.624115 271.908295 -22.331701 0.309194
169.107422 271.908295 -22.331701 0.284293
182.590698 271.908295 -22.331701 0.272858
196.074036 271.908295 -22.331701 0.234938
209.557312 271.908295 -22.331701 0.209343
223.040588 271.908295 -22.331701 0.196976
236.523926 271.908295 -22.331701 0.173724
250.007202 271.908295 -22.331701 0.127561
263.490540 271.908295 -22.331701 0.098340
276.973816 271.908295 -22.331701 0.071842
290.457092 271.908295 -22.331701 0.054551
303.940430 271.908295 -22.331701 0.041933
317.423706 271.908295 -22.331701 0.000000
330.907043 271.908295 -22.331701 0.000000
344.390320 271.908295 -22.331701 0.000000
-343.257996 258.424988 -22.331701 0.000000
-329.774689 258.424988 -22.331701 0.000000
-316.291382 258.424988 -22.331701 0.010663
-302.808105 258.424988 -22.331701 0.013874
-289.324799 258.424988 -22.331701 0.019186
-275.841492 258.424988 -22.331701 0.028236
-262.358185 258.424988 -22.331701 0.038949
-248.874893 258.424988 -22.331701 0.051271
-235.391602 258.424988 -22.331701 0.070500
-221.908295 258.424988 -22.331701 0.096687
-208.424988 258.424988 -22.331701 0.122373
-194.941696 258.424988 -22.331701 0.144362
-181.458389 258.424988 -22.331701 0.161699
-167.975098 258.424988 -22.331701 0.186897
-154.491791 258.424988 -22.331701 0.216515
-141.008499 258.424988 -22.331701 0.235453
-127.525192 258.424988 -22.331701 0.257166
-114.041885 258.424988 -22.331701 0.273428
-100.558594 258.424988 -22.331701 0.292029
-87.075287 258.424988 -22.331701 0.277313
-73.591980 258.424988 -22.331701 0.276885
-60.108704 258.424988 -22.331701 0.271106
-46.625397 258.424988 -22.331701 0.252727
-33.142090 258.424988 -22.331701 0.256296
-19.658783 258.424988 -22.331701 0.258159
-6.175476 258.424988 -22.331701 0.226582
7.307800 258.424988 -22.331701 0.224863
20.791107 258.424988 -22.331701 0.220660
34.274414 258.424988 -22.331701 0.229075
47.757721 258.424988 -22.331701 0.225628
61.240997 258.424988 -22.331701 0.252086
74.724304 258.424988 -22.331701 0.305397
88.207611 258.424988 -22.331701 0.363915
101.690918 258.424988 -22.331701 0.391551
115.174225 258.424988 -22.331701 0.374172
128.657501 258.424988 -22.331701 0.352648
142.140808 258.424988 -22.331701 0.323182
155.624115 258.424988 -22.331701 0.279180
169.107422 258.424988 -22.331701 0.271540
182.590698 258.424988 -22.331701 0.262394
196.074036 258.424988 -22.331701 0.231909
209.557312 258.424988 -22.331701 0.196005
223.040588 258.424988 -22.331701 0.181155
236.523926 258.424988 -22.331701 0.154726
250.007202 258.424988 -22.331701 0.117849
263.490540 258.424988 -22.331701 0.090203
276.973816 258.424988 -22.331701 0.062611
290.457092 258.424988 -22.331701 0.043152
303.940430 258.424988 -22.331701 0.031910
317.423706 258.424988 -22.331701 0.000000
330.907043 258.424988 -22.331701 0.000000
344.390320 258.424988 -22.331701 0.000000
-343.257996 244.941696 -22.331701 0.000000
-329.774689 244.941696 -22.331701 0.000000
-316.291382 244.941696 -22.331701 0.011015
-302.808105 244.941696 -22.331701 0.014437
-289.324799 244.941696 -22.331701 0.021101
-275.841492 244.941696 -22.331701 0.030231
-262.358185 244.941696 -22.331701 0.041763
-248.874893 244.941696 -22.331701 0.057189
-235.391602 244.941696 -22.331701 0.076943
-221.908295 244.941696 -22.331701 0.100956
-208.424988 244.941696 -22.331701 0.132721
-194.941696 244.941696 -22.331701 0.159484
-181.458389 244.941696 -22.331701 0.187943
-167.975098 244.941696 -22.331701 0.207813
-154.491791 244.941696 -22.331701 0.240790
-141.008499 244.941696 -22.331701 0.259801
-127.525192 244.941696 -22.331701 0.275449
-114.041885 244.941696 -22.331701 0.291216
-100.558594 244.941696 -22.331701 0.313248
-87.075287 244.941696 -22.331701 0.303310
-73.591980 244.941696 -22.331701 0.272218
-60.108704 244.941696 -22.331701 0.272080
-46.625397 244.941696 -22.331701 0.261451
-33.142090 244.941696 -22.331701 0.268772
-19.658783 244.941696 -22.331701 0.253137
-6.175476 244.941696 -22.331701 0.239836
7.307800 244.941696 -22.331701 0.240745
20.791107 244.941696 -22.331701 0.255962
34.274414 244.941696 -22.331701 0.253584
47.757721 244.941696 -22.331701 0.000000
61.240997 244.941696 -22.331701 0.300629
74.724304 244.941696 -22.331701 0.339131
88.207611 244.941696 -22.331701 0.417491
101.690918 244.941696 -22.331701 0.409963
115.174225 244.941696 -22.331701 0.357611
128.657501 244.941696 -22.331701 0.303532
142.140808 244.941696 -22.331701 0.271807
155.624115 244.941696 -22.331701 0.281870
169.107422 244.941696 -22.331701 0.262957
182.590698 244.941696 -22.331701 0.257194
196.074036 244.941696 -22.331701 0.233616
209.557312 244.941696 -22.331701 0.198034
223.040588 244.941696 -22.331701 0.165806
236.523926 244.941696 -22.331701 0.135132
250.007202 244.941696 -22.331701 0.109748
263.490540 244.941696 -22.331701 0.085150
276.973816 244.941696 -22.331701 0.059121
290.457092 244.941696 -22.331701 0.038500
303.940430 244.941696 -22.331701 0.023948
317.423706 244.941696 -22.331701 0.018658
330.907043 244.941696 -22.331701 0.000000
344.390320 244.941696 -22.331701 0.000000
-343.257996 231.458389 -22.331701 0.000000
-329.774689 231.458389 -22.331701 0.000000
-316.291382 231.458389 -22.331701 0.010880
-302.808105 231.458389 -22.331701 0.013966
-289.324799 231.458389 -22.331701 0.022605
-275.841492 231.458389 -22.331701 0.031820
-262.358185 231.458389 -22.331701 0.045147
-248.874893 231.458389 -22.331701 0.061781
-235.391602 231.458389 -22.331701 0.088834
-221.908295 231.458389 -22.331701 0.118625
-208.424988 231.458389 -22.331701 0.152983
-194.941696 231.458389 -22.331701 0.176525
-181.458389 231.458389 -22.331701 0.208527
-167.975098 231.458389 -22.331701 0.244827
-154.491791 231.458389 -22.331701 0.271625
-141.008499 231.458389 -22.331701 0.302323
-127.525192 231.458389 -22.331701 0.310092
-114.041885 231.458389 -22.331701 0.327670
-100.558594 231.458389 -22.331701 0.335850
-87.075287 231.458389 -22.331701 0.311092
-73.591980 231.458389 -22.331701 0.283843
-60.108704 231.458389 -22.331701 0.265064
-46.625397 231.458389 -22.331701 0.257565
-33.142090 231.458389 -22.331701 0.264040
-19.658783 231.458389 -22.331701 0.261518
-6.175476 231.458389 -22.331701 0.251457
7.307800 231.458389 -22.331701 0.261166
20.791107 231.458389 -22.331701 0.280774
34.274414 231.458389 -22.331701 0.285773
47.757721 231.458389 -22.331701 0.319677
61.240997 231.458389 -22.331701 0.000000
74.724304 231.458389 -22.331701 0.380673
88.207611 231.458389 -22.331701 0.423425
101.690918 231.458389 -22.331701 0.399407
115.174225 231.458389 -22.331701 0.349982
128.657501 231.458389 -22.331701 0.000000
142.140808 231.458389 -22.331701 0.267796
155.624115 231.458389 -22.331701 0.266419
169.107422 231.458389 -22.331701 0.256548
182.590698 231.458389 -22.331701 0.234663
196.074036 231.458389 -22.331701 0.209909
209.557312 231.458389 -22.331701 0.180391
223.040588 231.458389 -22.331701 0.149564
236.523926 231.458389 -22.331701 0.125724
250.007202 231.458389 -22.331701 0.103133
263.490540 231.458389 -22.331701 0.079037
276.973816 231.458389 -22.331701 0.052401
290.457092 231.458389 -22.331701 0.032651
303.940430 231.458389 -22.331701 0.020296
317.423706 231.458389 -22.331701 0.015002
330.907043 231.458389 -22.331701 0.000000
344.390320 231.458389 -22.331701 0.000000
-343.257996 217.975098 -22.331701 0.000000
-329.774689 217.975098 -22.331701 0.000000
-316.291382 217.975098 -22.331701 0.011121
-302.808105 217.975098 -22.331701 0.015121
-289.324799 217.975098 -22.331701 0.023432
-275.841492 217.975098 -22.331701 0.032491
-262.358185 217.975098 -22.331701 0.047035
-248.874893 217.975098 -22.331701 0.068729
-235.391602 217.975098 -22.331701 0.095634
-221.908295 217.975098 -22.331701 0.127613
-208.424988 217.975098 -22.331701 0.172536
-194.941696 217.975098 -22.331701 0.211257
-181.458389 217.975098 -22.331701 0.250388
-167.975098 217.975098 -22.331701 0.282671
-154.491791 217.975098 -22.331701 0.328544
-141.008499 217.975098 -22.331701 0.356136
-127.525192 217.975098 -22.331701 0.374171
-114.041885 217.975098 -22.331701 0.390856
-100.558594 217.975098 -22.331701 0.365497
-87.075287 217.975098 -22.331701 0.335721
-73.591980 217.975098 -22.331701 0.294446
-60.108704 217.975098 -22.331701 0.265077
-46.625397 217.975098 -22.331701 0.239336
-33.142090 217.975098 -22.331701 0.256229
-19.658783 217.975098 -22.331701 0.272503
-6.175476 217.975098 -22.331701 0.268242
7.307800 217.975098 -22.331701 0.288420
20.791107 217.975098 -22.331701 0.323326
34.274414 217.975098 -22.331701 0.336428
47.757721 217.975098 -22.331701 0.350004
61.240997 217.975098 -22.331701 0.376668
74.724304 217.975098 -22.331701 0.392897
88.207611 217.975098 -22.331701 0.393306
101.690918 217.975098 -22.331701 0.367979
115.174225 217.975098 -22.331701 0.322480
128.657501 217.975098 -22.331701 0.279538
142.140808 217.975098 -22.331701 0.261853
155.624115 217.975098 -22.331701 0.255809
169.107422 217.975098 -22.331701 0.237432
182.590698 217.975098 -22.331701 0.219566
196.074036 217.975098 -22.331701 0.188046
209.557312 217.975098 -22.331701 0.167565
223.040588 217.975098 -22.331701 0.139319
236.523926 217.975098 -22.331701 0.119078
250.007202 217.975098 -22.331701 0.098415
263.490540 217.975098 -22.331701 0.070838
276.973816 217.975098 -22.331701 0.046940
290.457092 217.975098 -22.331701 0.028242
303.940430 217.975098 -22.331701 0.017190
317.423706 217.975098 -22.331701 0.012345
330.907043 217.975098 -22.331701 0.000000
344.390320 217.975098 -22.331701 0.000000
-343.257996 204.491791 -22.331701 0.000000
-329.774689 204.491791 -22.331701 0.000000
-316.291382 204.491791 -22.331701 0.011702
-302.808105 204.491791 -22.331701 0.016049
-289.324799 204.491791 -22.331701 0.024660
-275.841492 204.491791 -22.331701 0.034582
-262.358185 204.491791 -22.331701 0.051691
-248.874893 204.491791 -22.331701 0.078131
-235.391602 204.491791 -22.331701 0.108834
-221.908295 204.491791 -22.331701 0.140114
-208.424988 204.491791 -22.331701 0.181795
-194.941696 204.491791 -22.331701 0.227867
-181.458389 204.491791 -22.331701 0.284080
-167.975098 204.491791 -22.331701 0.343557
-154.491791 204.491791 -22.331701 0.383570
-141.008499 204.491791 -22.331701 0.421272
-127.525192 204.491791 -22.331701 0.425056
-114.041885 204.491791 -22.331701 0.427320
-100.558594 204.491791 -22.331701 0.418148
-87.075287 204.491791 -22.331701 0.359766
-73.591980 204.491791 -22.331701 0.308648
-60.108704 204.491791 -22.331701 0.265482
-46.625397 204.491791 -22.331701 0.234873
-33.142090 204.491791 -22.331701 0.244465
-19.658783 204.491791 -22.331701 0.267452
-6.175476 204.491791 -22.331701 0.279794
7.307800 204.491791 -22.331701 0.308804
20.791107 204.491791 -22.331701 0.324831
34.274414 204.491791 -22.331701 0.357923
47.757721 204.491791 -22.331701 0.379764
61.240997 204.491791 -22.331701 0.388105
74.724304 204.491791 -22.331701 0.356465
88.207611 204.491791 -22.331701 0.344641
101.690918 204.491791 -22.331701 0.322900
115.174225 204.491791 -22.331701 0.281438
128.657501 204.491791 -22.331701 0.253334
142.140808 204.491791 -22.331701 0.248172
155.624115 204.491791 -22.331701 0.221722
169.107422 204.491791 -22.331701 0.216506
182.590698 204.491791 -22.331701 0.190173
196.074036 204.491791 -22.331701 0.173683
209.557312 204.491791 -22.331701 0.158720
223.040588 204.491791 -22.331701 0.133770
236.523926 204.491791 -22.331701 0.111407
250.007202 204.491791 -22.331701 0.090169
263.490540 204.491791 -22.331701 0.063017
276.973816 204.491791 -22.331701 0.040525
290.457092 204.491791 -22.331701 0.025994
303.940430 204.491791 -22.331701 0.015994
317.423706 204.491791 -22.331701 0.011097
330.907043 204.491791 -22.331701 0.000000
344.390320 204.491791 -22.331701 0.000000
-343.257996 191.008499 -22.331701 0.000000
-329.774689 191.008499 -22.331701 0.000000
-316.291382 191.008499 -22.331701 0.011945
-302.808105 191.008499 -22.331701 0.016275
-289.324799 191.008499 -22.331701 0.024839
-275.841492 191.008499 -22.331701 0.037593
-262.358185 191.008499 -22.331701 0.056066
-248.874893 191.008499 -22.331701 0.082924
-235.391602 191.008499 -22.331701 0.121198
-221.908295 191.008499 -22.331701 0.158729
-208.424988 191.008499 -22.331701 0.206168
-194.941696 191.008499 -22.331701 0.255385
-181.458389 191.008499 -22.331701 0.327676
-167.975098 191.008499 -22.331701 0.410784
-154.491791 191.008499 -22.331701 0.468006
-141.008499 191.008499 -22.331701 0.486395
-127.525192 191.008499 -22.331701 0.468081
-114.041885 191.008499 -22.331701 0.451906
-100.558594 191.008499 -22.331701 0.439503
-87.075287 191.008499 -22.331701 0.366264
-73.591980 191.008499 -22.331701 0.310181
-60.108704 191.008499 -22.331701 0.266525
-46.625397 191.008499 -22.331701 0.239574
-33.142090 191.008499 -22.331701 0.249937
-19.658783 191.008499 -22.331701 0.267870
-6.175476 191.008499 -22.331701 0.277951
7.307800 191.008499 -22.331701 0.302254
20.791107 191.008499 -22.331701 0.332371
34.274414 191.008499 -22.331701 0.360941
47.757721 191.008499 -22.331701 0.365119
61.240997 191.008499 -22.331701 0.376344
74.724304 191.008499 -22.331701 0.347466
88.207611 191.008499 -22.331701 0.311579
101.690918 191.008499 -22.331701 0.285023
115.174225 191.008499 -22.331701 0.266846
128.657501 191.008499 -22.331701 0.240254
142.140808 191.008499 -22.331701 0.219763
155.624115 191.008499 -22.331701 0.218462
169.107422 191.008499 -22.331701 0.191817
182.590698 191.008499 -22.331701 0.168043
196.074036 191.008499 -22.331701 0.159568
209.557312 191.008499 -22.331701 0.142222
223.040588 191.008499 -22.331701 0.124426
236.523926 191.008499 -22.331701 0.105907
250.007202 191.008499 -22.331701 0.080480
263.490540 191.008499 -22.331701 0.054534
276.973816 191.008499 -22.331701 0.037106
290.457092 191.008499 -22.331701 0.023575
303.940430 191.008499 -22.331701 0.014792
317.423706 191.008499 -22.331701 0.010482
330.907043 191.008499 -22.331701 0.000000
344.390320 191.008499 -22.331701 0.000000
-343.257996 177.525192 -22.331701 0.000000
-329.774689 177.525192 -22.331701 0.000000
-316.291382 177.525192 -22.331701 0.012933
-302.808105 177.525192 -22.331701 0.017594
-289.324799 177.525192 -22.331701 0.025644
-275.841492 177.525192 -22.331701 0.038679
-262.358185 177.525192 -22.331701 0.058516
-248.874893 177.525192 -22.331701 0.088609
-235.391602 177.525192 -22.331701 0.135584
-221.908295 177.525192 -22.331701 0.185053
-208.424988 177.525192 -22.331701 0.225835
-194.941696 177.525192 -22.331701 0.292786
-181.458389 177.525192 -22.331701 0.371556
-167.975098 177.525192 -22.331701 0.439977
-154.491791 177.525192 -22.331701 0.512845
-141.008499 177.525192 -22.331701 0.549060
-127.525192 177.525192 -22.331701 0.511670
-114.041885 177.525192 -22.331701 0.466440
-100.558594 177.525192 -22.331701 0.429190
-87.075287 177.525192 -22.331701 0.364725
-73.591980 177.525192 -22.331701 0.304339
-60.108704 177.525192 -22.331701 0.255526
-46.625397 177.525192 -22.331701 0.255235
-33.142090 177.525192 -22.331701 0.249722
-19.658783 177.525192 -22.331701 0.260677
-6.175476 177.525192 -22.331701 0.265791
7.307800 177.525192 -22.331701 0.274055
20.791107 177.525192 -22.331701 0.302797
34.274414 177.525192 -22.331701 0.330562
47.757721 177.525192 -22.331701 0.371575
61.240997 177.525192 -22.331701 0.346617
74.724304 177.525192 -22.331701 0.318700
88.207611 177.525192 -22.331701 0.285771
101.690918 177.525192 -22.331701 0.247941
115.174225 177.525192 -22.331701 0.228711
128.657501 177.525192 -22.331701 0.204286
142.140808 177.525192 -22.331701 0.203736
155.624115 177.525192 -22.331701 0.197314
169.107422 177.525192 -22.331701 0.181149
182.590698 177.525192 -22.331701 0.159590
196.074036 177.525192 -22.331701 0.143797
209.557312 177.525192 -22.331701 0.129953
223.040588 177.525192 -22.331701 0.114905
236.523926 177.525192 -22.331701 0.095236
250.007202 177.525192 -22.331701 0.071772
263.490540 177.525192 -22.331701 0.049762
276.973816 177.525192 -22.331701 0.033815
290.457092 177.525192 -22.331701 0.022578
303.940430 177.525192 -22.331701 0.014235
317.423706 177.525192 -22.331701 0.010016
330.907043 177.525192 -22.331701 0.000000
344.390320 177.525192 -22.331701 0.000000
-343.257996 164.041885 -22.331701 0.000000
-329.774689 164.041885 -22.331701 0.000000
-316.291382 164.041885 -22.331701 0.013108
-302.808105 164.041885 -22.331701 0.018071
-289.324799 164.041885 -22.331701 0.027145
-275.841492 164.041885 -22.331701 0.040258
-262.358185 164.041885 -22.331701 0.059898
-248.874893 164.041885 -22.331701 0.091453
-235.391602 164.041885 -22.331701 0.141325
-221.908295 164.041885 -22.331701 0.200761
-208.424988 164.041885 -22.331701 0.266543
-194.941696 164.041885 -22.331701 0.325141
-181.458389 164.041885 -22.331701 0.405244
-167.975098 164.041885 -22.331701 0.481295
-154.491791 164.041885 -22.331701 0.547815
-141.008499 164.041885 -22.331701 0.590640
-127.525192 164.041885 -22.331701 0.535832
-114.041885 164.041885 -22.331701 0.464399
-100.558594 164.041885 -22.331701 0.423445
-87.075287 164.041885 -22.331701 0.368267
-73.591980 164.041885 -22.331701 0.317678
-60.108704 164.041885 -22.331701 0.254067
-46.625397 164.041885 -22.331701 0.266135
-33.142090 164.041885 -22.331701 0.250907
-19.658783 164.041885 -22.331701 0.255727
-6.175476 164.041885 -22.331701 0.262101
7.307800 164.041885 -22.331701 0.263938
20.791107 164.041885 -22.331701 0.291748
34.274414 164.041885 -22.331701 0.321389
47.757721 164.041885 -22.331701 0.340387
61.240997 164.041885 -22.331701 0.328881
74.724304 164.041885 -22.331701 0.285468
88.207611 164.041885 -22.331701 0.261418
101.690918 164.041885 -22.331701 0.239996
115.174225 164.041885 -22.331701 0.213990
128.657501 164.041885 -22.331701 0.189869
142.140808 164.041885 -22.331701 0.186163
155.624115 164.041885 -22.331701 0.185048
169.107422 164.041885 -22.331701 0.163569
182.590698 164.041885 -22.331701 0.144116
196.074036 164.041885 -22.331701 0.130167
209.557312 164.041885 -22.331701 0.117022
223.040588 164.041885 -22.331701 0.099016
236.523926 164.041885 -22.331701 0.081784
250.007202 164.041885 -22.331701 0.058105
263.490540 164.041885 -22.331701 0.043311
276.973816 164.041885 -22.331701 0.029440
290.457092 164.041885 -22.331701 0.020044
303.940430 164.041885 -22.331701 0.013270
317.423706 164.041885 -22.331701 0.009797
330.907043 164.041885 -22.331701 0.000000
344.390320 164.041885 -22.331701 0.000000
-343.257996 150.558594 -22.331701 0.000000
-329.774689 150.558594 -22.331701 0.000000
-316.291382 150.558594 -22.331701 0.013988
-302.808105 150.558594 -22.331701 0.018728
-289.324799 150.558594 -22.331701 0.027555
-275.841492 150.558594 -22.331701 0.041386
-262.358185 150.558594 -22.331701 0.060929
-248.874893 150.558594 -22.331701 0.095192
-235.391602 150.558594 -22.331701 0.140855
-221.908295 150.558594 -22.331701 0.192074
-208.424988 150.558594 -22.331701 0.263189
-194.941696 150.558594 -22.331701 0.323312
-181.458389 150.558594 -22.331701 0.382915
-167.975098 150.558594 -22.331701 0.474304
-154.491791 150.558594 -22.331701 0.535523
-141.008499 150.558594 -22.331701 0.548618
-127.525192 150.558594 -22.331701 0.528684
-114.041885 150.558594 -22.331701 0.476562
-100.558594 150.558594 -22.331701 0.408952
-87.075287 150.558594 -22.331701 0.341823
-73.591980 150.558594 -22.331701 0.307325
-60.108704 150.558594 -22.331701 0.263765
-46.625397 150.558594 -22.331701 0.259568
-33.142090 150.558594 -22.331701 0.243997
-19.658783 150.558594 -22.331701 0.242653
-6.175476 150.558594 -22.331701 0.258264
7.307800 150.558594 -22.331701 0.259098
20.791107 150.558594 -22.331701 0.283283
34.274414 150.558594 -22.331701 0.305427
47.757721 150.558594 -22.331701 0.291939
61.240997 150.558594 -22.331701 0.300054
74.724304 150.558594 -22.331701 0.280318
88.207611 150.558594 -22.331701 0.249949
101.690918 150.558594 -22.331701 0.224194
115.174225 150.558594 -22.331701 0.194747
128.657501 150.558594 -22.331701 0.178921
142.140808 150.558594 -22.331701 0.168406
155.624115 150.558594 -22.331701 0.162510
169.107422 150.558594 -22.331701 0.146787
182.590698 150.558594 -22.331701 0.127448
196.074036 150.558594 -22.331701 0.114329
209.557312 150.558594 -22.331701 0.099005
223.040588 150.558594 -22.331701 0.083838
236.523926 150.558594 -22.331701 0.065195
250.007202 150.558594 -22.331701 0.047428
263.490540 150.558594 -22.331701 0.036287
276.973816 150.558594 -22.331701 0.024688
290.457092 150.558594 -22.331701 0.016845
303.940430 150.558594 -22.331701 0.012212
317.423706 150.558594 -22.331701 0.009105
330.907043 150.558594 -22.331701 0.000000
344.390320 150.558594 -22.331701 0.000000
-343.257996 137.075287 -22.331701 0.000000
-329.774689 137.075287 -22.331701 0.000000
-316.291382 137.075287 -22.331701 0.015413
-302.808105 137.075287 -22.331701 0.018854
-289.324799 137.075287 -22.331701 0.026285
-275.841492 137.075287 -22.331701 0.039564
-262.358185 137.075287 -22.331701 0.061352
-248.874893 137.075287 -22.331701 0.089192
-235.391602 137.075287 -22.331701 0.134905
-221.908295 137.075287 -22.331701 0.176869
-208.424988 137.075287 -22.331701 0.244917
-194.941696 137.075287 -22.331701 0.323861
-181.458389 137.075287 -22.331701 0.396272
-167.975098 137.075287 -22.331701 0.474007
-154.491791 137.075287 -22.331701 0.510382
-141.008499 137.075287 -22.331701 0.541276
-127.525192 137.075287 -22.331701 0.510251
-114.041885 137.075287 -22.331701 0.483234
-100.558594 137.075287 -22.331701 0.399808
-87.075287 137.075287 -22.331701 0.355386
-73.591980 137.075287 -22.331701 0.304242
-60.108704 137.075287 -22.331701 0.261571
-46.625397 137.075287 -22.331701 0.251107
-33.142090 137.075287 -22.331701 0.240023
-19.658783 137.075287 -22.331701 0.244667
-6.175476 137.075287 -22.331701 0.257850
7.307800 137.075287 -22.331701 0.258291
20.791107 137.075287 -22.331701 0.272739
34.274414 137.075287 -22.331701 0.290355
47.757721 137.075287 -22.331701 0.285309
61.240997 137.075287 -22.331701 0.283833
74.724304 137.075287 -22.331701 0.261724
88.207611 137.075287 -22.331701 0.235637
101.690918 137.075287 -22.331701 0.214240
115.174225 137.075287 -22.331701 0.185726
128.657501 137.075287 -22.331701 0.174629
142.140808 137.075287 -22.331701 0.167720
155.624115 137.075287 -22.331701 0.149070
169.107422 137.075287 -22.331701 0.128858
182.590698 137.075287 -22.331701 0.113512
196.074036 137.075287 -22.331701 0.099973
209.557312 137.075287 -22.331701 0.085229
223.040588 137.075287 -22.331701 0.066987
236.523926 137.075287 -22.331701 0.052948
250.007202 137.075287 -22.331701 0.037646
263.490540 137.075287 -22.331701 0.028576
276.973816 137.075287 -22.331701 0.019405
290.457092 137.075287 -22.331701 0.013973
303.940430 137.075287 -22.331701 0.010577
317.423706 137.075287 -22.331701 0.008576
330.907043 137.075287 -22.331701 0.000000
344.390320 137.075287 -22.331701 0.000000
-343.257996 123.591980 -22.331701 0.000000
-329.774689 123.591980 -22.331701 0.000000
-316.291382 123.591980 -22.331701 0.015477
-302.808105 123.591980 -22.331701 0.017718
-289.324799 123.591980 -22.331701 0.025919
-275.841492 123.591980 -22.331701 0.037537
-262.358185 123.591980 -22.331701 0.057156
-248.874893 123.591980 -22.331701 0.082872
-235.391602 123.591980 -22.331701 0.125738
-221.908295 123.591980 -22.331701 0.176487
-208.424988 123.591980 -22.331701 0.240814
-194.941696 123.591980 -22.331701 0.324390
-181.458389 123.591980 -22.331701 0.404533
-167.975098 123.591980 -22.331701 0.464647
-154.491791 123.591980 -22.331701 0.487388
-141.008499 123.591980 -22.331701 0.492706
-127.525192 123.591980 -22.331701 0.486642
-114.041885 123.591980 -22.331701 0.469920
-100.558594 123.591980 -22.331701 0.408530
-87.075287 123.591980 -22.331701 0.339839
-73.591980 123.591980 -22.331701 0.302187
-60.108704 123.591980 -22.331701 0.267423
-46.625397 123.591980 -22.331701 0.261332
-33.142090 123.591980 -22.331701 0.241629
-19.658783 123.591980 -22.331701 0.242024
-6.175476 123.591980 -22.331701 0.239148
7.307800 123.591980 -22.331701 0.253638
20.791107 123.591980 -22.331701 0.268040
34.274414 123.591980 -22.331701 0.286045
47.757721 123.591980 -22.331701 0.291674
61.240997 123.591980 -22.331701 0.274982
74.724304 123.591980 -22.331701 0.253038
88.207611 123.591980 -22.331701 0.233236
101.690918 123.591980 -22.331701 0.205301
115.174225 123.591980 -22.331701 0.184558
128.657501 123.591980 -22.331701 0.167998
142.140808 123.591980 -22.331701 0.156434
155.624115 123.591980 -22.331701 0.134817
169.107422 123.591980 -22.331701 0.117117
182.590698 123.591980 -22.331701 0.099153
196.074036 123.591980 -22.331701 0.080842
209.557312 123.591980 -22.331701 0.066200
223.040588 123.591980 -22.331701 0.053321
236.523926 123.591980 -22.331701 0.040813
250.007202 123.591980 -22.331701 0.030877
263.490540 123.591980 -22.331701 0.023283
276.973816 123.591980 -22.331701 0.015959
290.457092 123.591980 -22.331701 0.011558
303.940430 123.591980 -22.331701 0.009119
317.423706 123.591980 -22.331701 0.007447
330.907043 123.591980 -22.331701 0.000000
344.390320 123.591980 -22.331701 0.000000
-343.257996 110.108704 -22.331701 0.000000
-329.774689 110.108704 -22.331701 0.000000
-316.291382 110.108704 -22.331701 0.015246
-302.808105 110.108704 -22.331701 0.017221
-289.324799 110.108704 -22.331701 0.023832
-275.841492 110.108704 -22.331701 0.033395
-262.358185 110.108704 -22.331701 0.051819
-248.874893 110.108704 -22.331701 0.078073
-235.391602 110.108704 -22.331701 0.115627
-221.908295 110.108704 -22.331701 0.162845
-208.424988 110.108704 -22.331701 0.221497
-194.941696 110.108704 -22.331701 0.303886
-181.458389 110.108704 -22.331701 0.368431
-167.975098 110.108704 -22.331701 0.438442
-154.491791 110.108704 -22.331701 0.465839
-141.008499 110.108704 -22.331701 0.487447
-127.525192 110.108704 -22.331701 0.458150
-114.041885 110.108704 -22.331701 0.434104
-100.558594 110.108704 -22.331701 0.397959
-87.075287 110.108704 -22.331701 0.360320
-73.591980 110.108704 -22.331701 0.324889
-60.108704 110.108704 -22.331701 0.281563
-46.625397 110.108704 -22.331701 0.267558
-33.142090 110.108704 -22.331701 0.247242
-19.658783 110.108704 -22.331701 0.250534
-6.175476 110.108704 -22.331701 0.240770
7.307800 110.108704 -22.331701 0.260792
20.791107 110.108704 -22.331701 0.290610
34.274414 110.108704 -22.331701 0.286447
47.757721 110.108704 -22.331701 0.279008
61.240997 110.108704 -22.331701 0.265479
74.724304 110.108704 -22.331701 0.248581
88.207611 110.108704 -22.331701 0.220936
101.690918 110.108704 -22.331701 0.197419
115.174225 110.108704 -22.331701 0.185110
128.657501 110.108704 -22.331701 0.162199
142.140808 110.108704 -22.331701 0.146919
155.624115 110.108704 -22.331701 0.128371
169.107422 110.108704 -22.331701 0.112368
182.590698 110.108704 -22.331701 0.088770
196.074036 110.108704 -22.331701 0.067587
209.557312 110.108704 -22.331701 0.052226
223.040588 110.108704 -22.331701 0.043192
236.523926 110.108704 -22.331701 0.032558
250.007202 110.108704 -22.331701 0.025563
263.490540 110.108704 -22.331701 0.018404
276.973816 110.108704 -22.331701 0.013025
290.457092 110.108704 -22.331701 0.009837
303.940430 110.108704 -22.331701 0.007889
317.423706 110.108704 -22.331701 0.006844
330.907043 110.108704 -22.331701 0.000000
344.390320 110.108704 -22.331701 0.000000
-343.257996 96.625397 -22.331701 0.000000
-329.774689 96.625397 -22.331701 0.000000
-316.291382 96.625397 -22.331701 0.014963
-302.808105 96.625397 -22.331701 0.016798
-289.324799 96.625397 -22.331701 0.021013
-275.841492 96.625397 -22.331701 0.029705
-262.358185 96.625397 -22.331701 0.049779
-248.874893 96.625397 -22.331701 0.072989
-235.391602 96.625397 -22.331701 0.108614
-221.908295 96.625397 -22.331701 0.154334
-208.424988 96.625397 -22.331701 0.218388
-194.941696 96.625397 -22.331701 0.300848
-181.458389 96.625397 -22.331701 0.363444
-167.975098 96.625397 -22.331701 0.426194
-154.491791 96.625397 -22.331701 0.431745
-141.008499 96.625397 -22.331701 0.448782
-127.525192 96.625397 -22.331701 0.456614
-114.041885 96.625397 -22.331701 0.414808
-100.558594 96.625397 -22.331701 0.392616
-87.075287 96.625397 -22.331701 0.351794
-73.591980 96.625397 -22.331701 0.331678
-60.108704 96.625397 -22.331701 0.290230
-46.625397 96.625397 -22.331701 0.259900
-33.142090 96.625397 -22.331701 0.265146
-19.658783 96.625397 -22.331701 0.256398
-6.175476 96.625397 -22.331701 0.259787
7.307800 96.625397 -22.331701 0.263672
20.791107 96.625397 -22.331701 0.285497
34.274414 96.625397 -22.331701 0.272009
47.757721 96.625397 -22.331701 0.264979
61.240997 96.625397 -22.331701 0.247076
74.724304 96.625397 -22.331701 0.237773
88.207611 96.625397 -22.331701 0.217074
101.690918 96.625397 -22.331701 0.194393
115.174225 96.625397 -22.331701 0.171715
128.657501 96.625397 -22.331701 0.145378
142.140808 96.625397 -22.331701 0.128587
155.624115 96.625397 -22.331701 0.112940
169.107422 96.625397 -22.331701 0.095748
182.590698 96.625397 -22.331701 0.082106
196.074036 96.625397 -22.331701 0.058672
209.557312 96.625397 -22.331701 0.044383
223.040588 96.625397 -22.331701 0.034261
236.523926 96.625397 -22.331701 0.027259
250.007202 96.625397 -22.331701 0.021436
263.490540 96.625397 -22.331701 0.014813
276.973816 96.625397 -22.331701 0.010615
290.457092 96.625397 -22.331701 0.008122
303.940430 96.625397 -22.331701 0.006646
317.423706 96.625397 -22.331701 0.006052
330.907043 96.625397 -22.331701 0.000000
344.390320 96.625397 -22.331701 0.000000
-343.257996 83.142090 -22.331701 0.000000
-329.774689 83.142090 -22.331701 0.000000
-316.291382 83.142090 -22.331701 0.014616
-302.808105 83.142090 -22.331701 0.016028
-289.324799 83.142090 -22.331701 0.020190
-275.841492 83.142090 -22.331701 0.029900
-262.358185 83.142090 -22.331701 0.043408
-248.874893 83.142090 -22.331701 0.068441
-235.391602 83.142090 -22.331701 0.104196
-221.908295 83.142090 -22.331701 0.151029
-208.424988 83.142090 -22.331701 0.208416
-194.941696 83.142090 -22.331701 0.294008
-181.458389 83.142090 -22.331701 0.352092
-167.975098 83.142090 -22.331701 0.403555
-154.491791 83.142090 -22.331701 0.442086
-141.008499 83.142090 -22.331701 0.444432
-127.525192 83.142090 -22.331701 0.439447
-114.041885 83.142090 -22.331701 0.418105
-100.558594 83.142090 -22.331701 0.397123
-87.075287 83.142090 -22.331701 0.378774
-73.591980 83.142090 -22.331701 0.330485
-60.108704 83.142090 -22.331701 0.312626
-46.625397 83.142090 -22.331701 0.280334
-33.142090 83.142090 -22.331701 0.287563
-19.658783 83.142090 -22.331701 0.282405
-6.175476 83.142090 -22.331701 0.271549
7.307800 83.142090 -22.331701 0.296952
20.791107 83.142090 -22.331701 0.294124
34.274414 83.142090 -22.331701 0.264589
47.757721 83.142090 -22.331701 0.265419
61.240997 83.142090 -22.331701 0.232643
74.724304 83.142090 -22.331701 0.217991
88.207611 83.142090 -22.331701 0.197501
101.690918 83.142090 -22.331701 0.175810
115.174225 83.142090 -22.331701 0.152740
128.657501 83.142090 -22.331701 0.131906
142.140808 83.142090 -22.331701 0.117963
155.624115 83.142090 -22.331701 0.101772
169.107422 83.142090 -22.331701 0.086540
182.590698 83.142090 -22.331701 0.070214
196.074036 83.142090 -22.331701 0.051718
209.557312 83.142090 -22.331701 0.038194
223.040588 83.142090 -22.331701 0.029018
236.523926 83.142090 -22.331701 0.022764
250.007202 83.142090 -22.331701 0.017489
263.490540 83.142090 -22.331701 0.012014
276.973816 83.142090 -22.331701 0.008166
290.457092 83.142090 -22.331701 0.006560
303.940430 83.142090 -22.331701 0.005635
317.423706 83.142090 -22.331701 0.005309
330.907043 83.142090 -22.331701 0.000000
344.390320 83.142090 -22.331701 0.000000
-343.257996 69.658783 -22.331701 0.000000
-329.774689 69.658783 -22.331701 0.000000
-316.291382 69.658783 -22.331701 0.013912
-302.808105 69.658783 -22.331701 0.015627
-289.324799 69.658783 -22.331701 0.019371
-275.841492 69.658783 -22.331701 0.026815
-262.358185 69.658783 -22.331701 0.041331
-248.874893 69.658783 -22.331701 0.063453
-235.391602 69.658783 -22.331701 0.097323
-221.908295 69.658783 -22.331701 0.151638
-208.424988 69.658783 -22.331701 0.215718
-194.941696 69.658783 -22.331701 0.284169
-181.458389 69.658783 -22.331701 0.336355
-167.975098 69.658783 -22.331701 0.363333
-154.491791 69.658783 -22.331701 0.440102
-141.008499 69.658783 -22.331701 0.444410
-127.525192 69.658783 -22.331701 0.432455
-114.041885 69.658783 -22.331701 0.413906
-100.558594 69.658783 -22.331701 0.409453
-87.075287 69.658783 -22.331701 0.372970
-73.591980 69.658783 -22.331701 0.329573
-60.108704 69.658783 -22.331701 0.290370
-46.625397 69.658783 -22.331701 0.286409
-33.142090 69.658783 -22.331701 0.294921
-19.658783 69.658783 -22.331701 0.307830
-6.175476 69.658783 -22.331701 0.317410
7.307800 69.658783 -22.331701 0.335666
20.791107 69.658783 -22.331701 0.303780
34.274414 69.658783 -22.331701 0.259297
47.757721 69.658783 -22.331701 0.237241
61.240997 69.658783 -22.331701 0.231223
74.724304 69.658783 -22.331701 0.205853
88.207611 69.658783 -22.331701 0.182318
101.690918 69.658783 -22.331701 0.159381
115.174225 69.658783 -22.331701 0.138554
128.657501 69.658783 -22.331701 0.124977
142.140808 69.658783 -22.331701 0.106887
155.624115 69.658783 -22.331701 0.091507
169.107422 69.658783 -22.331701 0.075038
182.590698 69.658783 -22.331701 0.060408
196.074036 69.658783 -22.331701 0.044662
209.557312 69.658783 -22.331701 0.033767
223.040588 69.658783 -22.331701 0.025004
236.523926 69.658783 -22.331701 0.019310
250.007202 69.658783 -22.331701 0.014093
263.490540 69.658783 -22.331701 0.010194
276.973816 69.658783 -22.331701 0.007466
290.457092 69.658783 -22.331701 0.005729
303.940430 69.658783 -22.331701 0.004927
317.423706 69.658783 -22.331701 0.005340
330.907043 69.658783 -22.331701 0.000000
344.390320 69.658783 -22.331701 0.000000
-343.257996 56.175476 -22.331701 0.000000
-329.774689 56.175476 -22.331701 0.000000
-316.291382 56.175476 -22.331701 0.014404
-302.808105 56.175476 -22.331701 0.015023
-289.324799 56.175476 -22.331701 0.019621
-275.841492 56.175476 -22.331701 0.027015
-262.358185 56.175476 -22.331701 0.040432
-248.874893 56.175476 -22.331701 0.063724
-235.391602 56.175476 -22.331701 0.102023
-221.908295 56.175476 -22.331701 0.165936
-208.424988 56.175476 -22.331701 0.234075
-194.941696 56.175476 -22.331701 0.286711
-181.458389 56.175476 -22.331701 0.321166
-167.975098 56.175476 -22.331701 0.366028
-154.491791 56.175476 -22.331701 0.419564
-141.008499 56.175476 -22.331701 0.445386
-127.525192 56.175476 -22.331701 0.438207
-114.041885 56.175476 -22.331701 0.444307
-100.558594 56.175476 -22.331701 0.411532
-87.075287 56.175476 -22.331701 0.384222
-73.591980 56.175476 -22.331701 0.342348
-60.108704 56.175476 -22.331701 0.330206
-46.625397 56.175476 -22.331701 0.301780
-33.142090 56.175476 -22.331701 0.316532
-19.658783 56.175476 -22.331701 0.328616
-6.175476 56.175476 -22.331701 0.352054
7.307800 56.175476 -22.331701 0.340915
20.791107 56.175476 -22.331701 0.320281
34.274414 56.175476 -22.331701 0.274176
47.757721 56.175476 -22.331701 0.233066
61.240997 56.175476 -22.331701 0.208207
74.724304 56.175476 -22.331701 0.186305
88.207611 56.175476 -22.331701 0.165252
101.690918 56.175476 -22.331701 0.149010
115.174225 56.175476 -22.331701 0.129430
128.657501 56.175476 -22.331701 0.116862
142.140808 56.175476 -22.331701 0.105342
155.624115 56.175476 -22.331701 0.082145
169.107422 56.175476 -22.331701 0.066903
182.590698 56.175476 -22.331701 0.055325
196.074036 56.175476 -22.331701 0.041880
209.557312 56.175476 -22.331701 0.032019
223.040588 56.175476 -22.331701 0.023519
236.523926 56.175476 -22.331701 0.016875
250.007202 56.175476 -22.331701 0.012201
263.490540 56.175476 -22.331701 0.009368
276.973816 56.175476 -22.331701 0.007059
290.457092 56.175476 -22.331701 0.005822
303.940430 56.175476 -22.331701 0.005463
317.423706 56.175476 -22.331701 0.005741
330.907043 56.175476 -22.331701 0.000000
344.390320 56.175476 -22.331701 0.000000
-343.257996 42.692200 -22.331701 0.000000
-329.774689 42.692200 -22.331701 0.000000
-316.291382 42.692200 -22.331701 0.015178
-302.808105 42.692200 -22.331701 0.016648
-289.324799 42.692200 -22.331701 0.019508
-275.841492 42.692200 -22.331701 0.029590
-262.358185 42.692200 -22.331701 0.043996
-248.874893 42.692200 -22.331701 0.070954
-235.391602 42.692200 -22.331701 0.110468
-221.908295 42.692200 -22.331701 0.162723
-208.424988 42.692200 -22.331701 0.223489
-194.941696 42.692200 -22.331701 0.303204
-181.458389 42.692200 -22.331701 0.358145
-167.975098 42.692200 -22.331701 0.378943
-154.491791 42.692200 -22.331701 0.414359
-141.008499 42.692200 -22.331701 0.459852
-127.525192 42.692200 -22.331701 0.456627
-114.041885 42.692200 -22.331701 0.447879
-100.558594 42.692200 -22.331701 0.414837
-87.075287 42.692200 -22.331701 0.390838
-73.591980 42.692200 -22.331701 0.372330
-60.108704 42.692200 -22.331701 0.371397
-46.625397 42.692200 -22.331701 0.320692
-33.142090 42.692200 -22.331701 0.343825
-19.658783 42.692200 -22.331701 0.363217
-6.175476 42.692200 -22.331701 0.387352
7.307800 42.692200 -22.331701 0.355130
20.791107 42.692200 -22.331701 0.320579
34.274414 42.692200 -22.331701 0.281389
47.757721 42.692200 -22.331701 0.244840
61.240997 42.692200 -22.331701 0.199373
74.724304 42.692200 -22.331701 0.168076
88.207611 42.692200 -22.331701 0.151966
101.690918 42.692200 -22.331701 0.139092
115.174225 42.692200 -22.331701 0.117590
128.657501 42.692200 -22.331701 0.104801
142.140808 42.692200 -22.331701 0.094405
155.624115 42.692200 -22.331701 0.077945
169.107422 42.692200 -22.331701 0.066450
182.590698 42.692200 -22.331701 0.053505
196.074036 42.692200 -22.331701 0.041028
209.557312 42.692200 -22.331701 0.031389
223.040588 42.692200 -22.331701 0.022271
236.523926 42.692200 -22.331701 0.015348
250.007202 42.692200 -22.331701 0.011761
263.490540 42.692200 -22.331701 0.009167
276.973816 42.692200 -22.331701 0.007691
290.457092 42.692200 -22.331701 0.006744
303.940430 42.692200 -22.331701 0.006200
317.423706 42.692200 -22.331701 0.006407
330.907043 42.692200 -22.331701 0.000000
344.390320 42.692200 -22.331701 0.000000
-343.257996 29.208893 -22.331701 0.000000
-329.774689 29.208893 -22.331701 0.000000
-316.291382 29.208893 -22.331701 0.018052
-302.808105 29.208893 -22.331701 0.018709
-289.324799 29.208893 -22.331701 0.024729
-275.841492 29.208893 -22.331701 0.036699
-262.358185 29.208893 -22.331701 0.050458
-248.874893 29.208893 -22.331701 0.076737
-235.391602 29.208893 -22.331701 0.115023
-221.908295 29.208893 -22.331701 0.170763
-208.424988 29.208893 -22.331701 0.236397
-194.941696 29.208893 -22.331701 0.323700
-181.458389 29.208893 -22.331701 0.395266
-167.975098 29.208893 -22.331701 0.424899
-154.491791 29.208893 -22.331701 0.440140
-141.008499 29.208893 -22.331701 0.475450
-127.525192 29.208893 -22.331701 0.471099
-114.041885 29.208893 -22.331701 0.443072
-100.558594 29.208893 -22.331701 0.392990
-87.075287 29.208893 -22.331701 0.405221
-73.591980 29.208893 -22.331701 0.396758
-60.108704 29.208893 -22.331701 0.386822
-46.625397 29.208893 -22.331701 0.343867
-33.142090 29.208893 -22.331701 0.382551
-19.658783 29.208893 -22.331701 0.397798
-6.175476 29.208893 -22.331701 0.416851
7.307800 29.208893 -22.331701 0.386724
20.791107 29.208893 -22.331701 0.349756
34.274414 29.208893 -22.331701 0.292989
47.757721 29.208893 -22.331701 0.250246
61.240997 29.208893 -22.331701 0.194451
74.724304 29.208893 -22.331701 0.164965
88.207611 29.208893 -22.331701 0.148161
101.690918 29.208893 -22.331701 0.130740
115.174225 29.208893 -22.331701 0.112416
128.657501 29.208893 -22.331701 0.099730
142.140808 29.208893 -22.331701 0.087733
155.624115 29.208893 -22.331701 0.072668
169.107422 29.208893 -22.331701 0.064214
182.590698 29.208893 -22.331701 0.051605
196.074036 29.208893 -22.331701 0.040291
209.557312 29.208893 -22.331701 0.028579
223.040588 29.208893 -22.331701 0.021336
236.523926 29.208893 -22.331701 0.014983
250.007202 29.208893 -22.331701 0.011768
263.490540 29.208893 -22.331701 0.009453
276.973816 29.208893 -22.331701 0.008299
290.457092 29.208893 -22.331701 0.007749
303.940430 29.208893 -22.331701 0.007333
317.423706 29.208893 -22.331701 0.007456
330.907043 29.208893 -22.331701 0.000000
344.390320 29.208893 -22.331701 0.000000
-343.257996 15.725586 -22.331701 0.000000
-329.774689 15.725586 -22.331701 0.000000
-316.291382 15.725586 -22.331701 0.020466
-302.808105 15.725586 -22.331701 0.023841
-289.324799 15.725586 -22.331701 0.029173
-275.841492 15.725586 -22.331701 0.043669
-262.358185 15.725586 -22.331701 0.059449
-248.874893 15.725586 -22.331701 0.086604
-235.391602 15.725586 -22.331701 0.130761
-221.908295 15.725586 -22.331701 0.192046
-208.424988 15.725586 -22.331701 0.276161
-194.941696 15.725586 -22.331701 0.350750
-181.458389 15.725586 -22.331701 0.436024
-167.975098 15.725586 -22.331701 0.452458
-154.491791 15.725586 -22.331701 0.475745
-141.008499 15.725586 -22.331701 0.486646
-127.525192 15.725586 -22.331701 0.504024
-114.041885 15.725586 -22.331701 0.466076
-100.558594 15.725586 -22.331701 0.418775
-87.075287 15.725586 -22.331701 0.425120
-73.591980 15.725586 -22.331701 0.424576
-60.108704 15.725586 -22.331701 0.406520
-46.625397 15.725586 -22.331701 0.398043
-33.142090 15.725586 -22.331701 0.420685
-19.658783 15.725586 -22.331701 0.462884
-6.175476 15.725586 -22.331701 0.424812
7.307800 15.725586 -22.331701 0.391761
20.791107 15.725586 -22.331701 0.352758
34.274414 15.725586 -22.331701 0.301523
47.757721 15.725586 -22.331701 0.241645
61.240997 15.725586 -22.331701 0.189371
74.724304 15.725586 -22.331701 0.165473
88.207611 15.725586 -22.331701 0.146354
101.690918 15.725586 -22.331701 0.122098
115.174225 15.725586 -22.331701 0.107596
128.657501 15.725586 -22.331701 0.100825
142.140808 15.725586 -22.331701 0.085371
155.624115 15.725586 -22.331701 0.071929
169.107422 15.725586 -22.331701 0.060712
182.590698 15.725586 -22.331701 0.050128
196.074036 15.725586 -22.331701 0.038912
209.557312 15.725586 -22.331701 0.026819
223.040588 15.725586 -22.331701 0.018905
236.523926 15.725586 -22.331701 0.014237
250.007202 15.725586 -22.331701 0.011140
263.490540 15.725586 -22.331701 0.009456
276.973816 15.725586 -22.331701 0.008618
290.457092 15.725586 -22.331701 0.008056
303.940430 15.725586 -22.331701 0.007720
317.423706 15.725586 -22.331701 0.007768
330.907043 15.725586 -22.331701 0.000000
344.390320 15.725586 -22.331701 0.000000
-343.257996 2.242279 -22.331701 0.000000
-329.774689 2.242279 -22.331701 0.000000
-316.291382 2.242279 -22.331701 0.022235
-302.808105 2.242279 -22.331701 0.027302
-289.324799 2.242279 -22.331701 0.033906
-275.841492 2.242279 -22.331701 0.051977
-262.358185 2.242279 -22.331701 0.071793
-248.874893 2.242279 -22.331701 0.103802
-235.391602 2.242279 -22.331701 0.154968
-221.908295 2.242279 -22.331701 0.221198
-208.424988 2.242279 -22.331701 0.310436
-194.941696 2.242279 -22.331701 0.413246
-181.458389 2.242279 -22.331701 0.500293
-167.975098 2.242279 -22.331701 0.491708
-154.491791 2.242279 -22.331701 0.495954
-141.008499 2.242279 -22.331701 0.499895
-127.525192 2.242279 -22.331701 0.464671
-114.041885 2.242279 -22.331701 0.431556
-100.558594 2.242279 -22.331701 0.439718
-87.075287 2.242279 -22.331701 0.438506
-73.591980 2.242279 -22.331701 0.451639
-60.108704 2.242279 -22.331701 0.473701
-46.625397 2.242279 -22.331701 0.455268
-33.142090 2.242279 -22.331701 0.451615
-19.658783 2.242279 -22.331701 0.499860
-6.175476 2.242279 -22.331701 0.470243
7.307800 2.242279 -22.331701 0.425441
20.791107 2.242279 -22.331701 0.365519
34.274414 2.242279 -22.331701 0.299843
47.757721 2.242279 -22.331701 0.251243
61.240997 2.242279 -22.331701 0.194063
74.724304 2.242279 -22.331701 0.168772
88.207611 2.242279 -22.331701 0.144215
101.690918 2.242279 -22.331701 0.116737
115.174225 2.242279 -22.331701 0.100593
128.657501 2.242279 -22.331701 0.085730
142.140808 2.242279 -22.331701 0.075787
155.624115 2.242279 -22.331701 0.069388
169.107422 2.242279 -22.331701 0.059347
182.590698 2.242279 -22.331701 0.048509
196.074036 2.242279 -22.331701 0.038042
209.557312 2.242279 -22.331701 0.026018
223.040588 2.242279 -22.331701 0.017951
236.523926 2.242279 -22.331701 0.013246
250.007202 2.242279 -22.331701 0.010582
263.490540 2.242279 -22.331701 0.009284
276.973816 2.242279 -22.331701 0.007920
290.457092 2.242279 -22.331701 0.007654
303.940430 2.242279 -22.331701 0.007200
317.423706 2.242279 -22.331701 0.007269
330.907043 2.242279 -22.331701 0.000000
344.390320 2.242279 -22.331701 0.000000
-343.257996 -11.240997 -22.331701 0.000000
-329.774689 -11.240997 -22.331701 0.000000
-316.291382 -11.240997 -22.331701 0.027462
-302.808105 -11.240997 -22.331701 0.031175
-289.324799 -11.240997 -22.331701 0.041764
-275.841492 -11.240997 -22.331701 0.057783
-262.358185 -11.240997 -22.331701 0.085788
-248.874893 -11.240997 -22.331701 0.131986
-235.391602 -11.240997 -22.331701 0.198970
-221.908295 -11.240997 -22.331701 0.275500
-208.424988 -11.240997 -22.331701 0.362786
-194.941696 -11.240997 -22.331701 0.463461
-181.458389 -11.240997 -22.331701 0.506793
-167.975098 -11.240997 -22.331701 0.512074
-154.491791 -11.240997 -22.331701 0.525462
-141.008499 -11.240997 -22.331701 0.506922
-127.525192 -11.240997 -22.331701 0.480659
-114.041885 -11.240997 -22.331701 0.458067
-100.558594 -11.240997 -22.331701 0.435892
-87.075287 -11.240997 -22.331701 0.467182
-73.591980 -11.240997 -22.331701 0.502142
-60.108704 -11.240997 -22.331701 0.498474
-46.625397 -11.240997 -22.331701 0.488516
-33.142090 -11.240997 -22.331701 0.514291
-19.658783 -11.240997 -22.331701 0.540235
-6.175476 -11.240997 -22.331701 0.510241
7.307800 -11.240997 -22.331701 0.472586
20.791107 -11.240997 -22.331701 0.370510
34.274414 -11.240997 -22.331701 0.302941
47.757721 -11.240997 -22.331701 0.243523
61.240997 -11.240997 -22.331701 0.198947
74.724304 -11.240997 -22.331701 0.161750
88.207611 -11.240997 -22.331701 0.131537
101.690918 -11.240997 -22.331701 0.106565
115.174225 -11.240997 -22.331701 0.087539
128.657501 -11.240997 -22.331701 0.078862
142.140808 -11.240997 -22.331701 0.071260
155.624115 -11.240997 -22.331701 0.063534
169.107422 -11.240997 -22.331701 0.055699
182.590698 -11.240997 -22.331701 0.047543
196.074036 -11.240997 -22.331701 0.037887
209.557312 -11.240997 -22.331701 0.026251
223.040588 -11.240997 -22.331701 0.018647
236.523926 -11.240997 -22.331701 0.013513
250.007202 -11.240997 -22.331701 0.010346
263.490540 -11.240997 -22.331701 0.009053
276.973816 -11.240997 -22.331701 0.007455
290.457092 -11.240997 -22.331701 0.006888
303.940430 -11.240997 -22.331701 0.006800
317.423706 -11.240997 -22.331701 0.007042
330.907043 -11.240997 -22.331701 0.000000
344.390320 -11.240997 -22.331701 0.000000
-343.257996 -24.724304 -22.331701 0.000000
-329.774689 -24.724304 -22.331701 0.000000
-316.291382 -24.724304 -22.331701 0.034474
-302.808105 -24.724304 -22.331701 0.037912
-289.324799 -24.724304 -22.331701 0.049291
-275.841492 -24.724304 -22.331701 0.070242
-262.358185 -24.724304 -22.331701 0.104536
-248.874893 -24.724304 -22.331701 0.158433
-235.391602 -24.724304 -22.331701 0.237005
-221.908295 -24.724304 -22.331701 0.345785
-208.424988 -24.724304 -22.331701 0.479797
-194.941696 -24.724304 -22.331701 0.535272
-181.458389 -24.724304 -22.331701 0.546722
-167.975098 -24.724304 -22.331701 0.554134
-154.491791 -24.724304 -22.331701 0.545057
-141.008499 -24.724304 -22.331701 0.519389
-127.525192 -24.724304 -22.331701 0.466510
-114.041885 -24.724304 -22.331701 0.434779
-100.558594 -24.724304 -22.331701 0.425621
-87.075287 -24.724304 -22.331701 0.465876
-73.591980 -24.724304 -22.331701 0.503264
-60.108704 -24.724304 -22.331701 0.490750
-46.625397 -24.724304 -22.331701 0.000000
-33.142090 -24.724304 -22.331701 0.524621
-19.658783 -24.724304 -22.331701 0.560151
-6.175476 -24.724304 -22.331701 0.513271
7.307800 -24.724304 -22.331701 0.456011
20.791107 -24.724304 -22.331701 0.362756
34.274414 -24.724304 -22.331701 0.300553
47.757721 -24.724304 -22.331701 0.236708
61.240997 -24.724304 -22.331701 0.194507
74.724304 -24.724304 -22.331701 0.161244
88.207611 -24.724304 -22.331701 0.119830
101.690918 -24.724304 -22.331701 0.097539
115.174225 -24.724304 -22.331701 0.081810
128.657501 -24.724304 -22.331701 0.071440
142.140808 -24.724304 -22.331701 0.063100
155.624115 -24.724304 -22.331701 0.056675
169.107422 -24.724304 -22.331701 0.050741
182.590698 -24.724304 -22.331701 0.043851
196.074036 -24.724304 -22.331701 0.035853
209.557312 -24.724304 -22.331701 0.024963
223.040588 -24.724304 -22.331701 0.019307
236.523926 -24.724304 -22.331701 0.014143
250.007202 -24.724304 -22.331701 0.010844
263.490540 -24.724304 -22.331701 0.009138
276.973816 -24.724304 -22.331701 0.007739
290.457092 -24.724304 -22.331701 0.006812
303.940430 -24.724304 -22.331701 0.006660
317.423706 -24.724304 -22.331701 0.006345
330.907043 -24.724304 -22.331701 0.000000
344.390320 -24.724304 -22.331701 0.000000
-343.257996 -38.207611 -22.331701 0.000000
-329.774689 -38.207611 -22.331701 0.000000
-316.291382 -38.207611 -22.331701 0.043352
-302.808105 -38.207611 -22.331701 0.049377
-289.324799 -38.207611 -22.331701 0.066164
-275.841492 -38.207611 -22.331701 0.085221
-262.358185 -38.207611 -22.331701 0.121018
-248.874893 -38.207611 -22.331701 0.189075
-235.391602 -38.207611 -22.331701 0.273858
-221.908295 -38.207611 -22.331701 0.379449
-208.424988 -38.207611 -22.331701 0.498001
-194.941696 -38.207611 -22.331701 0.538231
-181.458389 -38.207611 -22.331701 0.537674
-167.975098 -38.207611 -22.331701 0.567062
-154.491791 -38.207611 -22.331701 0.554936
-141.008499 -38.207611 -22.331701 0.509230
-127.525192 -38.207611 -22.331701 0.466865
-114.041885 -38.207611 -22.331701 0.451259
-100.558594 -38.207611 -22.331701 0.451374
-87.075287 -38.207611 -22.331701 0.466765
-73.591980 -38.207611 -22.331701 0.497333
-60.108704 -38.207611 -22.331701 0.503330
-46.625397 -38.207611 -22.331701 0.500580
-33.142090 -38.207611 -22.331701 0.484428
-19.658783 -38.207611 -22.331701 0.516216
-6.175476 -38.207611 -22.331701 0.493628
7.307800 -38.207611 -22.331701 0.427820
20.791107 -38.207611 -22.331701 0.348425
34.274414 -38.207611 -22.331701 0.268507
47.757721 -38.207611 -22.331701 0.220465
61.240997 -38.207611 -22.331701 0.167067
74.724304 -38.207611 -22.331701 0.137158
88.207611 -38.207611 -22.331701 0.108813
101.690918 -38.207611 -22.331701 0.083270
115.174225 -38.207611 -22.331701 0.071826
128.657501 -38.207611 -22.331701 0.061541
142.140808 -38.207611 -22.331701 0.053969
155.624115 -38.207611 -22.331701 0.048264
169.107422 -38.207611 -22.331701 0.046961
182.590698 -38.207611 -22.331701 0.039877
196.074036 -38.207611 -22.331701 0.034148
209.557312 -38.207611 -22.331701 0.025093
223.040588 -38.207611 -22.331701 0.019863
236.523926 -38.207611 -22.331701 0.015249
250.007202 -38.207611 -22.331701 0.011583
263.490540 -38.207611 -22.331701 0.009516
276.973816 -38.207611 -22.331701 0.007724
290.457092 -38.207611 -22.331701 0.006515
303.940430 -38.207611 -22.331701 0.006445
317.423706 -38.207611 -22.331701 0.006356
330.907043 -38.207611 -22.331701 0.000000
344.390320 -38.207611 -22.331701 0.000000
-343.257996 -51.690918 -22.331701 0.000000
-329.774689 -51.690918 -22.331701 0.000000
-316.291382 -51.690918 -22.331701 0.000000
-302.808105 -51.690918 -22.331701 0.066223
-289.324799 -51.690918 -22.331701 0.085339
-275.841492 -51.690918 -22.331701 0.112002
-262.358185 -51.690918 -22.331701 0.145736
-248.874893 -51.690918 -22.331701 0.226741
-235.391602 -51.690918 -22.331701 0.313643
-221.908295 -51.690918 -22.331701 0.407080
-208.424988 -51.690918 -22.331701 0.485049
-194.941696 -51.690918 -22.331701 0.560366
-181.458389 -51.690918 -22.331701 0.582461
-167.975098 -51.690918 -22.331701 0.553139
-154.491791 -51.690918 -22.331701 0.548210
-141.008499 -51.690918 -22.331701 0.500648
-127.525192 -51.690918 -22.331701 0.462969
-114.041885 -51.690918 -22.331701 0.460415
-100.558594 -51.690918 -22.331701 0.475810
-87.075287 -51.690918 -22.331701 0.479402
-73.591980 -51.690918 -22.331701 0.508921
-60.108704 -51.690918 -22.331701 0.497465
-46.625397 -51.690918 -22.331701 0.477040
-33.142090 -51.690918 -22.331701 0.445987
-19.658783 -51.690918 -22.331701 0.460403
-6.175476 -51.690918 -22.331701 0.445950
7.307800 -51.690918 -22.331701 0.379296
20.791107 -51.690918 -22.331701 0.304136
34.274414 -51.690918 -22.331701 0.249320
47.757721 -51.690918 -22.331701 0.188623
61.240997 -51.690918 -22.331701 0.147535
74.724304 -51.690918 -22.331701 0.119425
88.207611 -51.690918 -22.331701 0.093295
101.690918 -51.690918 -22.331701 0.076346
115.174225 -51.690918 -22.331701 0.063811
128.657501 -51.690918 -22.331701 0.057122
142.140808 -51.690918 -22.331701 0.049022
155.624115 -51.690918 -22.331701 0.043072
169.107422 -51.690918 -22.331701 0.042750
182.590698 -51.690918 -22.331701 0.039794
196.074036 -51.690918 -22.331701 0.031963
209.557312 -51.690918 -22.331701 0.024771
223.040588 -51.690918 -22.331701 0.021177
236.523926 -51.690918 -22.331701 0.016298
250.007202 -51.690918 -22.331701 0.012686
263.490540 -51.690918 -22.331701 0.009914
276.973816 -51.690918 -22.331701 0.008288
290.457092 -51.690918 -22.331701 0.006873
303.940430 -51.690918 -22.331701 0.006647
317.423706 -51.690918 -22.331701 0.007177
330.907043 -51.690918 -22.331701 0.000000
344.390320 -51.690918 -22.331701 0.000000
-343.257996 -65.174225 -22.331701 0.000000
-329.774689 -65.174225 -22.331701 0.000000
-316.291382 -65.174225 -22.331701 0.000000
-302.808105 -65.174225 -22.331701 0.000000
-289.324799 -65.174225 -22.331701 0.107769
-275.841492 -65.174225 -22.331701 0.000000
-262.358185 -65.174225 -22.331701 0.000000
-248.874893 -65.174225 -22.331701 0.000000
-235.391602 -65.174225 -22.331701 0.000000
-221.908295 -65.174225 -22.331701 0.432335
-208.424988 -65.174225 -22.331701 0.521000
-194.941696 -65.174225 -22.331701 0.539337
-181.458389 -65.174225 -22.331701 0.592441
-167.975098 -65.174225 -22.331701 0.526254
-154.491791 -65.174225 -22.331701 0.489048
-141.008499 -65.174225 -22.331701 0.478127
-127.525192 -65.174225 -22.331701 0.490490
-114.041885 -65.174225 -22.331701 0.492146
-100.558594 -65.174225 -22.331701 0.499097
-87.075287 -65.174225 -22.331701 0.492693
-73.591980 -65.174225 -22.331701 0.499184
-60.108704 -65.174225 -22.331701 0.488687
-46.625397 -65.174225 -22.331701 0.443874
-33.142090 -65.174225 -22.331701 0.430560
-19.658783 -65.174225 -22.331701 0.399740
-6.175476 -65.174225 -22.331701 0.391637
7.307800 -65.174225 -22.331701 0.343727
20.791107 -65.174225 -22.331701 0.286427
34.274414 -65.174225 -22.331701 0.220069
47.757721 -65.174225 -22.331701 0.169922
61.240997 -65.174225 -22.331701 0.138478
74.724304 -65.174225 -22.331701 0.110279
88.207611 -65.174225 -22.331701 0.081059
101.690918 -65.174225 -22.331701 0.067134
115.174225 -65.174225 -22.331701 0.054380
128.657501 -65.174225 -22.331701 0.050567
142.140808 -65.174225 -22.331701 0.044938
155.624115 -65.174225 -22.331701 0.042263
169.107422 -65.174225 -22.331701 0.038700
182.590698 -65.174225 -22.331701 0.038391
196.074036 -65.174225 -22.331701 0.032566
209.557312 -65.174225 -22.331701 0.027783
223.040588 -65.174225 -22.331701 0.025151
236.523926 -65.174225 -22.331701 0.019056
250.007202 -65.174225 -22.331701 0.014313
263.490540 -65.174225 -22.331701 0.011563
276.973816 -65.174225 -22.331701 0.009647
290.457092 -65.174225 -22.331701 0.008050
303.940430 -65.174225 -22.331701 0.007538
317.423706 -65.174225 -22.331701 0.008922
330.907043 -65.174225 -22.331701 0.000000
344.390320 -65.174225 -22.331701 0.000000
-343.257996 -78.657501 -22.331701 0.000000
-329.774689 -78.657501 -22.331701 0.000000
-316.291382 -78.657501 -22.331701 0.000000
-302.808105 -78.657501 -22.331701 0.000000
-289.324799 -78.657501 -22.331701 0.000000
-275.841492 -78.657501 -22.331701 0.000000
-262.358185 -78.657501 -22.331701 0.000000
-248.874893 -78.657501 -22.331701 0.000000
-235.391602 -78.657501 -22.331701 0.000000
-221.908295 -78.657501 -22.331701 0.000000
-208.424988 -78.657501 -22.331701 0.498121
-194.941696 -78.657501 -22.331701 0.503836
-181.458389 -78.657501 -22.331701 0.525656
-167.975098 -78.657501 -22.331701 0.510674
-154.491791 -78.657501 -22.331701 0.465753
-141.008499 -78.657501 -22.331701 0.461290
-127.525192 -78.657501 -22.331701 0.000000
-114.041885 -78.657501 -22.331701 0.515617
-100.558594 -78.657501 -22.331701 0.499130
-87.075287 -78.657501 -22.331701 0.474040
-73.591980 -78.657501 -22.331701 0.503642
-60.108704 -78.657501 -22.331701 0.455325
-46.625397 -78.657501 -22.331701 0.437579
-33.142090 -78.657501 -22.331701 0.422709
-19.658783 -78.657501 -22.331701 0.363740
-6.175476 -78.657501 -22.331701 0.355539
7.307800 -78.657501 -22.331701 0.314492
20.791107 -78.657501 -22.331701 0.269304
34.274414 -78.657501 -22.331701 0.214686
47.757721 -78.657501 -22.331701 0.166608
61.240997 -78.657501 -22.331701 0.131396
74.724304 -78.657501 -22.331701 0.104427
88.207611 -78.657501 -22.331701 0.080655
101.690918 -78.657501 -22.331701 0.062373
115.174225 -78.657501 -22.331701 0.052532
128.657501 -78.657501 -22.331701 0.048502
142.140808 -78.657501 -22.331701 0.046803
155.624115 -78.657501 -22.331701 0.046923
169.107422 -78.657501 -22.331701 0.045470
182.590698 -78.657501 -22.331701 0.043874
196.074036 -78.657501 -22.331701 0.039971
209.557312 -78.657501 -22.331701 0.035543
223.040588 -78.657501 -22.331701 0.028269
236.523926 -78.657501 -22.331701 0.021507
250.007202 -78.657501 -22.331701 0.016198
263.490540 -78.657501 -22.331701 0.013914
276.973816 -78.657501 -22.331701 0.011663
290.457092 -78.657501 -22.331701 0.009657
303.940430 -78.657501 -22.331701 0.008635
317.423706 -78.657501 -22.331701 0.008755
330.907043 -78.657501 -22.331701 0.000000
344.390320 -78.657501 -22.331701 0.000000
-343.257996 -92.140808 -22.331701 0.000000
-329.774689 -92.140808 -22.331701 0.000000
-316.291382 -92.140808 -22.331701 0.000000
-302.808105 -92.140808 -22.331701 0.000000
-289.324799 -92.140808 -22.331701 0.000000
-275.841492 -92.140808 -22.331701 0.000000
-262.358185 -92.140808 -22.331701 0.000000
-248.874893 -92.140808 -22.331701 0.000000
-235.391602 -92.140808 -22.331701 0.000000
-221.908295 -92.140808 -22.331701 0.000000
-208.424988 -92.140808 -22.331701 0.000000
-194.941696 -92.140808 -22.331701 0.469816
-181.458389 -92.140808 -22.331701 0.000000
-167.975098 -92.140808 -22.331701 0.000000
-154.491791 -92.140808 -22.331701 0.000000
-141.008499 -92.140808 -22.331701 0.450282
-127.525192 -92.140808 -22.331701 0.000000
-114.041885 -92.140808 -22.331701 0.463118
-100.558594 -92.140808 -22.331701 0.461954
-87.075287 -92.140808 -22.331701 0.456926
-73.591980 -92.140808 -22.331701 0.442542
-60.108704 -92.140808 -22.331701 0.447866
-46.625397 -92.140808 -22.331701 0.439309
-33.142090 -92.140808 -22.331701 0.411582
-19.658783 -92.140808 -22.331701 0.348829
-6.175476 -92.140808 -22.331701 0.328553
7.307800 -92.140808 -22.331701 0.295515
20.791107 -92.140808 -22.331701 0.250342
34.274414 -92.140808 -22.331701 0.216477
47.757721 -92.140808 -22.331701 0.170114
61.240997 -92.140808 -22.331701 0.134860
74.724304 -92.140808 -22.331701 0.107240
88.207611 -92.140808 -22.331701 0.082456
101.690918 -92.140808 -22.331701 0.069204
115.174225 -92.140808 -22.331701 0.056924
128.657501 -92.140808 -22.331701 0.050537
142.140808 -92.140808 -22.331701 0.052123
155.624115 -92.140808 -22.331701 0.052689
169.107422 -92.140808 -22.331701 0.053568
182.590698 -92.140808 -22.331701 0.054014
196.074036 -92.140808 -22.331701 0.051426
209.557312 -92.140808 -22.331701 0.046030
223.040588 -92.140808 -22.331701 0.034434
236.523926 -92.140808 -22.331701 0.025403
250.007202 -92.140808 -22.331701 0.020604
263.490540 -92.140808 -22.331701 0.016489
276.973816 -92.140808 -22.331701 0.013691
290.457092 -92.140808 -22.331701 0.013462
303.940430 -92.140808 -22.331701 0.013163
317.423706 -92.140808 -22.331701 0.011570
330.907043 -92.140808 -22.331701 0.000000
344.390320 -92.140808 -22.331701 0.000000
-343.257996 -105.624115 -22.331701 0.000000
-329.774689 -105.624115 -22.331701 0.000000
-316.291382 -105.624115 -22.331701 0.000000
-302.808105 -105.624115 -22.331701 0.000000
-289.324799 -105.624115 -22.331701 0.000000
-275.841492 -105.624115 -22.331701 0.000000
-262.358185 -105.624115 -22.331701 0.000000
-248.874893 -105.624115 -22.331701 0.000000
-235.391602 -105.624115 -22.331701 0.000000
-221.908295 -105.624115 -22.331701 0.000000
-208.424988 -105.624115 -22.331701 0.000000
-194.941696 -105.624115 -22.331701 0.438768
-181.458389 -105.624115 -22.331701 0.000000
-167.975098 -105.624115 -22.331701 0.000000
-154.491791 -105.624115 -22.331701 0.000000
-141.008499 -105.624115 -22.331701 0.411976
-127.525192 -105.624115 -22.331701 0.000000
-114.041885 -105.624115 -22.331701 0.000000
-100.558594 -105.624115 -22.331701 0.426805
-87.075287 -105.624115 -22.331701 0.000000
-73.591980 -105.624115 -22.331701 0.000000
-60.108704 -105.624115 -22.331701 0.000000
-46.625397 -105.624115 -22.331701 0.397728
-33.142090 -105.624115 -22.331701 0.392863
-19.658783 -105.624115 -22.331701 0.349853
-6.175476 -105.624115 -22.331701 0.299595
7.307800 -105.624115 -22.331701 0.282871
20.791107 -105.624115 -22.331701 0.257177
34.274414 -105.624115 -22.331701 0.220468
47.757721 -105.624115 -22.331701 0.172137
61.240997 -105.624115 -22.331701 0.144936
74.724304 -105.624115 -22.331701 0.118346
88.207611 -105.624115 -22.331701 0.095155
101.690918 -105.624115 -22.331701 0.080676
115.174225 -105.624115 -22.331701 0.067334
128.657501 -105.624115 -22.331701 0.058556
142.140808 -105.624115 -22.331701 0.058894
155.624115 -105.624115 -22.331701 0.059656
169.107422 -105.624115 -22.331701 0.063421
182.590698 -105.624115 -22.331701 0.065928
196.074036 -105.624115 -22.331701 0.066855
209.557312 -105.624115 -22.331701 0.059369
223.040588 -105.624115 -22.331701 0.045405
236.523926 -105.624115 -22.331701 0.032732
250.007202 -105.624115 -22.331701 0.025073
263.490540 -105.624115 -22.331701 0.020883
276.973816 -105.624115 -22.331701 0.017808
290.457092 -105.624115 -22.331701 0.018141
303.940430 -105.624115 -22.331701 0.017275
317.423706 -105.624115 -22.331701 0.016484
330.907043 -105.624115 -22.331701 0.000000
344.390320 -105.624115 -22.331701 0.000000
-343.257996 -119.107422 -22.331701 0.000000
-329.774689 -119.107422 -22.331701 0.000000
-316.291382 -119.107422 -22.331701 0.000000
-302.808105 -119.107422 -22.331701 0.000000
-289.324799 -119.107422 -22.331701 0.000000
-275.841492 -119.107422 -22.331701 0.000000
-262.358185 -119.107422 -22.331701 0.000000
-248.874893 -119.107422 -22.331701 0.000000
-235.391602 -119.107422 -22.331701 0.000000
-221.908295 -119.107422 -22.331701 0.000000
-208.424988 -119.107422 -22.331701 0.000000
-194.941696 -119.107422 -22.331701 0.000000
-181.458389 -119.107422 -22.331701 0.000000
-167.975098 -119.107422 -22.331701 0.000000
-154.491791 -119.107422 -22.331701 0.435811
-141.008499 -119.107422 -22.331701 0.415131
-127.525192 -119.107422 -22.331701 0.000000
-114.041885 -119.107422 -22.331701 0.000000
-100.558594 -119.107422 -22.331701 0.408423
-87.075287 -119.107422 -22.331701 0.000000
-73.591980 -119.107422 -22.331701 0.385447
-60.108704 -119.107422 -22.331701 0.000000
-46.625397 -119.107422 -22.331701 0.390585
-33.142090 -119.107422 -22.331701 0.368391
-19.658783 -119.107422 -22.331701 0.312882
-6.175476 -119.107422 -22.331701 0.288358
7.307800 -119.107422 -22.331701 0.289892
20.791107 -119.107422 -22.331701 0.257382
34.274414 -119.107422 -22.331701 0.231223
47.757721 -119.107422 -22.331701 0.196868
61.240997 -119.107422 -22.331701 0.166640
74.724304 -119.107422 -22.331701 0.135738
88.207611 -119.107422 -22.331701 0.116175
101.690918 -119.107422 -22.331701 0.093616
115.174225 -119.107422 -22.331701 0.076140
128.657501 -119.107422 -22.331701 0.067838
142.140808 -119.107422 -22.331701 0.064372
155.624115 -119.107422 -22.331701 0.068861
169.107422 -119.107422 -22.331701 0.071300
182.590698 -119.107422 -22.331701 0.073398
196.074036 -119.107422 -22.331701 0.080048
209.557312 -119.107422 -22.331701 0.073188
223.040588 -119.107422 -22.331701 0.060631
236.523926 -119.107422 -22.331701 0.043329
250.007202 -119.107422 -22.331701 0.033524
263.490540 -119.107422 -22.331701 0.026622
276.973816 -119.107422 -22.331701 0.023411
290.457092 -119.107422 -22.331701 0.024710
303.940430 -119.107422 -22.331701 0.023768
317.423706 -119.107422 -22.331701 0.023508
330.907043 -119.107422 -22.331701 0.000000
344.390320 -119.107422 -22.331701 0.000000
-343.257996 -132.590698 -22.331701 0.000000
-329.774689 -132.590698 -22.331701 0.000000
-316.291382 -132.590698 -22.331701 0.000000
-302.808105 -132.590698 -22.331701 0.000000
-289.324799 -132.590698 -22.331701 0.000000
-275.841492 -132.590698 -22.331701 0.000000
-262.358185 -132.590698 -22.331701 0.000000
-248.874893 -132.590698 -22.331701 0.000000
-235.391602 -132.590698 -22.331701 0.000000
-221.908295 -132.590698 -22.331701 0.000000
-208.424988 -132.590698 -22.331701 0.000000
-194.941696 -132.590698 -22.331701 0.000000
-181.458389 -132.590698 -22.331701 0.408543
-167.975098 -132.590698 -22.331701 0.402737
-154.491791 -132.590698 -22.331701 0.417297
-141.008499 -132.590698 -22.331701 0.391493
-127.525192 -132.590698 -22.331701 0.388225
-114.041885 -132.590698 -22.331701 0.386895
-100.558594 -132.590698 -22.331701 0.414291
-87.075287 -132.590698 -22.331701 0.387835
-73.591980 -132.590698 -22.331701 0.361539
-60.108704 -132.590698 -22.331701 0.000000
-46.625397 -132.590698 -22.331701 0.000000
-33.142090 -132.590698 -22.331701 0.000000
-19.658783 -132.590698 -22.331701 0.340091
-6.175476 -132.590698 -22.331701 0.000000
7.307800 -132.590698 -22.331701 0.000000
20.791107 -132.590698 -22.331701 0.277918
34.274414 -132.590698 -22.331701 0.000000
47.757721 -132.590698 -22.331701 0.205551
61.240997 -132.590698 -22.331701 0.186601
74.724304 -132.590698 -22.331701 0.168737
88.207611 -132.590698 -22.331701 0.135845
101.690918 -132.590698 -22.331701 0.107207
115.174225 -132.590698 -22.331701 0.086142
128.657501 -132.590698 -22.331701 0.079641
142.140808 -132.590698 -22.331701 0.075677
155.624115 -132.590698 -22.331701 0.076005
169.107422 -132.590698 -22.331701 0.078419
182.590698 -132.590698 -22.331701 0.082204
196.074036 -132.590698 -22.331701 0.090660
209.557312 -132.590698 -22.331701 0.092627
223.040588 -132.590698 -22.331701 0.076170
236.523926 -132.590698 -22.331701 0.054777
250.007202 -132.590698 -22.331701 0.042216
263.490540 -132.590698 -22.331701 0.036290
276.973816 -132.590698 -22.331701 0.030921
290.457092 -132.590698 -22.331701 0.032996
303.940430 -132.590698 -22.331701 0.000000
317.423706 -132.590698 -22.331701 0.000000
330.907043 -132.590698 -22.331701 0.000000
344.390320 -132.590698 -22.331701 0.000000
-343.257996 -146.074036 -22.331701 0.000000
-329.774689 -146.074036 -22.331701 0.000000
-316.291382 -146.074036 -22.331701 0.000000
-302.808105 -146.074036 -22.331701 0.000000
-289.324799 -146.074036 -22.331701 0.000000
-275.841492 -146.074036 -22.331701 0.000000
-262.358185 -146.074036 -22.331701 0.000000
-248.874893 -146.074036 -22.331701 0.000000
-235.391602 -146.074036 -22.331701 0.000000
-221.908295 -146.074036 -22.331701 0.000000
-208.424988 -146.074036 -22.331701 0.000000
-194.941696 -146.074036 -22.331701 0.000000
-181.458389 -146.074036 -22.331701 0.000000
-167.975098 -146.074036 -22.331701 0.000000
-154.491791 -146.074036 -22.331701 0.000000
-141.008499 -146.074036 -22.331701 0.000000
-127.525192 -146.074036 -22.331701 0.000000
-114.041885 -146.074036 -22.331701 0.000000
-100.558594 -146.074036 -22.331701 0.000000
-87.075287 -146.074036 -22.331701 0.000000
-73.591980 -146.074036 -22.331701 0.000000
-60.108704 -146.074036 -22.331701 0.000000
-46.625397 -146.074036 -22.331701 0.000000
-33.142090 -146.074036 -22.331701 0.000000
-19.658783 -146.074036 -22.331701 0.000000
-6.175476 -146.074036 -22.331701 0.000000
7.307800 -146.074036 -22.331701 0.000000
20.791107 -146.074036 -22.331701 0.000000
34.274414 -146.074036 -22.331701 0.000000
47.757721 -146.074036 -22.331701 0.000000
61.240997 -146.074036 -22.331701 0.000000
74.724304 -146.074036 -22.331701 0.000000
88.207611 -146.074036 -22.331701 0.000000
101.690918 -146.074036 -22.331701 0.000000
115.174225 -146.074036 -22.331701 0.000000
128.657501 -146.074036 -22.331701 0.093499
142.140808 -146.074036 -22.331701 0.086807
155.624115 -146.074036 -22.331701 0.088106
169.107422 -146.074036 -22.331701 0.089198
182.590698 -146.074036 -22.331701 0.096109
196.074036 -146.074036 -22.331701 0.104369
209.557312 -146.074036 -22.331701 0.108654
223.040588 -146.074036 -22.331701 0.097620
236.523926 -146.074036 -22.331701 0.000000
250.007202 -146.074036 -22.331701 0.065279
263.490540 -146.074036 -22.331701 0.050582
276.973816 -146.074036 -22.331701 0.000000
290.457092 -146.074036 -22.331701 0.000000
303.940430 -146.074036 -22.331701 0.000000
317.423706 -146.074036 -22.331701 0.000000
330.907043 -146.074036 -22.331701 0.000000
344.390320 -146.074036 -22.331701 0.000000
-343.257996 -159.557312 -22.331701 0.000000
-329.774689 -159.557312 -22.331701 0.000000
-316.291382 -159.557312 -22.331701 0.000000
-302.808105 -159.557312 -22.331701 0.000000
-289.324799 -159.557312 -22.331701 0.000000
-275.841492 -159.557312 -22.331701 0.000000
-262.358185 -159.557312 -22.331701 0.000000
-248.874893 -159.557312 -22.331701 0.000000
-235.391602 -159.557312 -22.331701 0.000000
-221.908295 -159.557312 -22.331701 0.000000
-208.424988 -159.557312 -22.331701 0.000000
-194.941696 -159.557312 -22.331701 0.000000
-181.458389 -159.557312 -22.331701 0.000000
-167.975098 -159.557312 -22.331701 0.000000
-154.491791 -159.557312 -22.331701 0.000000
-141.008499 -159.557312 -22.331701 0.000000
-127.525192 -159.557312 -22.331701 0.000000
-114.041885 -159.557312 -22.331701 0.000000
-100.558594 -159.557312 -22.331701 0.000000
-87.075287 -159.557312 -22.331701 0.000000
-73.591980 -159.557312 -22.331701 0.000000
-60.108704 -159.557312 -22.331701 0.000000
-46.625397 -159.557312 -22.331701 0.000000
-33.142090 -159.557312 -22.331701 0.000000
-19.658783 -159.557312 -22.331701 0.000000
-6.175476 -159.557312 -22.331701 0.000000
7.307800 -159.557312 -22.331701 0.000000
20.791107 -159.557312 -22.331701 0.000000
34.274414 -159.557312 -22.331701 0.000000
47.757721 -159.557312 -22.331701 0.000000
61.240997 -159.557312 -22.331701 0.000000
74.724304 -159.557312 -22.331701 0.000000
88.207611 -159.557312 -22.331701 0.000000
101.690918 -159.557312 -22.331701 0.000000
115.174225 -159.557312 -22.331701 0.000000
128.657501 -159.557312 -22.331701 0.000000
142.140808 -159.557312 -22.331701 0.000000
155.624115 -159.557312 -22.331701 0.000000
169.107422 -159.557312 -22.331701 0.000000
182.590698 -159.557312 -22.331701 0.000000
196.074036 -159.557312 -22.331701 0.000000
209.557312 -159.557312 -22.331701 0.000000
223.040588 -159.557312 -22.331701 0.000000
236.523926 -159.557312 -22.331701 0.000000
250.007202 -159.557312 -22.331701 0.000000
263.490540 -159.557312 -22.331701 0.000000
276.973816 -159.557312 -22.331701 0.000000
290.457092 -159.557312 -22.331701 0.000000
303.940430 -159.557312 -22.331701 0.000000
317.423706 -159.557312 -22.331701 0.000000
330.907043 -159.557312 -22.331701 0.000000
344.390320 -159.557312 -22.331701 0.000000
-343.257996 -173.040588 -22.331701 0.000000
-329.774689 -173.040588 -22.331701 0.000000
-316.291382 -173.040588 -22.331701 0.000000
-302.808105 -173.040588 -22.331701 0.000000
-289.324799 -173.040588 -22.331701 0.000000
-275.841492 -173.040588 -22.331701 0.000000
-262.358185 -173.040588 -22.331701 0.000000
-248.874893 -173.040588 -22.331701 0.000000
-235.391602 -173.040588 -22.331701 0.000000
-221.908295 -173.040588 -22.331701 0.000000
-208.424988 -173.040588 -22.331701 0.000000
-194.941696 -173.040588 -22.331701 0.000000
-181.458389 -173.040588 -22.331701 0.000000
-167.975098 -173.040588 -22.331701 0.000000
-154.491791 -173.040588 -22.331701 0.000000
-141.008499 -173.040588 -22.331701 0.000000
-127.525192 -173.040588 -22.331701 0.000000
-114.041885 -173.040588 -22.331701 0.000000
-100.558594 -173.040588 -22.331701 0.000000
-87.075287 -173.040588 -22.331701 0.000000
-73.591980 -173.040588 -22.331701 0.000000
-60.108704 -173.040588 -22.331701 0.000000
-46.625397 -173.040588 -22.331701 0.000000
-33.142090 -173.040588 -22.331701 0.000000
-19.658783 -173.040588 -22.331701 0.000000
-6.175476 -173.040588 -22.331701 0.000000
7.307800 -173.040588 -22.331701 0.000000
20.791107 -173.040588 -22.331701 0.000000
34.274414 -173.040588 -22.331701 0.000000
47.757721 -173.040588 -22.331701 0.000000
61.240997 -173.040588 -22.331701 0.000000
74.724304 -173.040588 -22.331701 0.000000
88.207611 -173.040588 -22.331701 0.000000
101.690918 -173.040588 -22.331701 0.000000
115.174225 -173.040588 -22.331701 0.000000
128.657501 -173.040588 -22.331701 0.000000
142.140808 -173.040588 -22.331701 0.000000
155.624115 -173.040588 -22.331701 0.000000
169.107422 -173.040588 -22.331701 0.000000
182.590698 -173.040588 -22.331701 0.000000
196.074036 -173.040588 -22.331701 0.000000
209.557312 -173.040588 -22.331701 0.000000
223.040588 -173.040588 -22.331701 0.000000
236.523926 -173.040588 -22.331701 0.000000
250.007202 -173.040588 -22.331701 0.000000
263.490540 -173.040588 -22.331701 0.000000
276.973816 -173.040588 -22.331701 0.000000
290.457092 -173.040588 -22.331701 0.000000
303.940430 -173.040588 -22.331701 0.000000
317.423706 -173.040588 -22.331701 0.000000
330.907043 -173.040588 -22.331701 0.000000
344.390320 -173.040588 -22.331701 0.000000
-343.257996 -186.523926 -22.331701 0.000000
-329.774689 -186.523926 -22.331701 0.000000
-316.291382 -186.523926 -22.331701 0.000000
-302.808105 -186.523926 -22.331701 0.000000
-289.324799 -186.523926 -22.331701 0.000000
-275.841492 -186.523926 -22.331701 0.000000
-262.358185 -186.523926 -22.331701 0.000000
-248.874893 -186.523926 -22.331701 0.000000
-235.391602 -186.523926 -22.331701 0.000000
-221.908295 -186.523926 -22.331701 0.000000
-208.424988 -186.523926 -22.331701 0.000000
-194.941696 -186.523926 -22.331701 0.000000
-181.458389 -186.523926 -22.331701 0.000000
-167.975098 -186.523926 -22.331701 0.000000
-154.491791 -186.523926 -22.331701 0.000000
-141.008499 -186.523926 -22.331701 0.000000
-127.525192 -186.523926 -22.331701 0.000000
-114.041885 -186.523926 -22.331701 0.000000
-100.558594 -186.523926 -22.331701 0.000000
-87.075287 -186.523926 -22.331701 0.000000
-73.591980 -186.523926 -22.331701 0.000000
-60.108704 -186.523926 -22.331701 0.000000
-46.625397 -186.523926 -22.331701 0.000000
-33.142090 -186.523926 -22.331701 0.000000
-19.658783 -186.523926 -22.331701 0.000000
-6.175476 -186.523926 -22.331701 0.000000
7.307800 -186.523926 -22.331701 0.000000
20.791107 -186.523926 -22.331701 0.000000
34.274414 -186.523926 -22.331701 0.000000
47.757721 -186.523926 -22.331701 0.000000
61.240997 -186.523926 -22.331701 0.000000
74.724304 -186.523926 -22.331701 0.000000
88.207611 -186.523926 -22.331701 0.000000
101.690918 -186.523926 -22.331701 0.000000
115.174225 -186.523926 -22.331701 0.000000
128.657501 -186.523926 -22.331701 0.000000
142.140808 -186.523926 -22.331701 0.000000
155.624115 -186.523926 -22.331701 0.000000
169.107422 -186.523926 -22.331701 0.000000
182.590698 -186.523926 -22.331701 0.000000
196.074036 -186.523926 -22.331701 0.000000
209.557312 -186.523926 -22.331701 0.000000
223.040588 -186.523926 -22.331701 0.000000
236.523926 -186.523926 -22.331701 0.000000
250.007202 -186.523926 -22.331701 0.000000
263.490540 -186.523926 -22.331701 0.000000
276.973816 -186.523926 -22.331701 0.000000
290.457092 -186.523926 -22.331701 0.000000
303.940430 -186.523926 -22.331701 0.000000
317.423706 -186.523926 -22.331701 0.000000
330.907043 -186.523926 -22.331701 0.000000
344.390320 -186.523926 -22.331701 0.000000
-343.257996 -200.007202 -22.331701 0.000000
-329.774689 -200.007202 -22.331701 0.000000
-316.291382 -200.007202 -22.331701 0.000000
-302.808105 -200.007202 -22.331701 0.000000
-289.324799 -200.007202 -22.331701 0.000000
-275.841492 -200.007202 -22.331701 0.000000
-262.358185 -200.007202 -22.331701 0.000000
-248.874893 -200.007202 -22.331701 0.000000
-235.391602 -200.007202 -22.331701 0.000000
-221.908295 -200.007202 -22.331701 0.000000
-208.424988 -200.007202 -22.331701 0.000000
-194.941696 -200.007202 -22.331701 0.000000
-181.458389 -200.007202 -22.331701 0.000000
-167.975098 -200.007202 -22.331701 0.000000
-154.491791 -200.007202 -22.331701 0.000000
-141.008499 -200.007202 -22.331701 0.000000
-127.525192 -200.007202 -22.331701 0.000000
-114.041885 -200.007202 -22.331701 0.000000
-100.558594 -200.007202 -22.331701 0.000000
-87.075287 -200.007202 -22.331701 0.000000
-73.591980 -200.007202 -22.331701 0.000000
-60.108704 -200.007202 -22.331701 0.000000
-46.625397 -200.007202 -22.331701 0.000000
-33.142090 -200.007202 -22.331701 0.000000
-19.658783 -200.007202 -22.331701 0.000000
-6.175476 -200.007202 -22.331701 0.000000
7.307800 -200.007202 -22.331701 0.000000
20.791107 -200.007202 -22.331701 0.000000
34.274414 -200.007202 -22.331701 0.000000
47.757721 -200.007202 -22.331701 0.000000
61.240997 -200.007202 -22.331701 0.000000
74.724304 -200.007202 -22.331701 0.000000
88.207611 -200.007202 -22.331701 0.000000
101.690918 -200.007202 -22.331701 0.000000
115.174225 -200.007202 -22.331701 0.000000
128.657501 -200.007202 -22.331701 0.000000
142.140808 -200.007202 -22.331701 0.000000
155.624115 -200.007202 -22.331701 0.000000
169.107422 -200.007202 -22.331701 0.000000
182.590698 -200.007202 -22.331701 0.000000
196.074036 -200.007202 -22.331701 0.000000
209.557312 -200.007202 -22.331701 0.000000
223.040588 -200.007202 -22.331701 0.000000
236.523926 -200.007202 -22.331701 0.000000
250.007202 -200.007202 -22.331701 0.000000
263.490540 -200.007202 -22.331701 0.000000
276.973816 -200.007202 -22.331701 0.000000
290.457092 -200.007202 -22.331701 0.000000
303.940430 -200.007202 -22.331701 0.000000
317.423706 -200.007202 -22.331701 0.000000
330.907043 -200.007202 -22.331701 0.000000
344.390320 -200.007202 -22.331701 0.000000
-343.257996 393.257996 -8.848400 0.000000
-329.774689 393.257996 -8.848400 0.000000
-316.291382 393.257996 -8.848400 0.000000
-302.808105 393.257996 -8.848400 0.000000
-289.324799 393.257996 -8.848400 0.000000
-275.841492 393.257996 -8.848400 0.000000
-262.358185 393.257996 -8.848400 0.000000
-248.874893 393.257996 -8.848400 0.000000
-235.391602 393.257996 -8.848400 0.000000
-221.908295 393.257996 -8.848400 0.000000
-208.424988 393.257996 -8.848400 0.000000
-194.941696 393.257996 -8.848400 0.000000
-181.458389 393.257996 -8.848400 0.000000
-167.975098 393.257996 -8.848400 0.000000
-154.491791 393.257996 -8.848400 0.000000
-141.008499 393.257996 -8.848400 0.000000
-127.525192 393.257996 -8.848400 0.000000
-114.041885 393.257996 -8.848400 0.000000
-100.558594 393.257996 -8.848400 0.000000
-87.075287 393.257996 -8.848400 0.000000
-73.591980 393.257996 -8.848400 0.000000
-60.108704 393.257996 -8.848400 0.000000
-46.625397 393.257996 -8.848400 0.000000
-33.142090 393.257996 -8.848400 0.000000
-19.658783 393.257996 -8.848400 0.000000
-6.175476 393.257996 -8.848400 0.000000
7.307800 393.257996 -8.848400 0.000000
20.791107 393.257996 -8.848400 0.000000
34.274414 393.257996 -8.848400 0.000000
47.757721 393.257996 -8.848400 0.000000
61.240997 393.257996 -8.848400 0.000000
74.724304 393.257996 -8.848400 0.000000
88.207611 393.257996 -8.848400 0.000000
101.690918 393.257996 -8.848400 0.000000
115.174225 393.257996 -8.848400 0.000000
128.657501 393.257996 -8.848400 0.000000
142.140808 393.257996 -8.848400 0.000000
155.624115 393.257996 -8.848400 0.000000
169.107422 393.257996 -8.848400 0.000000
182.590698 393.257996 -8.848400 0.000000
196.074036 393.257996 -8.848400 0.000000
209.557312 393.257996 -8.848400 0.000000
223.040588 393.257996 -8.848400 0.000000
236.523926 393.257996 -8.848400 0.000000
250.007202 393.257996 -8.848400 0.000000
263.490540 393.257996 -8.848400 0.000000
276.973816 393.257996 -8.848400 0.000000
290.457092 393.257996 -8.848400 0.000000
303.940430 393.257996 -8.848400 0.000000
317.423706 393.257996 -8.848400 0.000000
330.907043 393.257996 -8.848400 0.000000
344.390320 393.257996 -8.848400 0.000000
-343.257996 379.774689 -8.848400 0.000000
-329.774689 379.774689 -8.848400 0.000000
-316.291382 379.774689 -8.848400 0.000000
-302.808105 379.774689 -8.848400 0.000000
-289.324799 379.774689 -8.848400 0.000000
-275.841492 379.774689 -8.848400 0.000000
-262.358185 379.774689 -8.848400 0.000000
-248.874893 379.774689 -8.848400 0.000000
-235.391602 379.774689 -8.848400 0.000000
-221.908295 379.774689 -8.848400 0.000000
-208.424988 379.774689 -8.848400 0.000000
-194.941696 379.774689 -8.848400 0.000000
-181.458389 379.774689 -8.848400 0.000000
-167.975098 379.774689 -8.848400 0.000000
-154.491791 379.774689 -8.848400 0.000000
-141.008499 379.774689 -8.848400 0.000000
-127.525192 379.774689 -8.848400 0.000000
-114.041885 379.774689 -8.848400 0.000000
-100.558594 379.774689 -8.848400 0.000000
-87.075287 379.774689 -8.848400 0.000000
-73.591980 379.774689 -8.848400 0.000000
-60.108704 379.774689 -8.848400 0.000000
-46.625397 379.774689 -8.848400 0.000000
-33.142090 379.774689 -8.848400 0.000000
-19.658783 379.774689 -8.848400 0.000000
-6.175476 379.774689 -8.848400 0.000000
7.307800 379.774689 -8.848400 0.000000
20.791107 379.774689 -8.848400 0.000000
34.274414 379.774689 -8.848400 0.000000
47.757721 379.774689 -8.848400 0.000000
61.240997 379.774689 -8.848400 0.000000
74.724304 379.774689 -8.848400 0.000000
88.207611 379.774689 -8.848400 0.000000
101.690918 379.774689 -8.848400 0.000000
115.174225 379.774689 -8.848400 0.000000
128.657501 379.774689 -8.848400 0.000000
142.140808 379.774689 -8.848400 0.000000
155.624115 379.774689 -8.848400 0.000000
169.107422 379.774689 -8.848400 0.000000
182.590698 379.774689 -8.848400 0.000000
196.074036 379.774689 -8.848400 0.000000
209.557312 379.774689 -8.848400 0.000000
223.040588 379.774689 -8.848400 0.000000
236.523926 379.774689 -8.848400 0.000000
250.007202 379.774689 -8.848400 0.000000
263.490540 379.774689 -8.848400 0.000000
276.973816 379.774689 -8.848400 0.000000
290.457092 379.774689 -8.848400 0.000000
303.940430 379.774689 -8.848400 0.000000
317.423706 379.774689 -8.848400 0.000000
330.907043 379.774689 -8.848400 0.000000
344.390320 379.774689 -8.848400 0.000000
-343.257996 366.291382 -8.848400 0.000000
-329.774689 366.291382 -8.848400 0.000000
-316.291382 366.291382 -8.848400 0.000000
-302.808105 366.291382 -8.848400 0.000000
-289.324799 366.291382 -8.848400 0.000000
-275.841492 366.291382 -8.848400 0.000000
-262.358185 366.291382 -8.848400 0.000000
-248.874893 366.291382 -8.848400 0.000000
-235.391602 366.291382 -8.848400 0.000000
-221.908295 366.291382 -8.848400 0.000000
-208.424988 366.291382 -8.848400 0.000000
-194.941696 366.291382 -8.848400 0.000000
-181.458389 366.291382 -8.848400 0.000000
-167.975098 366.291382 -8.848400 0.000000
-154.491791 366.291382 -8.848400 0.000000
-141.008499 366.291382 -8.848400 0.000000
-127.525192 366.291382 -8.848400 0.000000
-114.041885 366.291382 -8.848400 0.000000
-100.558594 366.291382 -8.848400 0.000000
-87.075287 366.291382 -8.848400 0.000000
-73.591980 366.291382 -8.848400 0.000000
-60.108704 366.291382 -8.848400 0.000000
-46.625397 366.291382 -8.848400 0.000000
-33.142090 366.291382 -8.848400 0.000000
-19.658783 366.291382 -8.848400 0.000000
-6.175476 366.291382 -8.848400 0.000000
7.307800 366.291382 -8.848400 0.000000
20.791107 366.291382 -8.848400 0.000000
34.274414 366.291382 -8.848400 0.000000
47.757721 366.291382 -8.848400 0.000000
61.240997 366.291382 -8.848400 0.000000
74.724304 366.291382 -8.848400 0.000000
88.207611 366.291382 -8.848400 0.000000
101.690918 366.291382 -8.848400 0.000000
115.174225 366.291382 -8.848400 0.000000
128.657501 366.291382 -8.848400 0.000000
142.140808 366.291382 -8.848400 0.000000
155.624115 366.291382 -8.848400 0.000000
169.107422 366.291382 -8.848400 0.000000
182.590698 366.291382 -8.848400 0.000000
196.074036 366.291382 -8.848400 0.000000
209.557312 366.291382 -8.848400 0.000000
223.040588 366.291382 -8.848400 0.000000
236.523926 366.291382 -8.848400 0.000000
250.007202 366.291382 -8.848400 0.000000
263.490540 366.291382 -8.848400 0.000000
276.973816 366.291382 -8.848400 0.000000
290.457092 366.291382 -8.848400 0.000000
303.940430 366.291382 -8.848400 0.000000
317.423706 366.291382 -8.848400 0.000000
330.907043 366.291382 -8.848400 0.000000
344.390320 366.291382 -8.848400 0.000000
-343.257996 352.808105 -8.848400 0.000000
-329.774689 352.808105 -8.848400 0.000000
-316.291382 352.808105 -8.848400 0.000000
-302.808105 352.808105 -8.848400 0.000000
-289.324799 352.808105 -8.848400 0.000000
-275.841492 352.808105 -8.848400 0.000000
-262.358185 352.808105 -8.848400 0.000000
-248.874893 352.808105 -8.848400 0.000000
-235.391602 352.808105 -8.848400 0.000000
-221.908295 352.808105 -8.848400 0.000000
-208.424988 352.808105 -8.848400 0.000000
-194.941696 352.808105 -8.848400 0.000000
-181.458389 352.808105 -8.848400 0.000000
-167.975098 352.808105 -8.848400 0.000000
-154.491791 352.808105 -8.848400 0.000000
-141.008499 352.808105 -8.848400 0.000000
-127.525192 352.808105 -8.848400 0.000000
-114.041885 352.808105 -8.848400 0.000000
-100.558594 352.808105 -8.848400 0.000000
-87.075287 352.808105 -8.848400 0.000000
-73.591980 352.808105 -8.848400 0.000000
-60.108704 352.808105 -8.848400 0.000000
-46.625397 352.808105 -8.848400 0.000000
-33.142090 352.808105 -8.848400 0.000000
-19.658783 352.808105 -8.848400 0.000000
-6.175476 352.808105 -8.848400 0.000000
7.307800 352.808105 -8.848400 0.000000
20.791107 352.808105 -8.848400 0.000000
34.274414 352.808105 -8.848400 0.000000
47.757721 352.808105 -8.848400 0.000000
61.240997 352.808105 -8.848400 0.000000
74.724304 352.808105 -8.848400 0.000000
88.207611 352.808105 -8.848400 0.000000
101.690918 352.808105 -8.848400 0.000000
115.174225 352.808105 -8.848400 0.000000
128.657501 352.808105 -8.848400 0.000000
142.140808 352.808105 -8.848400 0.000000
155.624115 352.808105 -8.848400 0.000000
169.107422 352.808105 -8.848400 0.000000
182.590698 352.808105 -8.848400 0.000000
196.074036 352.808105 -8.848400 0.000000
209.557312 352.808105 -8.848400 0.000000
223.040588 352.808105 -8.848400 0.000000
236.523926 352.808105 -8.848400 0.000000
250.007202 352.808105 -8.848400 0.000000
263.490540 352.808105 -8.848400 0.000000
276.973816 352.808105 -8.848400 0.000000
290.457092 352.808105 -8.848400 0.000000
303.940430 352.808105 -8.848400 0.000000
317.423706 352.808105 -8.848400 0.000000
330.907043 352.808105 -8.848400 0.000000
344.390320 352.808105 -8.848400 0.000000
-343.257996 339.324799 -8.848400 0.000000
-329.774689 339.324799 -8.848400 0.000000
-316.291382 339.324799 -8.848400 0.000000
-302.808105 339.324799 -8.848400 0.000000
-289.324799 339.324799 -8.848400 0.000000
-275.841492 339.324799 -8.848400 0.000000
-262.358185 339.324799 -8.848400 0.000000
-248.874893 339.324799 -8.848400 0.000000
-235.391602 339.324799 -8.848400 0.000000
-221.908295 339.324799 -8.848400 0.000000
-208.424988 339.324799 -8.848400 0.000000
-194.941696 339.324799 -8.848400 0.000000
-181.458389 339.324799 -8.848400 0.000000
-167.975098 339.324799 -8.848400 0.000000
-154.491791 339.324799 -8.848400 0.000000
-141.008499 339.324799 -8.848400 0.000000
-127.525192 339.324799 -8.848400 0.000000
-114.041885 339.324799 -8.848400 0.000000
-100.558594 339.324799 -8.848400 0.000000
-87.075287 339.324799 -8.848400 0.000000
-73.591980 339.324799 -8.848400 0.000000
-60.108704 339.324799 -8.848400 0.000000
-46.625397 339.324799 -8.848400 0.307211
-33.142090 339.324799 -8.848400 0.287055
-19.658783 339.324799 -8.848400 0.229895
-6.175476 339.324799 -8.848400 0.184087
7.307800 339.324799 -8.848400 0.147673
20.791107 339.324799 -8.848400 0.000000
34.274414 339.324799 -8.848400 0.000000
47.757721 339.324799 -8.848400 0.000000
61.240997 339.324799 -8.848400 0.000000
74.724304 339.324799 -8.848400 0.000000
88.207611 339.324799 -8.848400 0.000000
101.690918 339.324799 -8.848400 0.000000
115.174225 339.324799 -8.848400 0.000000
128.657501 339.324799 -8.848400 0.000000
142.140808 339.324799 -8.848400 0.000000
155.624115 339.324799 -8.848400 0.000000
169.107422 339.324799 -8.848400 0.000000
182.590698 339.324799 -8.848400 0.000000
196.074036 339.324799 -8.848400 0.000000
209.557312 339.324799 -8.848400 0.000000
223.040588 339.324799 -8.848400 0.000000
236.523926 339.324799 -8.848400 0.000000
250.007202 339.324799 -8.848400 0.000000
263.490540 339.324799 -8.848400 0.000000
276.973816 339.324799 -8.848400 0.000000
290.457092 339.324799 -8.848400 0.000000
303.940430 339.324799 -8.848400 0.000000
317.423706 339.324799 -8.848400 0.000000
330.907043 339.324799 -8.848400 0.000000
344.390320 339.324799 -8.848400 0.000000
-343.257996 325.841492 -8.848400 0.000000
-329.774689 325.841492 -8.848400 0.000000
-316.291382 325.841492 -8.848400 0.000000
-302.808105 325.841492 -8.848400 0.000000
-289.324799 325.841492 -8.848400 0.000000
-275.841492 325.841492 -8.848400 0.000000
-262.358185 325.841492 -8.848400 0.000000
-248.874893 325.841492 -8.848400 0.000000
-235.391602 325.841492 -8.848400 0.000000
-221.908295 325.841492 -8.848400 0.000000
-208.424988 325.841492 -8.848400 0.000000
-194.941696 325.841492 -8.848400 0.000000
-181.458389 325.841492 -8.848400 0.000000
-167.975098 325.841492 -8.848400 0.000000
-154.491791 325.841492 -8.848400 0.000000
-141.008499 325.841492 -8.848400 0.000000
-127.525192 325.841492 -8.848400 0.000000
-114.041885 325.841492 -8.848400 0.000000
-100.558594 325.841492 -8.848400 0.334007
-87.075287 325.841492 -8.848400 0.333137
-73.591980 325.841492 -8.848400 0.322706
-60.108704 325.841492 -8.848400 0.292910
-46.625397 325.841492 -8.848400 0.296081
-33.142090 325.841492 -8.848400 0.282118
-19.658783 325.841492 -8.848400 0.243463
-6.175476 325.841492 -8.848400 0.196096
7.307800 325.841492 -8.848400 0.165966
20.791107 325.841492 -8.848400 0.125404
34.274414 325.841492 -8.848400 0.000000
47.757721 325.841492 -8.848400 0.000000
61.240997 325.841492 -8.848400 0.000000
74.724304 325.841492 -8.848400 0.000000
88.207611 325.841492 -8.848400 0.000000
101.690918 325.841492 -8.848400 0.000000
115.174225 325.841492 -8.848400 0.000000
128.657501 325.841492 -8.848400 0.000000
142.140808 325.841492 -8.848400 0.000000
155.624115 325.841492 -8.848400 0.000000
169.107422 325.841492 -8.848400 0.000000
182.590698 325.841492 -8.848400 0.000000
196.074036 325.841492 -8.848400 0.000000
209.557312 325.841492 -8.848400 0.000000
223.040588 325.841492 -8.848400 0.000000
236.523926 325.841492 -8.848400 0.000000
250.007202 325.841492 -8.848400 0.000000
263.490540 325.841492 -8.848400 0.000000
276.973816 325.841492 -8.848400 0.000000
290.457092 325.841492 -8.848400 0.000000
303.940430 325.841492 -8.848400 0.000000
317.423706 325.841492 -8.848400 0.000000
330.907043 325.841492 -8.848400 0.000000
344.390320 325.841492 -8.848400 0.000000
-343.257996 312.358185 -8.848400 0.000000
-329.774689 312.358185 -8.848400 0.000000
-316.291382 312.358185 -8.848400 0.000000
-302.808105 312.358185 -8.848400 0.000000
-289.324799 312.358185 -8.848400 0.000000
-275.841492 312.358185 -8.848400 0.000000
-262.358185 312.358185 -8.848400 0.000000
-248.874893 312.358185 -8.848400 0.000000
-235.391602 312.358185 -8.848400 0.000000
-221.908295 312.358185 -8.848400 0.000000
-208.424988 312.358185 -8.848400 0.000000
-194.941696 312.358185 -8.848400 0.000000
-181.458389 312.358185 -8.848400 0.000000
-167.975098 312.358185 -8.848400 0.000000
-154.491791 312.358185 -8.848400 0.000000
-141.008499 312.358185 -8.848400 0.000000
-127.525192 312.358185 -8.848400 0.000000
-114.041885 312.358185 -8.848400 0.298350
-100.558594 312.358185 -8.848400 0.303426
-87.075287 312.358185 -8.848400 0.317764
-73.591980 312.358185 -8.848400 0.316435
-60.108704 312.358185 -8.848400 0.292928
-46.625397 312.358185 -8.848400 0.283335
-33.142090 312.358185 -8.848400 0.257551
-19.658783 312.358185 -8.848400 0.231920
-6.175476 312.358185 -8.848400 0.200687
7.307800 312.358185 -8.848400 0.170367
20.791107 312.358185 -8.848400 0.141201
34.274414 312.358185 -8.848400 0.118586
47.757721 312.358185 -8.848400 0.000000
61.240997 312.358185 -8.848400 0.000000
74.724304 312.358185 -8.848400 0.000000
88.207611 312.358185 -8.848400 0.000000
101.690918 312.358185 -8.848400 0.000000
115.174225 312.358185 -8.848400 0.000000
128.657501 312.358185 -8.848400 0.000000
142.140808 312.358185 -8.848400 0.000000
155.624115 312.358185 -8.848400 0.000000
169.107422 312.358185 -8.848400 0.000000
182.590698 312.358185 -8.848400 0.000000
196.074036 312.358185 -8.848400 0.000000
209.557312 312.358185 -8.848400 0.000000
223.040588 312.358185 -8.848400 0.000000
236.523926 312.358185 -8.848400 0.000000
250.007202 312.358185 -8.848400 0.000000
263.490540 312.358185 -8.848400 0.000000
276.973816 312.358185 -8.848400 0.000000
290.457092 312.358185 -8.848400 0.000000
303.940430 312.358185 -8.848400 0.000000
317.423706 312.358185 -8.848400 0.000000
330.907043 312.358185 -8.848400 0.000000
344.390320 312.358185 -8.848400 0.000000
-343.257996 298.874878 -8.848400 0.000000
-329.774689 298.874878 -8.848400 0.000000
-316.291382 298.874878 -8.848400 0.000000
-302.808105 298.874878 -8.848400 0.000000
-289.324799 298.874878 -8.848400 0.000000
-275.841492 298.874878 -8.848400 0.000000
-262.358185 298.874878 -8.848400 0.000000
-248.874893 298.874878 -8.848400 0.000000
-235.391602 298.874878 -8.848400 0.000000
-221.908295 298.874878 -8.848400 0.000000
-208.424988 298.874878 -8.848400 0.000000
-194.941696 298.874878 -8.848400 0.000000
-181.458389 298.874878 -8.848400 0.000000
-167.975098 298.874878 -8.848400 0.000000
-154.491791 298.874878 -8.848400 0.000000
-141.008499 298.874878 -8.848400 0.000000
-127.525192 298.874878 -8.848400 0.000000
-114.041885 298.874878 -8.848400 0.283757
-100.558594 298.874878 -8.848400 0.301063
-87.075287 298.874878 -8.848400 0.299148
-73.591980 298.874878 -8.848400 0.293412
-60.108704 298.874878 -8.848400 0.279504
-46.625397 298.874878 -8.848400 0.255176
-33.142090 298.874878 -8.848400 0.241072
-19.658783 298.874878 -8.848400 0.233608
-6.175476 298.874878 -8.848400 0.206126
7.307800 298.874878 -8.848400 0.183325
20.791107 298.874878 -8.848400 0.160708
34.274414 298.874878 -8.848400 0.143857
47.757721 298.874878 -8.848400 0.138803
61.240997 298.874878 -8.848400 0.000000
74.724304 298.874878 -8.848400 0.000000
88.207611 298.874878 -8.848400 0.000000
101.690918 298.874878 -8.848400 0.000000
115.174225 298.874878 -8.848400 0.000000
128.657501 298.874878 -8.848400 0.000000
142.140808 298.874878 -8.848400 0.000000
155.624115 298.874878 -8.848400 0.000000
169.107422 298.874878 -8.848400 0.000000
182.590698 298.874878 -8.848400 0.000000
196.074036 298.874878 -8.848400 0.000000
209.557312 298.874878 -8.848400 0.000000
223.040588 298.874878 -8.848400 0.000000
236.523926 298.874878 -8.848400 0.000000
250.007202 298.874878 -8.848400 0.000000
263.490540 298.874878 -8.848400 0.000000
276.973816 298.874878 -8.848400 0.000000
290.457092 298.874878 -8.848400 0.000000
303.940430 298.874878 -8.848400 0.000000
317.423706 298.874878 -8.848400 0.000000
330.907043 298.874878 -8.848400 0.000000
344.390320 298.874878 -8.848400 0.000000
-343.257996 285.391602 -8.848400 0.000000
-329.774689 285.391602 -8.848400 0.000000
-316.291382 285.391602 -8.848400 0.000000
-302.808105 285.391602 -8.848400 0.000000
-289.324799 285.391602 -8.848400 0.000000
-275.841492 285.391602 -8.848400 0.000000
-262.358185 285.391602 -8.848400 0.000000
-248.874893 285.391602 -8.848400 0.000000
-235.391602 285.391602 -8.848400 0.000000
-221.908295 285.391602 -8.848400 0.000000
-208.424988 285.391602 -8.848400 0.000000
-194.941696 285.391602 -8.848400 0.000000
-181.458389 285.391602 -8.848400 0.000000
-167.975098 285.391602 -8.848400 0.000000
-154.491791 285.391602 -8.848400 0.000000
-141.008499 285.391602 -8.848400 0.000000
-127.525192 285.391602 -8.848400 0.000000
-114.041885 285.391602 -8.848400 0.285232
-100.558594 285.391602 -8.848400 0.285754
-87.075287 285.391602 -8.848400 0.289652
-73.591980 285.391602 -8.848400 0.292998
-60.108704 285.391602 -8.848400 0.272639
-46.625397 285.391602 -8.848400 0.248595
-33.142090 285.391602 -8.848400 0.243667
-19.658783 285.391602 -8.848400 0.238129
-6.175476 285.391602 -8.848400 0.209712
7.307800 285.391602 -8.848400 0.202108
20.791107 285.391602 -8.848400 0.180890
34.274414 285.391602 -8.848400 0.171738
47.757721 285.391602 -8.848400 0.162881
61.240997 285.391602 -8.848400 0.000000
74.724304 285.391602 -8.848400 0.000000
88.207611 285.391602 -8.848400 0.000000
101.690918 285.391602 -8.848400 0.343111
115.174225 285.391602 -8.848400 0.383733
128.657501 285.391602 -8.848400 0.378379
142.140808 285.391602 -8.848400 0.362697
155.624115 285.391602 -8.848400 0.315579
169.107422 285.391602 -8.848400 0.285292
182.590698 285.391602 -8.848400 0.000000
196.074036 285.391602 -8.848400 0.000000
209.557312 285.391602 -8.848400 0.000000
223.040588 285.391602 -8.848400 0.000000
236.523926 285.391602 -8.848400 0.000000
250.007202 285.391602 -8.848400 0.000000
263.490540 285.391602 -8.848400 0.000000
276.973816 285.391602 -8.848400 0.000000
290.457092 285.391602 -8.848400 0.000000
303.940430 285.391602 -8.848400 0.000000
317.423706 285.391602 -8.848400 0.000000
330.907043 285.391602 -8.848400 0.000000
344.390320 285.391602 -8.848400 0.000000
-343.257996 271.908295 -8.848400 0.000000
-329.774689 271.908295 -8.848400 0.000000
-316.291382 271.908295 -8.848400 0.000000
-302.808105 271.908295 -8.848400 0.000000
-289.324799 271.908295 -8.848400 0.000000
-275.841492 271.908295 -8.848400 0.000000
-262.358185 271.908295 -8.848400 0.000000
-248.874893 271.908295 -8.848400 0.000000
-235.391602 271.908295 -8.848400 0.000000
-221.908295 271.908295 -8.848400 0.000000
-208.424988 271.908295 -8.848400 0.000000
-194.941696 271.908295 -8.848400 0.000000
-181.458389 271.908295 -8.848400 0.000000
-167.975098 271.908295 -8.848400 0.000000
-154.491791 271.908295 -8.848400 0.000000
-141.008499 271.908295 -8.848400 0.000000
-127.525192 271.908295 -8.848400 0.000000
-114.041885 271.908295 -8.848400 0.260456
-100.558594 271.908295 -8.848400 0.272957
-87.075287 271.908295 -8.848400 0.279079
-73.591980 271.908295 -8.848400 0.282003
-60.108704 271.908295 -8.848400 0.271379
-46.625397 271.908295 -8.848400 0.253960
-33.142090 271.908295 -8.848400 0.246738
-19.658783 271.908295 -8.848400 0.245364
-6.175476 271.908295 -8.848400 0.216281
7.307800 271.908295 -8.848400 0.202794
20.791107 271.908295 -8.848400 0.196373
34.274414 271.908295 -8.848400 0.197700
47.757721 271.908295 -8.848400 0.195893
61.240997 271.908295 -8.848400 0.000000
74.724304 271.908295 -8.848400 0.000000
88.207611 271.908295 -8.848400 0.320261
101.690918 271.908295 -8.848400 0.371683
115.174225 271.908295 -8.848400 0.412656
128.657501 271.908295 -8.848400 0.400552
142.140808 271.908295 -8.848400 0.000000
155.624115 271.908295 -8.848400 0.301078
169.107422 271.908295 -8.848400 0.276744
182.590698 271.908295 -8.848400 0.000000
196.074036 271.908295 -8.848400 0.000000
209.557312 271.908295 -8.848400 0.000000
223.040588 271.908295 -8.848400 0.000000
236.523926 271.908295 -8.848400 0.000000
250.007202 271.908295 -8.848400 0.000000
263.490540 271.908295 -8.848400 0.000000
276.973816 271.908295 -8.848400 0.000000
290.457092 271.908295 -8.848400 0.000000
303.940430 271.908295 -8.848400 0.000000
317.423706 271.908295 -8.848400 0.000000
330.907043 271.908295 -8.848400 0.000000
344.390320 271.908295 -8.848400 0.000000
-343.257996 258.424988 -8.848400 0.000000
-329.774689 258.424988 -8.848400 0.000000
-316.291382 258.424988 -8.848400 0.000000
-302.808105 258.424988 -8.848400 0.000000
-289.324799 258.424988 -8.848400 0.000000
-275.841492 258.424988 -8.848400 0.000000
-262.358185 258.424988 -8.848400 0.000000
-248.874893 258.424988 -8.848400 0.000000
-235.391602 258.424988 -8.848400 0.000000
-221.908295 258.424988 -8.848400 0.000000
-208.424988 258.424988 -8.848400 0.000000
-194.941696 258.424988 -8.848400 0.000000
-181.458389 258.424988 -8.848400 0.000000
-167.975098 258.424988 -8.848400 0.000000
-154.491791 258.424988 -8.848400 0.000000
-141.008499 258.424988 -8.848400 0.000000
-127.525192 258.424988 -8.848400 0.269278
-114.041885 258.424988 -8.848400 0.282286
-100.558594 258.424988 -8.848400 0.287693
-87.075287 258.424988 -8.848400 0.275377
-73.591980 258.424988 -8.848400 0.274602
-60.108704 258.424988 -8.848400 0.275022
-46.625397 258.424988 -8.848400 0.258161
-33.142090 258.424988 -8.848400 0.257084
-19.658783 258.424988 -8.848400 0.256371
-6.175476 258.424988 -8.848400 0.226534
7.307800 258.424988 -8.848400 0.221609
20.791107 258.424988 -8.848400 0.226774
34.274414 258.424988 -8.848400 0.000000
47.757721 258.424988 -8.848400 0.000000
61.240997 258.424988 -8.848400 0.000000
74.724304 258.424988 -8.848400 0.000000
88.207611 258.424988 -8.848400 0.369139
101.690918 258.424988 -8.848400 0.395108
115.174225 258.424988 -8.848400 0.367593
128.657501 258.424988 -8.848400 0.353167
142.140808 258.424988 -8.848400 0.327038
155.624115 258.424988 -8.848400 0.276140
169.107422 258.424988 -8.848400 0.271161
182.590698 258.424988 -8.848400 0.265690
196.074036 258.424988 -8.848400 0.000000
209.557312 258.424988 -8.848400 0.000000
223.040588 258.424988 -8.848400 0.000000
236.523926 258.424988 -8.848400 0.000000
250.007202 258.424988 -8.848400 0.000000
263.490540 258.424988 -8.848400 0.000000
276.973816 258.424988 -8.848400 0.000000
290.457092 258.424988 -8.848400 0.000000
303.940430 258.424988 -8.848400 0.000000
317.423706 258.424988 -8.848400 0.000000
330.907043 258.424988 -8.848400 0.000000
344.390320 258.424988 -8.848400 0.000000
-343.257996 244.941696 -8.848400 0.000000
-329.774689 244.941696 -8.848400 0.000000
-316.291382 244.941696 -8.848400 0.000000
-302.808105 244.941696 -8.848400 0.000000
-289.324799 244.941696 -8.848400 0.000000
-275.841492 244.941696 -8.848400 0.000000
-262.358185 244.941696 -8.848400 0.000000
-248.874893 244.941696 -8.848400 0.000000
-235.391602 244.941696 -8.848400 0.000000
-221.908295 244.941696 -8.848400 0.000000
-208.424988 244.941696 -8.848400 0.000000
-194.941696 244.941696 -8.848400 0.000000
-181.458389 244.941696 -8.848400 0.000000
-167.975098 244.941696 -8.848400 0.000000
-154.491791 244.941696 -8.848400 0.000000
-141.008499 244.941696 -8.848400 0.000000
-127.525192 244.941696 -8.848400 0.281827
-114.041885 244.941696 -8.848400 0.294796
-100.558594 244.941696 -8.848400 0.311887
-87.075287 244.941696 -8.848400 0.295786
-73.591980 244.941696 -8.848400 0.270077
-60.108704 244.941696 -8.848400 0.273966
-46.625397 244.941696 -8.848400 0.263102
-33.142090 244.941696 -8.848400 0.273623
-19.658783 244.941696 -8.848400 0.255023
-6.175476 244.941696 -8.848400 0.242730
7.307800 244.941696 -8.848400 0.244740
20.791107 244.941696 -8.848400 0.257867
34.274414 244.941696 -8.848400 0.253991
47.757721 244.941696 -8.848400 0.000000
61.240997 244.941696 -8.848400 0.000000
74.724304 244.941696 -8.848400 0.000000
88.207611 244.941696 -8.848400 0.418801
101.690918 244.941696 -8.848400 0.412224
115.174225 244.941696 -8.848400 0.000000
128.657501 244.941696 -8.848400 0.000000
142.140808 244.941696 -8.848400 0.000000
155.624115 244.941696 -8.848400 0.000000
169.107422 244.941696 -8.848400 0.257279
182.590698 244.941696 -8.848400 0.261107
196.074036 244.941696 -8.848400 0.238281
209.557312 244.941696 -8.848400 0.000000
223.040588 244.941696 -8.848400 0.000000
236.523926 244.941696 -8.848400 0.000000
250.007202 244.941696 -8.848400 0.000000
263.490540 244.941696 -8.848400 0.000000
276.973816 244.941696 -8.848400 0.000000
290.457092 244.941696 -8.848400 0.000000
303.940430 244.941696 -8.848400 0.000000
317.423706 244.941696 -8.848400 0.000000
330.907043 244.941696 -8.848400 0.000000
344.390320 244.941696 -8.848400 0.000000
-343.257996 231.458389 -8.848400 0.000000
-329.774689 231.458389 -8.848400 0.000000
-316.291382 231.458389 -8.848400 0.000000
-302.808105 231.458389 -8.848400 0.000000
-289.324799 231.458389 -8.848400 0.000000
-275.841492 231.458389 -8.848400 0.000000
-262.358185 231.458389 -8.848400 0.000000
-248.874893 231.458389 -8.848400 0.000000
-235.391602 231.458389 -8.848400 0.000000
-221.908295 231.458389 -8.848400 0.000000
-208.424988 231.458389 -8.848400 0.000000
-194.941696 231.458389 -8.848400 0.000000
-181.458389 231.458389 -8.848400 0.000000
-167.975098 231.458389 -8.848400 0.000000
-154.491791 231.458389 -8.848400 0.000000
-141.008499 231.458389 -8.848400 0.000000
-127.525192 231.458389 -8.848400 0.315992
-114.041885 231.458389 -8.848400 0.323614
-100.558594 231.458389 -8.848400 0.330821
-87.075287 231.458389 -8.848400 0.303962
-73.591980 231.458389 -8.848400 0.287833
-60.108704 231.458389 -8.848400 0.267964
-46.625397 231.458389 -8.848400 0.257119
-33.142090 231.458389 -8.848400 0.265959
-19.658783 231.458389 -8.848400 0.264004
-6.175476 231.458389 -8.848400 0.254768
7.307800 231.458389 -8.848400 0.258658
20.791107 231.458389 -8.848400 0.276490
34.274414 231.458389 -8.848400 0.284812
47.757721 231.458389 -8.848400 0.000000
61.240997 231.458389 -8.848400 0.000000
74.724304 231.458389 -8.848400 0.379774
88.207611 231.458389 -8.848400 0.414602
101.690918 231.458389 -8.848400 0.410251
115.174225 231.458389 -8.848400 0.000000
128.657501 231.458389 -8.848400 0.000000
142.140808 231.458389 -8.848400 0.270589
155.624115 231.458389 -8.848400 0.267003
169.107422 231.458389 -8.848400 0.255089
182.590698 231.458389 -8.848400 0.233917
196.074036 231.458389 -8.848400 0.214881
209.557312 231.458389 -8.848400 0.000000
223.040588 231.458389 -8.848400 0.000000
236.523926 231.458389 -8.848400 0.000000
250.007202 231.458389 -8.848400 0.000000
263.490540 231.458389 -8.848400 0.000000
276.973816 231.458389 -8.848400 0.000000
290.457092 231.458389 -8.848400 0.000000
303.940430 231.458389 -8.848400 0.000000
317.423706 231.458389 -8.848400 0.000000
330.907043 231.458389 -8.848400 0.000000
344.390320 231.458389 -8.848400 0.000000
-343.257996 217.975098 -8.848400 0.000000
-329.774689 217.975098 -8.848400 0.000000
-316.291382 217.975098 -8.848400 0.000000
-302.808105 217.975098 -8.848400 0.000000
-289.324799 217.975098 -8.848400 0.000000
-275.841492 217.975098 -8.848400 0.000000
-262.358185 217.975098 -8.848400 0.000000
-248.874893 217.975098 -8.848400 0.000000
-235.391602 217.975098 -8.848400 0.000000
-221.908295 217.975098 -8.848400 0.000000
-208.424988 217.975098 -8.848400 0.000000
-194.941696 217.975098 -8.848400 0.000000
-181.458389 217.975098 -8.848400 0.000000
-167.975098 217.975098 -8.848400 0.000000
-154.491791 217.975098 -8.848400 0.000000
-141.008499 217.975098 -8.848400 0.366938
-127.525192 217.975098 -8.848400 0.380481
-114.041885 217.975098 -8.848400 0.396394
-100.558594 217.975098 -8.848400 0.365032
-87.075287 217.975098 -8.848400 0.337082
-73.591980 217.975098 -8.848400 0.296270
-60.108704 217.975098 -8.848400 0.258535
-46.625397 217.975098 -8.848400 0.242284
-33.142090 217.975098 -8.848400 0.257493
-19.658783 217.975098 -8.848400 0.260245
-6.175476 217.975098 -8.848400 0.266639
7.307800 217.975098 -8.848400 0.285944
20.791107 217.975098 -8.848400 0.320053
34.274414 217.975098 -8.848400 0.340338
47.757721 217.975098 -8.848400 0.000000
61.240997 217.975098 -8.848400 0.385635
74.724304 217.975098 -8.848400 0.393202
88.207611 217.975098 -8.848400 0.395710
101.690918 217.975098 -8.848400 0.368150
115.174225 217.975098 -8.848400 0.000000
128.657501 217.975098 -8.848400 0.279187
142.140808 217.975098 -8.848400 0.263405
155.624115 217.975098 -8.848400 0.256962
169.107422 217.975098 -8.848400 0.237851
182.590698 217.975098 -8.848400 0.219185
196.074036 217.975098 -8.848400 0.000000
209.557312 217.975098 -8.848400 0.000000
223.040588 217.975098 -8.848400 0.000000
236.523926 217.975098 -8.848400 0.000000
250.007202 217.975098 -8.848400 0.000000
263.490540 217.975098 -8.848400 0.000000
276.973816 217.975098 -8.848400 0.000000
290.457092 217.975098 -8.848400 0.000000
303.940430 217.975098 -8.848400 0.000000
317.423706 217.975098 -8.848400 0.000000
330.907043 217.975098 -8.848400 0.000000
344.390320 217.975098 -8.848400 0.000000
-343.257996 204.491791 -8.848400 0.000000
-329.774689 204.491791 -8.848400 0.000000
-316.291382 204.491791 -8.848400 0.000000
-302.808105 204.491791 -8.848400 0.000000
-289.324799 204.491791 -8.848400 0.000000
-275.841492 204.491791 -8.848400 0.000000
-262.358185 204.491791 -8.848400 0.000000
-248.874893 204.491791 -8.848400 0.000000
-235.391602 204.491791 -8.848400 0.000000
-221.908295 204.491791 -8.848400 0.000000
-208.424988 204.491791 -8.848400 0.000000
-194.941696 204.491791 -8.848400 0.000000
-181.458389 204.491791 -8.848400 0.000000
-167.975098 204.491791 -8.848400 0.000000
-154.491791 204.491791 -8.848400 0.000000
-141.008499 204.491791 -8.848400 0.442105
-127.525192 204.491791 -8.848400 0.430004
-114.041885 204.491791 -8.848400 0.419569
-100.558594 204.491791 -8.848400 0.407791
-87.075287 204.491791 -8.848400 0.362598
-73.591980 204.491791 -8.848400 0.309459
-60.108704 204.491791 -8.848400 0.265551
-46.625397 204.491791 -8.848400 0.243303
-33.142090 204.491791 -8.848400 0.245394
-19.658783 204.491791 -8.848400 0.266997
-6.175476 204.491791 -8.848400 0.279119
7.307800 204.491791 -8.848400 0.308906
20.791107 204.491791 -8.848400 0.331007
34.274414 204.491791 -8.848400 0.363212
47.757721 204.491791 -8.848400 0.382937
61.240997 204.491791 -8.848400 0.384633
74.724304 204.491791 -8.848400 0.358308
88.207611 204.491791 -8.848400 0.349560
101.690918 204.491791 -8.848400 0.322821
115.174225 204.491791 -8.848400 0.285771
128.657501 204.491791 -8.848400 0.259154
142.140808 204.491791 -8.848400 0.255697
155.624115 204.491791 -8.848400 0.227499
169.107422 204.491791 -8.848400 0.216410
182.590698 204.491791 -8.848400 0.000000
196.074036 204.491791 -8.848400 0.000000
209.557312 204.491791 -8.848400 0.000000
223.040588 204.491791 -8.848400 0.000000
236.523926 204.491791 -8.848400 0.000000
250.007202 204.491791 -8.848400 0.000000
263.490540 204.491791 -8.848400 0.000000
276.973816 204.491791 -8.848400 0.000000
290.457092 204.491791 -8.848400 0.000000
303.940430 204.491791 -8.848400 0.000000
317.423706 204.491791 -8.848400 0.000000
330.907043 204.491791 -8.848400 0.000000
344.390320 204.491791 -8.848400 0.000000
-343.257996 191.008499 -8.848400 0.000000
-329.774689 191.008499 -8.848400 0.000000
-316.291382 191.008499 -8.848400 0.000000
-302.808105 191.008499 -8.848400 0.000000
-289.324799 191.008499 -8.848400 0.000000
-275.841492 191.008499 -8.848400 0.000000
-262.358185 191.008499 -8.848400 0.000000
-248.874893 191.008499 -8.848400 0.000000
-235.391602 191.008499 -8.848400 0.000000
-221.908295 191.008499 -8.848400 0.000000
-208.424988 191.008499 -8.848400 0.000000
-194.941696 191.008499 -8.848400 0.000000
-181.458389 191.008499 -8.848400 0.000000
-167.975098 191.008499 -8.848400 0.000000
-154.491791 191.008499 -8.848400 0.000000
-141.008499 191.008499 -8.848400 0.499755
-127.525192 191.008499 -8.848400 0.469847
-114.041885 191.008499 -8.848400 0.440739
-100.558594 191.008499 -8.848400 0.435583
-87.075287 191.008499 -8.848400 0.369688
-73.591980 191.008499 -8.848400 0.302146
-60.108704 191.008499 -8.848400 0.258321
-46.625397 191.008499 -8.848400 0.243486
-33.142090 191.008499 -8.848400 0.260430
-19.658783 191.008499 -8.848400 0.267927
-6.175476 191.008499 -8.848400 0.280398
7.307800 191.008499 -8.848400 0.304013
20.791107 191.008499 -8.848400 0.326432
34.274414 191.008499 -8.848400 0.370122
47.757721 191.008499 -8.848400 0.382438
61.240997 191.008499 -8.848400 0.372024
74.724304 191.008499 -8.848400 0.350306
88.207611 191.008499 -8.848400 0.311881
101.690918 191.008499 -8.848400 0.285229
115.174225 191.008499 -8.848400 0.268191
128.657501 191.008499 -8.848400 0.238430
142.140808 191.008499 -8.848400 0.222731
155.624115 191.008499 -8.848400 0.220444
169.107422 191.008499 -8.848400 0.199384
182.590698 191.008499 -8.848400 0.000000
196.074036 191.008499 -8.848400 0.000000
209.557312 191.008499 -8.848400 0.000000
223.040588 191.008499 -8.848400 0.000000
236.523926 191.008499 -8.848400 0.000000
250.007202 191.008499 -8.848400 0.000000
263.490540 191.008499 -8.848400 0.000000
276.973816 191.008499 -8.848400 0.000000
290.457092 191.008499 -8.848400 0.000000
303.940430 191.008499 -8.848400 0.000000
317.423706 191.008499 -8.848400 0.000000
330.907043 191.008499 -8.848400 0.000000
344.390320 191.008499 -8.848400 0.000000
-343.257996 177.525192 -8.848400 0.000000
-329.774689 177.525192 -8.848400 0.000000
-316.291382 177.525192 -8.848400 0.000000
-302.808105 177.525192 -8.848400 0.000000
-289.324799 177.525192 -8.848400 0.000000
-275.841492 177.525192 -8.848400 0.000000
-262.358185 177.525192 -8.848400 0.000000
-248.874893 177.525192 -8.848400 0.000000
-235.391602 177.525192 -8.848400 0.000000
-221.908295 177.525192 -8.848400 0.000000
-208.424988 177.525192 -8.848400 0.000000
-194.941696 177.525192 -8.848400 0.000000
-181.458389 177.525192 -8.848400 0.000000
-167.975098 177.525192 -8.848400 0.000000
-154.491791 177.525192 -8.848400 0.000000
-141.008499 177.525192 -8.848400 0.571413
-127.525192 177.525192 -8.848400 0.514743
-114.041885 177.525192 -8.848400 0.471575
-100.558594 177.525192 -8.848400 0.432924
-87.075287 177.525192 -8.848400 0.369158
-73.591980 177.525192 -8.848400 0.310273
-60.108704 177.525192 -8.848400 0.254303
-46.625397 177.525192 -8.848400 0.259406
-33.142090 177.525192 -8.848400 0.252942
-19.658783 177.525192 -8.848400 0.271515
-6.175476 177.525192 -8.848400 0.275834
7.307800 177.525192 -8.848400 0.280959
20.791107 177.525192 -8.848400 0.300095
34.274414 177.525192 -8.848400 0.340522
47.757721 177.525192 -8.848400 0.364774
61.240997 177.525192 -8.848400 0.356298
74.724304 177.525192 -8.848400 0.317675
88.207611 177.525192 -8.848400 0.289127
101.690918 177.525192 -8.848400 0.249772
115.174225 177.525192 -8.848400 0.225592
128.657501 177.525192 -8.848400 0.207918
142.140808 177.525192 -8.848400 0.208959
155.624115 177.525192 -8.848400 0.213079
169.107422 177.525192 -8.848400 0.000000
182.590698 177.525192 -8.848400 0.000000
196.074036 177.525192 -8.848400 0.000000
209.557312 177.525192 -8.848400 0.000000
223.040588 177.525192 -8.848400 0.000000
236.523926 177.525192 -8.848400 0.000000
250.007202 177.525192 -8.848400 0.000000
263.490540 177.525192 -8.848400 0.000000
276.973816 177.525192 -8.848400 0.000000
290.457092 177.525192 -8.848400 0.000000
303.940430 177.525192 -8.848400 0.000000
317.423706 177.525192 -8.848400 0.000000
330.907043 177.525192 -8.848400 0.000000
344.390320 177.525192 -8.848400 0.000000
-343.257996 164.041885 -8.848400 0.000000
-329.774689 164.041885 -8.848400 0.000000
-316.291382 164.041885 -8.848400 0.000000
-302.808105 164.041885 -8.848400 0.000000
-289.324799 164.041885 -8.848400 0.000000
-275.841492 164.041885 -8.848400 0.000000
-262.358185 164.041885 -8.848400 0.000000
-248.874893 164.041885 -8.848400 0.000000
-235.391602 164.041885 -8.848400 0.000000
-221.908295 164.041885 -8.848400 0.000000
-208.424988 164.041885 -8.848400 0.000000
-194.941696 164.041885 -8.848400 0.000000
-181.458389 164.041885 -8.848400 0.000000
-167.975098 164.041885 -8.848400 0.000000
-154.491791 164.041885 -8.848400 0.000000
-141.008499 164.041885 -8.848400 0.605691
-127.525192 164.041885 -8.848400 0.539246
-114.041885 164.041885 -8.848400 0.468754
-100.558594 164.041885 -8.848400 0.431486
-87.075287 164.041885 -8.848400 0.374307
-73.591980 164.041885 -8.848400 0.317970
-60.108704 164.041885 -8.848400 0.248555
-46.625397 164.041885 -8.848400 0.263597
-33.142090 164.041885 -8.848400 0.254323
-19.658783 164.041885 -8.848400 0.260320
-6.175476 164.041885 -8.848400 0.259682
7.307800 164.041885 -8.848400 0.265106
20.791107 164.041885 -8.848400 0.294211
34.274414 164.041885 -8.848400 0.316721
47.757721 164.041885 -8.848400 0.332445
61.240997 164.041885 -8.848400 0.318238
74.724304 164.041885 -8.848400 0.281823
88.207611 164.041885 -8.848400 0.265492
101.690918 164.041885 -8.848400 0.233659
115.174225 164.041885 -8.848400 0.210180
128.657501 164.041885 -8.848400 0.191486
142.140808 164.041885 -8.848400 0.000000
155.624115 164.041885 -8.848400 0.000000
169.107422 164.041885 -8.848400 0.000000
182.590698 164.041885 -8.848400 0.000000
196.074036 164.041885 -8.848400 0.000000
209.557312 164.041885 -8.848400 0.000000
223.040588 164.041885 -8.848400 0.000000
236.523926 164.041885 -8.848400 0.000000
250.007202 164.041885 -8.848400 0.000000
263.490540 164.041885 -8.848400 0.000000
276.973816 164.041885 -8.848400 0.000000
290.457092 164.041885 -8.848400 0.000000
303.940430 164.041885 -8.848400 0.000000
317.423706 164.041885 -8.848400 0.000000
330.907043 164.041885 -8.848400 0.000000
344.390320 164.041885 -8.848400 0.000000
-343.257996 150.558594 -8.848400 0.000000
-329.774689 150.558594 -8.848400 0.000000
-316.291382 150.558594 -8.848400 0.000000
-302.808105 150.558594 -8.848400 0.000000
-289.324799 150.558594 -8.848400 0.000000
-275.841492 150.558594 -8.848400 0.000000
-262.358185 150.558594 -8.848400 0.000000
-248.874893 150.558594 -8.848400 0.000000
-235.391602 150.558594 -8.848400 0.000000
-221.908295 150.558594 -8.848400 0.000000
-208.424988 150.558594 -8.848400 0.000000
-194.941696 150.558594 -8.848400 0.000000
-181.458389 150.558594 -8.848400 0.000000
-167.975098 150.558594 -8.848400 0.000000
-154.491791 150.558594 -8.848400 0.000000
-141.008499 150.558594 -8.848400 0.561709
-127.525192 150.558594 -8.848400 0.534662
-114.041885 150.558594 -8.848400 0.473599
-100.558594 150.558594 -8.848400 0.404902
-87.075287 150.558594 -8.848400 0.351393
-73.591980 150.558594 -8.848400 0.310281
-60.108704 150.558594 -8.848400 0.267575
-46.625397 150.558594 -8.848400 0.261576
-33.142090 150.558594 -8.848400 0.246812
-19.658783 150.558594 -8.848400 0.246202
-6.175476 150.558594 -8.848400 0.256549
7.307800 150.558594 -8.848400 0.262142
20.791107 150.558594 -8.848400 0.285342
34.274414 150.558594 -8.848400 0.307345
47.757721 150.558594 -8.848400 0.294627
61.240997 150.558594 -8.848400 0.301696
74.724304 150.558594 -8.848400 0.280235
88.207611 150.558594 -8.848400 0.252375
101.690918 150.558594 -8.848400 0.224239
115.174225 150.558594 -8.848400 0.199409
128.657501 150.558594 -8.848400 0.000000
142.140808 150.558594 -8.848400 0.000000
155.624115 150.558594 -8.848400 0.000000
169.107422 150.558594 -8.848400 0.000000
182.590698 150.558594 -8.848400 0.000000
196.074036 150.558594 -8.848400 0.000000
209.557312 150.558594 -8.848400 0.000000
223.040588 150.558594 -8.848400 0.000000
236.523926 150.558594 -8.848400 0.000000
250.007202 150.558594 -8.848400 0.000000
263.490540 150.558594 -8.848400 0.000000
276.973816 150.558594 -8.848400 0.000000
290.457092 150.558594 -8.848400 0.000000
303.940430 150.558594 -8.848400 0.000000
317.423706 150.558594 -8.848400 0.000000
330.907043 150.558594 -8.848400 0.000000
344.390320 150.558594 -8.848400 0.000000
-343.257996 137.075287 -8.848400 0.000000
-329.774689 137.075287 -8.848400 0.000000
-316.291382 137.075287 -8.848400 0.000000
-302.808105 137.075287 -8.848400 0.000000
-289.324799 137.075287 -8.848400 0.000000
-275.841492 137.075287 -8.848400 0.000000
-262.358185 137.075287 -8.848400 0.000000
-248.874893 137.075287 -8.848400 0.000000
-235.391602 137.075287 -8.848400 0.000000
-221.908295 137.075287 -8.848400 0.000000
-208.424988 137.075287 -8.848400 0.000000
-194.941696 137.075287 -8.848400 0.000000
-181.458389 137.075287 -8.848400 0.000000
-167.975098 137.075287 -8.848400 0.000000
-154.491791 137.075287 -8.848400 0.000000
-141.008499 137.075287 -8.848400 0.552562
-127.525192 137.075287 -8.848400 0.523790
-114.041885 137.075287 -8.848400 0.485838
-100.558594 137.075287 -8.848400 0.407167
-87.075287 137.075287 -8.848400 0.360913
-73.591980 137.075287 -8.848400 0.300564
-60.108704 137.075287 -8.848400 0.259657
-46.625397 137.075287 -8.848400 0.247727
-33.142090 137.075287 -8.848400 0.239055
-19.658783 137.075287 -8.848400 0.247151
-6.175476 137.075287 -8.848400 0.258341
7.307800 137.075287 -8.848400 0.251841
20.791107 137.075287 -8.848400 0.270407
34.274414 137.075287 -8.848400 0.286974
47.757721 137.075287 -8.848400 0.275870
61.240997 137.075287 -8.848400 0.290216
74.724304 137.075287 -8.848400 0.266492
88.207611 137.075287 -8.848400 0.240938
101.690918 137.075287 -8.848400 0.000000
115.174225 137.075287 -8.848400 0.000000
128.657501 137.075287 -8.848400 0.000000
142.140808 137.075287 -8.848400 0.000000
155.624115 137.075287 -8.848400 0.000000
169.107422 137.075287 -8.848400 0.000000
182.590698 137.075287 -8.848400 0.000000
196.074036 137.075287 -8.848400 0.000000
209.557312 137.075287 -8.848400 0.000000
223.040588 137.075287 -8.848400 0.000000
236.523926 137.075287 -8.848400 0.000000
250.007202 137.075287 -8.848400 0.000000
263.490540 137.075287 -8.848400 0.000000
276.973816 137.075287 -8.848400 0.000000
290.457092 137.075287 -8.848400 0.000000
303.940430 137.075287 -8.848400 0.000000
317.423706 137.075287 -8.848400 0.000000
330.907043 137.075287 -8.848400 0.000000
344.390320 137.075287 -8.848400 0.000000
-343.257996 123.591980 -8.848400 0.000000
-329.774689 123.591980 -8.848400 0.000000
-316.291382 123.591980 -8.848400 0.000000
-302.808105 123.591980 -8.848400 0.000000
-289.324799 123.591980 -8.848400 0.000000
-275.841492 123.591980 -8.848400 0.000000
-262.358185 123.591980 -8.848400 0.000000
-248.874893 123.591980 -8.848400 0.000000
-235.391602 123.591980 -8.848400 0.000000
-221.908295 123.591980 -8.848400 0.000000
-208.424988 123.591980 -8.848400 0.000000
-194.941696 123.591980 -8.848400 0.000000
-181.458389 123.591980 -8.848400 0.000000
-167.975098 123.591980 -8.848400 0.000000
-154.491791 123.591980 -8.848400 0.000000
-141.008499 123.591980 -8.848400 0.506065
-127.525192 123.591980 -8.848400 0.505547
-114.041885 123.591980 -8.848400 0.472010
-100.558594 123.591980 -8.848400 0.408350
-87.075287 123.591980 -8.848400 0.351958
-73.591980 123.591980 -8.848400 0.306165
-60.108704 123.591980 -8.848400 0.260435
-46.625397 123.591980 -8.848400 0.261530
-33.142090 123.591980 -8.848400 0.242871
-19.658783 123.591980 -8.848400 0.239117
-6.175476 123.591980 -8.848400 0.236608
7.307800 123.591980 -8.848400 0.247969
20.791107 123.591980 -8.848400 0.274429
34.274414 123.591980 -8.848400 0.286425
47.757721 123.591980 -8.848400 0.284370
61.240997 123.591980 -8.848400 0.271813
74.724304 123.591980 -8.848400 0.252348
88.207611 123.591980 -8.848400 0.000000
101.690918 123.591980 -8.848400 0.000000
115.174225 123.591980 -8.848400 0.000000
128.657501 123.591980 -8.848400 0.000000
142.140808 123.591980 -8.848400 0.000000
155.624115 123.591980 -8.848400 0.000000
169.107422 123.591980 -8.848400 0.000000
182.590698 123.591980 -8.848400 0.000000
196.074036 123.591980 -8.848400 0.000000
209.557312 123.591980 -8.848400 0.000000
223.040588 123.591980 -8.848400 0.000000
236.523926 123.591980 -8.848400 0.000000
250.007202 123.591980 -8.848400 0.000000
263.490540 123.591980 -8.848400 0.000000
276.973816 123.591980 -8.848400 0.000000
290.457092 123.591980 -8.848400 0.000000
303.940430 123.591980 -8.848400 0.000000
317.423706 123.591980 -8.848400 0.000000
330.907043 123.591980 -8.848400 0.000000
344.390320 123.591980 -8.848400 0.000000
-343.257996 110.108704 -8.848400 0.000000
-329.774689 110.108704 -8.848400 0.000000
-316.291382 110.108704 -8.848400 0.000000
-302.808105 110.108704 -8.848400 0.000000
-289.324799 110.108704 -8.848400 0.000000
-275.841492 110.108704 -8.848400 0.000000
-262.358185 110.108704 -8.848400 0.000000
-248.874893 110.108704 -8.848400 0.000000
-235.391602 110.108704 -8.848400 0.000000
-221.908295 110.108704 -8.848400 0.000000
-208.424988 110.108704 -8.848400 0.000000
-194.941696 110.108704 -8.848400 0.000000
-181.458389 110.108704 -8.848400 0.000000
-167.975098 110.108704 -8.848400 0.000000
-154.491791 110.108704 -8.848400 0.000000
-141.008499 110.108704 -8.848400 0.477324
-127.525192 110.108704 -8.848400 0.474159
-114.041885 110.108704 -8.848400 0.438699
-100.558594 110.108704 -8.848400 0.403327
-87.075287 110.108704 -8.848400 0.363986
-73.591980 110.108704 -8.848400 0.322505
-60.108704 110.108704 -8.848400 0.280739
-46.625397 110.108704 -8.848400 0.270571
-33.142090 110.108704 -8.848400 0.250779
-19.658783 110.108704 -8.848400 0.242177
-6.175476 110.108704 -8.848400 0.245240
7.307800 110.108704 -8.848400 0.253599
20.791107 110.108704 -8.848400 0.288327
34.274414 110.108704 -8.848400 0.290071
47.757721 110.108704 -8.848400 0.276766
61.240997 110.108704 -8.848400 0.266200
74.724304 110.108704 -8.848400 0.000000
88.207611 110.108704 -8.848400 0.000000
101.690918 110.108704 -8.848400 0.000000
115.174225 110.108704 -8.848400 0.000000
128.657501 110.108704 -8.848400 0.000000
142.140808 110.108704 -8.848400 0.000000
155.624115 110.108704 -8.848400 0.000000
169.107422 110.108704 -8.848400 0.000000
182.590698 110.108704 -8.848400 0.000000
196.074036 110.108704 -8.848400 0.000000
209.557312 110.108704 -8.848400 0.000000
223.040588 110.108704 -8.848400 0.000000
236.523926 110.108704 -8.848400 0.000000
250.007202 110.108704 -8.848400 0.000000
263.490540 110.108704 -8.848400 0.000000
276.973816 110.108704 -8.848400 0.000000
290.457092 110.108704 -8.848400 0.000000
303.940430 110.108704 -8.848400 0.000000
317.423706 110.108704 -8.848400 0.000000
330.907043 110.108704 -8.848400 0.000000
344.390320 110.108704 -8.848400 0.000000
-343.257996 96.625397 -8.848400 0.000000
-329.774689 96.625397 -8.848400 0.000000
-316.291382 96.625397 -8.848400 0.000000
-302.808105 96.625397 -8.848400 0.000000
-289.324799 96.625397 -8.848400 0.000000
-275.841492 96.625397 -8.848400 0.000000
-262.358185 96.625397 -8.848400 0.000000
-248.874893 96.625397 -8.848400 0.000000
-235.391602 96.625397 -8.848400 0.000000
-221.908295 96.625397 -8.848400 0.000000
-208.424988 96.625397 -8.848400 0.000000
-194.941696 96.625397 -8.848400 0.000000
-181.458389 96.625397 -8.848400 0.000000
-167.975098 96.625397 -8.848400 0.000000
-154.491791 96.625397 -8.848400 0.000000
-141.008499 96.625397 -8.848400 0.447501
-127.525192 96.625397 -8.848400 0.465790
-114.041885 96.625397 -8.848400 0.418701
-100.558594 96.625397 -8.848400 0.405490
-87.075287 96.625397 -8.848400 0.353781
-73.591980 96.625397 -8.848400 0.330674
-60.108704 96.625397 -8.848400 0.290640
-46.625397 96.625397 -8.848400 0.272433
-33.142090 96.625397 -8.848400 0.263831
-19.658783 96.625397 -8.848400 0.256864
-6.175476 96.625397 -8.848400 0.259622
7.307800 96.625397 -8.848400 0.263887
20.791107 96.625397 -8.848400 0.288945
34.274414 96.625397 -8.848400 0.275663
47.757721 96.625397 -8.848400 0.261428
61.240997 96.625397 -8.848400 0.244039
74.724304 96.625397 -8.848400 0.000000
88.207611 96.625397 -8.848400 0.000000
101.690918 96.625397 -8.848400 0.000000
115.174225 96.625397 -8.848400 0.000000
128.657501 96.625397 -8.848400 0.000000
142.140808 96.625397 -8.848400 0.000000
155.624115 96.625397 -8.848400 0.000000
169.107422 96.625397 -8.848400 0.000000
182.590698 96.625397 -8.848400 0.000000
196.074036 96.625397 -8.848400 0.000000
209.557312 96.625397 -8.848400 0.000000
223.040588 96.625397 -8.848400 0.000000
236.523926 96.625397 -8.848400 0.000000
250.007202 96.625397 -8.848400 0.000000
263.490540 96.625397 -8.848400 0.000000
276.973816 96.625397 -8.848400 0.000000
290.457092 96.625397 -8.848400 0.000000
303.940430 96.625397 -8.848400 0.000000
317.423706 96.625397 -8.848400 0.000000
330.907043 96.625397 -8.848400 0.000000
344.390320 96.625397 -8.848400 0.000000
-343.257996 83.142090 -8.848400 0.000000
-329.774689 83.142090 -8.848400 0.000000
-316.291382 83.142090 -8.848400 0.000000
-302.808105 83.142090 -8.848400 0.000000
-289.324799 83.142090 -8.848400 0.000000
-275.841492 83.142090 -8.848400 0.000000
-262.358185 83.142090 -8.848400 0.000000
-248.874893 83.142090 -8.848400 0.000000
-235.391602 83.142090 -8.848400 0.000000
-221.908295 83.142090 -8.848400 0.000000
-208.424988 83.142090 -8.848400 0.000000
-194.941696 83.142090 -8.848400 0.000000
-181.458389 83.142090 -8.848400 0.000000
-167.975098 83.142090 -8.848400 0.000000
-154.491791 83.142090 -8.848400 0.000000
-141.008499 83.142090 -8.848400 0.449513
-127.525192 83.142090 -8.848400 0.437965
-114.041885 83.142090 -8.848400 0.409176
-100.558594 83.142090 -8.848400 0.403505
-87.075287 83.142090 -8.848400 0.375455
-73.591980 83.142090 -8.848400 0.328840
-60.108704 83.142090 -8.848400 0.306459
-46.625397 83.142090 -8.848400 0.278966
-33.142090 83.142090 -8.848400 0.282591
-19.658783 83.142090 -8.848400 0.286242
-6.175476 83.142090 -8.848400 0.277353
7.307800 83.142090 -8.848400 0.295491
20.791107 83.142090 -8.848400 0.293087
34.274414 83.142090 -8.848400 0.275737
47.757721 83.142090 -8.848400 0.261270
61.240997 83.142090 -8.848400 0.000000
74.724304 83.142090 -8.848400 0.000000
88.207611 83.142090 -8.848400 0.000000
101.690918 83.142090 -8.848400 0.000000
115.174225 83.142090 -8.848400 0.000000
128.657501 83.142090 -8.848400 0.000000
142.140808 83.142090 -8.848400 0.000000
155.624115 83.142090 -8.848400 0.000000
169.107422 83.142090 -8.848400 0.000000
182.590698 83.142090 -8.848400 0.000000
196.074036 83.142090 -8.848400 0.000000
209.557312 83.142090 -8.848400 0.000000
223.040588 83.142090 -8.848400 0.000000
236.523926 83.142090 -8.848400 0.000000
250.007202 83.142090 -8.848400 0.000000
263.490540 83.142090 -8.848400 0.000000
276.973816 83.142090 -8.848400 0.000000
290.457092 83.142090 -8.848400 0.000000
303.940430 83.142090 -8.848400 0.000000
317.423706 83.142090 -8.848400 0.000000
330.907043 83.142090 -8.848400 0.000000
344.390320 83.142090 -8.848400 0.000000
-343.257996 69.658783 -8.848400 0.000000
-329.774689 69.658783 -8.848400 0.000000
-316.291382 69.658783 -8.848400 0.000000
-302.808105 69.658783 -8.848400 0.000000
-289.324799 69.658783 -8.848400 0.000000
-275.841492 69.658783 -8.848400 0.000000
-262.358185 69.658783 -8.848400 0.000000
-248.874893 69.658783 -8.848400 0.000000
-235.391602 69.658783 -8.848400 0.000000
-221.908295 69.658783 -8.848400 0.000000
-208.424988 69.658783 -8.848400 0.000000
-194.941696 69.658783 -8.848400 0.000000
-181.458389 69.658783 -8.848400 0.000000
-167.975098 69.658783 -8.848400 0.000000
-154.491791 69.658783 -8.848400 0.000000
-141.008499 69.658783 -8.848400 0.450806
-127.525192 69.658783 -8.848400 0.425069
-114.041885 69.658783 -8.848400 0.420821
-100.558594 69.658783 -8.848400 0.408870
-87.075287 69.658783 -8.848400 0.367077
-73.591980 69.658783 -8.848400 0.335979
-60.108704 69.658783 -8.848400 0.291499
-46.625397 69.658783 -8.848400 0.285580
-33.142090 69.658783 -8.848400 0.300483
-19.658783 69.658783 -8.848400 0.306482
-6.175476 69.658783 -8.848400 0.314306
7.307800 69.658783 -8.848400 0.343143
20.791107 69.658783 -8.848400 0.310158
34.274414 69.658783 -8.848400 0.265770
47.757721 69.658783 -8.848400 0.241625
61.240997 69.658783 -8.848400 0.000000
74.724304 69.658783 -8.848400 0.000000
88.207611 69.658783 -8.848400 0.000000
101.690918 69.658783 -8.848400 0.000000
115.174225 69.658783 -8.848400 0.000000
128.657501 69.658783 -8.848400 0.000000
142.140808 69.658783 -8.848400 0.000000
155.624115 69.658783 -8.848400 0.000000
169.107422 69.658783 -8.848400 0.000000
182.590698 69.658783 -8.848400 0.000000
196.074036 69.658783 -8.848400 0.000000
209.557312 69.658783 -8.848400 0.000000
223.040588 69.658783 -8.848400 0.000000
236.523926 69.658783 -8.848400 0.000000
250.007202 69.658783 -8.848400 0.000000
263.490540 69.658783 -8.848400 0.000000
276.973816 69.658783 -8.848400 0.000000
290.457092 69.658783 -8.848400 0.000000
303.940430 69.658783 -8.848400 0.000000
317.423706 69.658783 -8.848400 0.000000
330.907043 69.658783 -8.848400 0.000000
344.390320 69.658783 -8.848400 0.000000
-343.257996 56.175476 -8.848400 0.000000
-329.774689 56.175476 -8.848400 0.000000
-316.291382 56.175476 -8.848400 0.000000
-302.808105 56.175476 -8.848400 0.000000
-289.324799 56.175476 -8.848400 0.000000
-275.841492 56.175476 -8.848400 0.000000
-262.358185 56.175476 -8.848400 0.000000
-248.874893 56.175476 -8.848400 0.000000
-235.391602 56.175476 -8.848400 0.000000
-221.908295 56.175476 -8.848400 0.000000
-208.424988 56.175476 -8.848400 0.000000
-194.941696 56.175476 -8.848400 0.000000
-181.458389 56.175476 -8.848400 0.000000
-167.975098 56.175476 -8.848400 0.000000
-154.491791 56.175476 -8.848400 0.000000
-141.008499 56.175476 -8.848400 0.453039
-127.525192 56.175476 -8.848400 0.457808
-114.041885 56.175476 -8.848400 0.443401
-100.558594 56.175476 -8.848400 0.420309
-87.075287 56.175476 -8.848400 0.385167
-73.591980 56.175476 -8.848400 0.343411
-60.108704 56.175476 -8.848400 0.330004
-46.625397 56.175476 -8.848400 0.303991
-33.142090 56.175476 -8.848400 0.323099
-19.658783 56.175476 -8.848400 0.330681
-6.175476 56.175476 -8.848400 0.352120
7.307800 56.175476 -8.848400 0.343583
20.791107 56.175476 -8.848400 0.319963
34.274414 56.175476 -8.848400 0.276601
47.757721 56.175476 -8.848400 0.244832
61.240997 56.175476 -8.848400 0.000000
74.724304 56.175476 -8.848400 0.000000
88.207611 56.175476 -8.848400 0.000000
101.690918 56.175476 -8.848400 0.000000
115.174225 56.175476 -8.848400 0.000000
128.657501 56.175476 -8.848400 0.000000
142.140808 56.175476 -8.848400 0.000000
155.624115 56.175476 -8.848400 0.000000
169.107422 56.175476 -8.848400 0.000000
182.590698 56.175476 -8.848400 0.000000
196.074036 56.175476 -8.848400 0.000000
209.557312 56.175476 -8.848400 0.000000
223.040588 56.175476 -8.848400 0.000000
236.523926 56.175476 -8.848400 0.000000
250.007202 56.175476 -8.848400 0.000000
263.490540 56.175476 -8.848400 0.000000
276.973816 56.175476 -8.848400 0.000000
290.457092 56.175476 -8.848400 0.000000
303.940430 56.175476 -8.848400 0.000000
317.423706 56.175476 -8.848400 0.000000
330.907043 56.175476 -8.848400 0.000000
344.390320 56.175476 -8.848400 0.000000
-343.257996 42.692200 -8.848400 0.000000
-329.774689 42.692200 -8.848400 0.000000
-316.291382 42.692200 -8.848400 0.000000
-302.808105 42.692200 -8.848400 0.000000
-289.324799 42.692200 -8.848400 0.000000
-275.841492 42.692200 -8.848400 0.000000
-262.358185 42.692200 -8.848400 0.000000
-248.874893 42.692200 -8.848400 0.000000
-235.391602 42.692200 -8.848400 0.000000
-221.908295 42.692200 -8.848400 0.000000
-208.424988 42.692200 -8.848400 0.000000
-194.941696 42.692200 -8.848400 0.000000
-181.458389 42.692200 -8.848400 0.000000
-167.975098 42.692200 -8.848400 0.000000
-154.491791 42.692200 -8.848400 0.000000
-141.008499 42.692200 -8.848400 0.466083
-127.525192 42.692200 -8.848400 0.454491
-114.041885 42.692200 -8.848400 0.444585
-100.558594 42.692200 -8.848400 0.421266
-87.075287 42.692200 -8.848400 0.395757
-73.591980 42.692200 -8.848400 0.370623
-60.108704 42.692200 -8.848400 0.370969
-46.625397 42.692200 -8.848400 0.323934
-33.142090 42.692200 -8.848400 0.353305
-19.658783 42.692200 -8.848400 0.368317
-6.175476 42.692200 -8.848400 0.393875
7.307800 42.692200 -8.848400 0.358785
20.791107 42.692200 -8.848400 0.322401
34.274414 42.692200 -8.848400 0.287372
47.757721 42.692200 -8.848400 0.249846
61.240997 42.692200 -8.848400 0.000000
74.724304 42.692200 -8.848400 0.000000
88.207611 42.692200 -8.848400 0.000000
101.690918 42.692200 -8.848400 0.000000
115.174225 42.692200 -8.848400 0.000000
128.657501 42.692200 -8.848400 0.000000
142.140808 42.692200 -8.848400 0.000000
155.624115 42.692200 -8.848400 0.000000
169.107422 42.692200 -8.848400 0.000000
182.590698 42.692200 -8.848400 0.000000
196.074036 42.692200 -8.848400 0.000000
209.557312 42.692200 -8.848400 0.000000
223.040588 42.692200 -8.848400 0.000000
236.523926 42.692200 -8.848400 0.000000
250.007202 42.692200 -8.848400 0.000000
263.490540 42.692200 -8.848400 0.000000
276.973816 42.692200 -8.848400 0.000000
290.457092 42.692200 -8.848400 0.000000
303.940430 42.692200 -8.848400 0.000000
317.423706 42.692200 -8.848400 0.000000
330.907043 42.692200 -8.848400 0.000000
344.390320 42.692200 -8.848400 0.000000
-343.257996 29.208893 -8.848400 0.000000
-329.774689 29.208893 -8.848400 0.000000
-316.291382 29.208893 -8.848400 0.000000
-302.808105 29.208893 -8.848400 0.000000
-289.324799 29.208893 -8.848400 0.000000
-275.841492 29.208893 -8.848400 0.000000
-262.358185 29.208893 -8.848400 0.000000
-248.874893 29.208893 -8.848400 0.000000
-235.391602 29.208893 -8.848400 0.000000
-221.908295 29.208893 -8.848400 0.000000
-208.424988 29.208893 -8.848400 0.000000
-194.941696 29.208893 -8.848400 0.000000
-181.458389 29.208893 -8.848400 0.000000
-167.975098 29.208893 -8.848400 0.000000
-154.491791 29.208893 -8.848400 0.459897
-141.008499 29.208893 -8.848400 0.476221
-127.525192 29.208893 -8.848400 0.480153
-114.041885 29.208893 -8.848400 0.441158
-100.558594 29.208893 -8.848400 0.390409
-87.075287 29.208893 -8.848400 0.399986
-73.591980 29.208893 -8.848400 0.394701
-60.108704 29.208893 -8.848400 0.396149
-46.625397 29.208893 -8.848400 0.350637
-33.142090 29.208893 -8.848400 0.383009
-19.658783 29.208893 -8.848400 0.409537
-6.175476 29.208893 -8.848400 0.421022
7.307800 29.208893 -8.848400 0.378533
20.791107 29.208893 -8.848400 0.350303
34.274414 29.208893 -8.848400 0.297586
47.757721 29.208893 -8.848400 0.254656
61.240997 29.208893 -8.848400 0.000000
74.724304 29.208893 -8.848400 0.000000
88.207611 29.208893 -8.848400 0.000000
101.690918 29.208893 -8.848400 0.000000
115.174225 29.208893 -8.848400 0.000000
128.657501 29.208893 -8.848400 0.000000
142.140808 29.208893 -8.848400 0.000000
155.624115 29.208893 -8.848400 0.000000
169.107422 29.208893 -8.848400 0.000000
182.590698 29.208893 -8.848400 0.000000
196.074036 29.208893 -8.848400 0.000000
209.557312 29.208893 -8.848400 0.000000
223.040588 29.208893 -8.848400 0.000000
236.523926 29.208893 -8.848400 0.000000
250.007202 29.208893 -8.848400 0.000000
263.490540 29.208893 -8.848400 0.000000
276.973816 29.208893 -8.848400 0.000000
290.457092 29.208893 -8.848400 0.000000
303.940430 29.208893 -8.848400 0.000000
317.423706 29.208893 -8.848400 0.000000
330.907043 29.208893 -8.848400 0.000000
344.390320 29.208893 -8.848400 0.000000
-343.257996 15.725586 -8.848400 0.000000
-329.774689 15.725586 -8.848400 0.000000
-316.291382 15.725586 -8.848400 0.000000
-302.808105 15.725586 -8.848400 0.000000
-289.324799 15.725586 -8.848400 0.000000
-275.841492 15.725586 -8.848400 0.000000
-262.358185 15.725586 -8.848400 0.000000
-248.874893 15.725586 -8.848400 0.000000
-235.391602 15.725586 -8.848400 0.000000
-221.908295 15.725586 -8.848400 0.000000
-208.424988 15.725586 -8.848400 0.000000
-194.941696 15.725586 -8.848400 0.000000
-181.458389 15.725586 -8.848400 0.000000
-167.975098 15.725586 -8.848400 0.000000
-154.491791 15.725586 -8.848400 0.485233
-141.008499 15.725586 -8.848400 0.485929
-127.525192 15.725586 -8.848400 0.513183
-114.041885 15.725586 -8.848400 0.463590
-100.558594 15.725586 -8.848400 0.413971
-87.075287 15.725586 -8.848400 0.427067
-73.591980 15.725586 -8.848400 0.430611
-60.108704 15.725586 -8.848400 0.422882
-46.625397 15.725586 -8.848400 0.389312
-33.142090 15.725586 -8.848400 0.416816
-19.658783 15.725586 -8.848400 0.453023
-6.175476 15.725586 -8.848400 0.427476
7.307800 15.725586 -8.848400 0.394313
20.791107 15.725586 -8.848400 0.353903
34.274414 15.725586 -8.848400 0.304055
47.757721 15.725586 -8.848400 0.247269
61.240997 15.725586 -8.848400 0.207145
74.724304 15.725586 -8.848400 0.000000
88.207611 15.725586 -8.848400 0.000000
101.690918 15.725586 -8.848400 0.000000
115.174225 15.725586 -8.848400 0.000000
128.657501 15.725586 -8.848400 0.000000
142.140808 15.725586 -8.848400 0.000000
155.624115 15.725586 -8.848400 0.000000
169.107422 15.725586 -8.848400 0.000000
182.590698 15.725586 -8.848400 0.000000
196.074036 15.725586 -8.848400 0.000000
209.557312 15.725586 -8.848400 0.000000
223.040588 15.725586 -8.848400 0.000000
236.523926 15.725586 -8.848400 0.000000
250.007202 15.725586 -8.848400 0.000000
263.490540 15.725586 -8.848400 0.000000
276.973816 15.725586 -8.848400 0.000000
290.457092 15.725586 -8.848400 0.000000
303.940430 15.725586 -8.848400 0.000000
317.423706 15.725586 -8.848400 0.000000
330.907043 15.725586 -8.848400 0.000000
344.390320 15.725586 -8.848400 0.000000
-343.257996 2.242279 -8.848400 0.000000
-329.774689 2.242279 -8.848400 0.000000
-316.291382 2.242279 -8.848400 0.000000
-302.808105 2.242279 -8.848400 0.000000
-289.324799 2.242279 -8.848400 0.000000
-275.841492 2.242279 -8.848400 0.000000
-262.358185 2.242279 -8.848400 0.000000
-248.874893 2.242279 -8.848400 0.000000
-235.391602 2.242279 -8.848400 0.000000
-221.908295 2.242279 -8.848400 0.000000
-208.424988 2.242279 -8.848400 0.000000
-194.941696 2.242279 -8.848400 0.000000
-181.458389 2.242279 -8.848400 0.000000
-167.975098 2.242279 -8.848400 0.000000
-154.491791 2.242279 -8.848400 0.506154
-141.008499 2.242279 -8.848400 0.494929
-127.525192 2.242279 -8.848400 0.460158
-114.041885 2.242279 -8.848400 0.452360
-100.558594 2.242279 -8.848400 0.442263
-87.075287 2.242279 -8.848400 0.441898
-73.591980 2.242279 -8.848400 0.461522
-60.108704 2.242279 -8.848400 0.482527
-46.625397 2.242279 -8.848400 0.458886
-33.142090 2.242279 -8.848400 0.462251
-19.658783 2.242279 -8.848400 0.512300
-6.175476 2.242279 -8.848400 0.474652
7.307800 2.242279 -8.848400 0.428242
20.791107 2.242279 -8.848400 0.368616
34.274414 2.242279 -8.848400 0.308296
47.757721 2.242279 -8.848400 0.254818
61.240997 2.242279 -8.848400 0.000000
74.724304 2.242279 -8.848400 0.000000
88.207611 2.242279 -8.848400 0.000000
101.690918 2.242279 -8.848400 0.000000
115.174225 2.242279 -8.848400 0.000000
128.657501 2.242279 -8.848400 0.000000
142.140808 2.242279 -8.848400 0.000000
155.624115 2.242279 -8.848400 0.000000
169.107422 2.242279 -8.848400 0.000000
182.590698 2.242279 -8.848400 0.000000
196.074036 2.242279 -8.848400 0.000000
209.557312 2.242279 -8.848400 0.000000
223.040588 2.242279 -8.848400 0.000000
236.523926 2.242279 -8.848400 0.000000
250.007202 2.242279 -8.848400 0.000000
263.490540 2.242279 -8.848400 0.000000
276.973816 2.242279 -8.848400 0.000000
290.457092 2.242279 -8.848400 0.000000
303.940430 2.242279 -8.848400 0.000000
317.423706 2.242279 -8.848400 0.000000
330.907043 2.242279 -8.848400 0.000000
344.390320 2.242279 -8.848400 0.000000
-343.257996 -11.240997 -8.848400 0.000000
-329.774689 -11.240997 -8.848400 0.000000
-316.291382 -11.240997 -8.848400 0.000000
-302.808105 -11.240997 -8.848400 0.000000
-289.324799 -11.240997 -8.848400 0.000000
-275.841492 -11.240997 -8.848400 0.000000
-262.358185 -11.240997 -8.848400 0.000000
-248.874893 -11.240997 -8.848400 0.000000
-235.391602 -11.240997 -8.848400 0.000000
-221.908295 -11.240997 -8.848400 0.000000
-208.424988 -11.240997 -8.848400 0.000000
-194.941696 -11.240997 -8.848400 0.000000
-181.458389 -11.240997 -8.848400 0.000000
-167.975098 -11.240997 -8.848400 0.525354
-154.491791 -11.240997 -8.848400 0.522194
-141.008499 -11.240997 -8.848400 0.506808
-127.525192 -11.240997 -8.848400 0.481631
-114.041885 -11.240997 -8.848400 0.455457
-100.558594 -11.240997 -8.848400 0.442512
-87.075287 -11.240997 -8.848400 0.459439
-73.591980 -11.240997 -8.848400 0.493495
-60.108704 -11.240997 -8.848400 0.500748
-46.625397 -11.240997 -8.848400 0.000000
-33.142090 -11.240997 -8.848400 0.000000
-19.658783 -11.240997 -8.848400 0.000000
-6.175476 -11.240997 -8.848400 0.000000
7.307800 -11.240997 -8.848400 0.473982
20.791107 -11.240997 -8.848400 0.382702
34.274414 -11.240997 -8.848400 0.325850
47.757721 -11.240997 -8.848400 0.000000
61.240997 -11.240997 -8.848400 0.000000
74.724304 -11.240997 -8.848400 0.000000
88.207611 -11.240997 -8.848400 0.000000
101.690918 -11.240997 -8.848400 0.000000
115.174225 -11.240997 -8.848400 0.000000
128.657501 -11.240997 -8.848400 0.000000
142.140808 -11.240997 -8.848400 0.000000
155.624115 -11.240997 -8.848400 0.000000
169.107422 -11.240997 -8.848400 0.000000
182.590698 -11.240997 -8.848400 0.000000
196.074036 -11.240997 -8.848400 0.000000
209.557312 -11.240997 -8.848400 0.000000
223.040588 -11.240997 -8.848400 0.000000
236.523926 -11.240997 -8.848400 0.000000
250.007202 -11.240997 -8.848400 0.000000
263.490540 -11.240997 -8.848400 0.000000
276.973816 -11.240997 -8.848400 0.000000
290.457092 -11.240997 -8.848400 0.000000
303.940430 -11.240997 -8.848400 0.000000
317.423706 -11.240997 -8.848400 0.000000
330.907043 -11.240997 -8.848400 0.000000
344.390320 -11.240997 -8.848400 0.000000
-343.257996 -24.724304 -8.848400 0.000000
-329.774689 -24.724304 -8.848400 0.000000
-316.291382 -24.724304 -8.848400 0.000000
-302.808105 -24.724304 -8.848400 0.000000
-289.324799 -24.724304 -8.848400 0.000000
-275.841492 -24.724304 -8.848400 0.000000
-262.358185 -24.724304 -8.848400 0.000000
-248.874893 -24.724304 -8.848400 0.000000
-235.391602 -24.724304 -8.848400 0.000000
-221.908295 -24.724304 -8.848400 0.000000
-208.424988 -24.724304 -8.848400 0.000000
-194.941696 -24.724304 -8.848400 0.000000
-181.458389 -24.724304 -8.848400 0.000000
-167.975098 -24.724304 -8.848400 0.000000
-154.491791 -24.724304 -8.848400 0.563288
-141.008499 -24.724304 -8.848400 0.520835
-127.525192 -24.724304 -8.848400 0.468510
-114.041885 -24.724304 -8.848400 0.434970
-100.558594 -24.724304 -8.848400 0.429239
-87.075287 -24.724304 -8.848400 0.478478
-73.591980 -24.724304 -8.848400 0.495453
-60.108704 -24.724304 -8.848400 0.000000
-46.625397 -24.724304 -8.848400 0.000000
-33.142090 -24.724304 -8.848400 0.000000
-19.658783 -24.724304 -8.848400 0.000000
-6.175476 -24.724304 -8.848400 0.000000
7.307800 -24.724304 -8.848400 0.000000
20.791107 -24.724304 -8.848400 0.371721
34.274414 -24.724304 -8.848400 0.314470
47.757721 -24.724304 -8.848400 0.000000
61.240997 -24.724304 -8.848400 0.000000
74.724304 -24.724304 -8.848400 0.000000
88.207611 -24.724304 -8.848400 0.000000
101.690918 -24.724304 -8.848400 0.000000
115.174225 -24.724304 -8.848400 0.000000
128.657501 -24.724304 -8.848400 0.000000
142.140808 -24.724304 -8.848400 0.000000
155.624115 -24.724304 -8.848400 0.000000
169.107422 -24.724304 -8.848400 0.000000
182.590698 -24.724304 -8.848400 0.000000
196.074036 -24.724304 -8.848400 0.000000
209.557312 -24.724304 -8.848400 0.000000
223.040588 -24.724304 -8.848400 0.000000
236.523926 -24.724304 -8.848400 0.000000
250.007202 -24.724304 -8.848400 0.000000
263.490540 -24.724304 -8.848400 0.000000
276.973816 -24.724304 -8.848400 0.000000
290.457092 -24.724304 -8.848400 0.000000
303.940430 -24.724304 -8.848400 0.000000
317.423706 -24.724304 -8.848400 0.000000
330.907043 -24.724304 -8.848400 0.000000
344.390320 -24.724304 -8.848400 0.000000
-343.257996 -38.207611 -8.848400 0.000000
-329.774689 -38.207611 -8.848400 0.000000
-316.291382 -38.207611 -8.848400 0.000000
-302.808105 -38.207611 -8.848400 0.000000
-289.324799 -38.207611 -8.848400 0.000000
-275.841492 -38.207611 -8.848400 0.000000
-262.358185 -38.207611 -8.848400 0.000000
-248.874893 -38.207611 -8.848400 0.000000
-235.391602 -38.207611 -8.848400 0.000000
-221.908295 -38.207611 -8.848400 0.000000
-208.424988 -38.207611 -8.848400 0.000000
-194.941696 -38.207611 -8.848400 0.000000
-181.458389 -38.207611 -8.848400 0.000000
-167.975098 -38.207611 -8.848400 0.566743
-154.491791 -38.207611 -8.848400 0.560664
-141.008499 -38.207611 -8.848400 0.505924
-127.525192 -38.207611 -8.848400 0.468356
-114.041885 -38.207611 -8.848400 0.459645
-100.558594 -38.207611 -8.848400 0.455198
-87.075287 -38.207611 -8.848400 0.468182
-73.591980 -38.207611 -8.848400 0.493493
-60.108704 -38.207611 -8.848400 0.501008
-46.625397 -38.207611 -8.848400 0.508268
-33.142090 -38.207611 -8.848400 0.000000
-19.658783 -38.207611 -8.848400 0.000000
-6.175476 -38.207611 -8.848400 0.476579
7.307800 -38.207611 -8.848400 0.433281
20.791107 -38.207611 -8.848400 0.354045
34.274414 -38.207611 -8.848400 0.000000
47.757721 -38.207611 -8.848400 0.000000
61.240997 -38.207611 -8.848400 0.000000
74.724304 -38.207611 -8.848400 0.000000
88.207611 -38.207611 -8.848400 0.000000
101.690918 -38.207611 -8.848400 0.000000
115.174225 -38.207611 -8.848400 0.000000
128.657501 -38.207611 -8.848400 0.000000
142.140808 -38.207611 -8.848400 0.000000
155.624115 -38.207611 -8.848400 0.000000
169.107422 -38.207611 -8.848400 0.000000
182.590698 -38.207611 -8.848400 0.000000
196.074036 -38.207611 -8.848400 0.000000
209.557312 -38.207611 -8.848400 0.000000
223.040588 -38.207611 -8.848400 0.000000
236.523926 -38.207611 -8.848400 0.000000
250.007202 -38.207611 -8.848400 0.000000
263.490540 -38.207611 -8.848400 0.000000
276.973816 -38.207611 -8.848400 0.000000
290.457092 -38.207611 -8.848400 0.000000
303.940430 -38.207611 -8.848400 0.000000
317.423706 -38.207611 -8.848400 0.000000
330.907043 -38.207611 -8.848400 0.000000
344.390320 -38.207611 -8.848400 0.000000
-343.257996 -51.690918 -8.848400 0.000000
-329.774689 -51.690918 -8.848400 0.000000
-316.291382 -51.690918 -8.848400 0.000000
-302.808105 -51.690918 -8.848400 0.000000
-289.324799 -51.690918 -8.848400 0.000000
-275.841492 -51.690918 -8.848400 0.000000
-262.358185 -51.690918 -8.848400 0.000000
-248.874893 -51.690918 -8.848400 0.000000
-235.391602 -51.690918 -8.848400 0.000000
-221.908295 -51.690918 -8.848400 0.000000
-208.424988 -51.690918 -8.848400 0.000000
-194.941696 -51.690918 -8.848400 0.000000
-181.458389 -51.690918 -8.848400 0.000000
-167.975098 -51.690918 -8.848400 0.000000
-154.491791 -51.690918 -8.848400 0.547592
-141.008499 -51.690918 -8.848400 0.492533
-127.525192 -51.690918 -8.848400 0.000000
-114.041885 -51.690918 -8.848400 0.472439
-100.558594 -51.690918 -8.848400 0.472131
-87.075287 -51.690918 -8.848400 0.000000
-73.591980 -51.690918 -8.848400 0.523721
-60.108704 -51.690918 -8.848400 0.490756
-46.625397 -51.690918 -8.848400 0.473991
-33.142090 -51.690918 -8.848400 0.448672
-19.658783 -51.690918 -8.848400 0.456971
-6.175476 -51.690918 -8.848400 0.433147
7.307800 -51.690918 -8.848400 0.382184
20.791107 -51.690918 -8.848400 0.309454
34.274414 -51.690918 -8.848400 0.000000
47.757721 -51.690918 -8.848400 0.000000
61.240997 -51.690918 -8.848400 0.000000
74.724304 -51.690918 -8.848400 0.000000
88.207611 -51.690918 -8.848400 0.000000
101.690918 -51.690918 -8.848400 0.000000
115.174225 -51.690918 -8.848400 0.000000
128.657501 -51.690918 -8.848400 0.000000
142.140808 -51.690918 -8.848400 0.000000
155.624115 -51.690918 -8.848400 0.000000
169.107422 -51.690918 -8.848400 0.000000
182.590698 -51.690918 -8.848400 0.000000
196.074036 -51.690918 -8.848400 0.000000
209.557312 -51.690918 -8.848400 0.000000
223.040588 -51.690918 -8.848400 0.000000
236.523926 -51.690918 -8.848400 0.000000
250.007202 -51.690918 -8.848400 0.000000
263.490540 -51.690918 -8.848400 0.000000
276.973816 -51.690918 -8.848400 0.000000
290.457092 -51.690918 -8.848400 0.000000
303.940430 -51.690918 -8.848400 0.000000
317.423706 -51.690918 -8.848400 0.000000
330.907043 -51.690918 -8.848400 0.000000
344.390320 -51.690918 -8.848400 0.000000
-343.257996 -65.174225 -8.848400 0.000000
-329.774689 -65.174225 -8.848400 0.000000
-316.291382 -65.174225 -8.848400 0.000000
-302.808105 -65.174225 -8.848400 0.000000
-289.324799 -65.174225 -8.848400 0.000000
-275.841492 -65.174225 -8.848400 0.000000
-262.358185 -65.174225 -8.848400 0.000000
-248.874893 -65.174225 -8.848400 0.000000
-235.391602 -65.174225 -8.848400 0.000000
-221.908295 -65.174225 -8.848400 0.000000
-208.424988 -65.174225 -8.848400 0.000000
-194.941696 -65.174225 -8.848400 0.000000
-181.458389 -65.174225 -8.848400 0.000000
-167.975098 -65.174225 -8.848400 0.000000
-154.491791 -65.174225 -8.848400 0.493096
-141.008499 -65.174225 -8.848400 0.471950
-127.525192 -65.174225 -8.848400 0.495779
-114.041885 -65.174225 -8.848400 0.484529
-100.558594 -65.174225 -8.848400 0.499644
-87.075287 -65.174225 -8.848400 0.500941
-73.591980 -65.174225 -8.848400 0.516686
-60.108704 -65.174225 -8.848400 0.493504
-46.625397 -65.174225 -8.848400 0.454957
-33.142090 -65.174225 -8.848400 0.433193
-19.658783 -65.174225 -8.848400 0.404667
-6.175476 -65.174225 -8.848400 0.394331
7.307800 -65.174225 -8.848400 0.338105
20.791107 -65.174225 -8.848400 0.300548
34.274414 -65.174225 -8.848400 0.000000
47.757721 -65.174225 -8.848400 0.000000
61.240997 -65.174225 -8.848400 0.000000
74.724304 -65.174225 -8.848400 0.000000
88.207611 -65.174225 -8.848400 0.000000
101.690918 -65.174225 -8.848400 0.000000
115.174225 -65.174225 -8.848400 0.000000
128.657501 -65.174225 -8.848400 0.000000
142.140808 -65.174225 -8.848400 0.000000
155.624115 -65.174225 -8.848400 0.000000
169.107422 -65.174225 -8.848400 0.000000
182.590698 -65.174225 -8.848400 0.000000
196.074036 -65.174225 -8.848400 0.000000
209.557312 -65.174225 -8.848400 0.000000
223.040588 -65.174225 -8.848400 0.000000
236.523926 -65.174225 -8.848400 0.000000
250.007202 -65.174225 -8.848400 0.000000
263.490540 -65.174225 -8.848400 0.000000
276.973816 -65.174225 -8.848400 0.000000
290.457092 -65.174225 -8.848400 0.000000
303.940430 -65.174225 -8.848400 0.000000
317.423706 -65.174225 -8.848400 0.000000
330.907043 -65.174225 -8.848400 0.000000
344.390320 -65.174225 -8.848400 0.000000
-343.257996 -78.657501 -8.848400 0.000000
-329.774689 -78.657501 -8.848400 0.000000
-316.291382 -78.657501 -8.848400 0.000000
-302.808105 -78.657501 -8.848400 0.000000
-289.324799 -78.657501 -8.848400 0.000000
-275.841492 -78.657501 -8.848400 0.000000
-262.358185 -78.657501 -8.848400 0.000000
-248.874893 -78.657501 -8.848400 0.000000
-235.391602 -78.657501 -8.848400 0.000000
-221.908295 -78.657501 -8.848400 0.000000
-208.424988 -78.657501 -8.848400 0.000000
-194.941696 -78.657501 -8.848400 0.000000
-181.458389 -78.657501 -8.848400 0.000000
-167.975098 -78.657501 -8.848400 0.000000
-154.491791 -78.657501 -8.848400 0.000000
-141.008499 -78.657501 -8.848400 0.452604
-127.525192 -78.657501 -8.848400 0.000000
-114.041885 -78.657501 -8.848400 0.000000
-100.558594 -78.657501 -8.848400 0.500627
-87.075287 -78.657501 -8.848400 0.490916
-73.591980 -78.657501 -8.848400 0.496988
-60.108704 -78.657501 -8.848400 0.463300
-46.625397 -78.657501 -8.848400 0.446360
-33.142090 -78.657501 -8.848400 0.415412
-19.658783 -78.657501 -8.848400 0.369717
-6.175476 -78.657501 -8.848400 0.354314
7.307800 -78.657501 -8.848400 0.329536
20.791107 -78.657501 -8.848400 0.000000
34.274414 -78.657501 -8.848400 0.000000
47.757721 -78.657501 -8.848400 0.000000
61.240997 -78.657501 -8.848400 0.000000
74.724304 -78.657501 -8.848400 0.000000
88.207611 -78.657501 -8.848400 0.000000
101.690918 -78.657501 -8.848400 0.000000
115.174225 -78.657501 -8.848400 0.000000
128.657501 -78.657501 -8.848400 0.000000
142.140808 -78.657501 -8.848400 0.000000
155.624115 -78.657501 -8.848400 0.000000
169.107422 -78.657501 -8.848400 0.000000
182.590698 -78.657501 -8.848400 0.000000
196.074036 -78.657501 -8.848400 0.000000
209.557312 -78.657501 -8.848400 0.000000
223.040588 -78.657501 -8.848400 0.000000
236.523926 -78.657501 -8.848400 0.000000
250.007202 -78.657501 -8.848400 0.000000
263.490540 -78.657501 -8.848400 0.000000
276.973816 -78.657501 -8.848400 0.000000
290.457092 -78.657501 -8.848400 0.000000
303.940430 -78.657501 -8.848400 0.000000
317.423706 -78.657501 -8.848400 0.000000
330.907043 -78.657501 -8.848400 0.000000
344.390320 -78.657501 -8.848400 0.000000
-343.257996 -92.140808 -8.848400 0.000000
-329.774689 -92.140808 -8.848400 0.000000
-316.291382 -92.140808 -8.848400 0.000000
-302.808105 -92.140808 -8.848400 0.000000
-289.324799 -92.140808 -8.848400 0.000000
-275.841492 -92.140808 -8.848400 0.000000
-262.358185 -92.140808 -8.848400 0.000000
-248.874893 -92.140808 -8.848400 0.000000
-235.391602 -92.140808 -8.848400 0.000000
-221.908295 -92.140808 -8.848400 0.000000
-208.424988 -92.140808 -8.848400 0.000000
-194.941696 -92.140808 -8.848400 0.000000
-181.458389 -92.140808 -8.848400 0.000000
-167.975098 -92.140808 -8.848400 0.000000
-154.491791 -92.140808 -8.848400 0.000000
-141.008499 -92.140808 -8.848400 0.000000
-127.525192 -92.140808 -8.848400 0.000000
-114.041885 -92.140808 -8.848400 0.000000
-100.558594 -92.140808 -8.848400 0.000000
-87.075287 -92.140808 -8.848400 0.457422
-73.591980 -92.140808 -8.848400 0.000000
-60.108704 -92.140808 -8.848400 0.000000
-46.625397 -92.140808 -8.848400 0.000000
-33.142090 -92.140808 -8.848400 0.415274
-19.658783 -92.140808 -8.848400 0.361910
-6.175476 -92.140808 -8.848400 0.000000
7.307800 -92.140808 -8.848400 0.000000
20.791107 -92.140808 -8.848400 0.000000
34.274414 -92.140808 -8.848400 0.000000
47.757721 -92.140808 -8.848400 0.000000
61.240997 -92.140808 -8.848400 0.000000
74.724304 -92.140808 -8.848400 0.000000
88.207611 -92.140808 -8.848400 0.000000
101.690918 -92.140808 -8.848400 0.000000
115.174225 -92.140808 -8.848400 0.000000
128.657501 -92.140808 -8.848400 0.000000
142.140808 -92.140808 -8.848400 0.000000
155.624115 -92.140808 -8.848400 0.000000
169.107422 -92.140808 -8.848400 0.000000
182.590698 -92.140808 -8.848400 0.000000
196.074036 -92.140808 -8.848400 0.000000
209.557312 -92.140808 -8.848400 0.000000
223.040588 -92.140808 -8.848400 0.000000
236.523926 -92.140808 -8.848400 0.000000
250.007202 -92.140808 -8.848400 0.000000
263.490540 -92.140808 -8.848400 0.000000
276.973816 -92.140808 -8.848400 0.000000
290.457092 -92.140808 -8.848400 0.000000
303.940430 -92.140808 -8.848400 0.000000
317.423706 -92.140808 -8.848400 0.000000
330.907043 -92.140808 -8.848400 0.000000
344.390320 -92.140808 -8.848400 0.000000
-343.257996 -105.624115 -8.848400 0.000000
-329.774689 -105.624115 -8.848400 0.000000
-316.291382 -105.624115 -8.848400 0.000000
-302.808105 -105.624115 -8.848400 0.000000
-289.324799 -105.624115 -8.848400 0.000000
-275.841492 -105.624115 -8.848400 0.000000
-262.358185 -105.624115 -8.848400 0.000000
-248.874893 -105.624115 -8.848400 0.000000
-235.391602 -105.624115 -8.848400 0.000000
-221.908295 -105.624115 -8.848400 0.000000
-208.424988 -105.624115 -8.848400 0.000000
-194.941696 -105.624115 -8.848400 0.000000
-181.458389 -105.624115 -8.848400 0.000000
-167.975098 -105.624115 -8.848400 0.000000
-154.491791 -105.624115 -8.848400 0.000000
-141.008499 -105.624115 -8.848400 0.000000
-127.525192 -105.624115 -8.848400 0.000000
-114.041885 -105.624115 -8.848400 0.000000
-100.558594 -105.624115 -8.848400 0.000000
-87.075287 -105.624115 -8.848400 0.000000
-73.591980 -105.624115 -8.848400 0.000000
-60.108704 -105.624115 -8.848400 0.000000
-46.625397 -105.624115 -8.848400 0.000000
-33.142090 -105.624115 -8.848400 0.000000
-19.658783 -105.624115 -8.848400 0.000000
-6.175476 -105.624115 -8.848400 0.000000
7.307800 -105.624115 -8.848400 0.000000
20.791107 -105.624115 -8.848400 0.000000
34.274414 -105.624115 -8.848400 0.000000
47.757721 -105.624115 -8.848400 0.000000
61.240997 -105.624115 -8.848400 0.000000
74.724304 -105.624115 -8.848400 0.000000
88.207611 -105.624115 -8.848400 0.000000
101.690918 -105.624115 -8.848400 0.000000
115.174225 -105.624115 -8.848400 0.000000
128.657501 -105.624115 -8.848400 0.000000
142.140808 -105.624115 -8.848400 0.000000
155.624115 -105.624115 -8.848400 0.000000
169.107422 -105.624115 -8.848400 0.000000
182.590698 -105.624115 -8.848400 0.000000
196.074036 -105.624115 -8.848400 0.000000
209.557312 -105.624115 -8.848400 0.000000
223.040588 -105.624115 -8.848400 0.000000
236.523926 -105.624115 -8.848400 0.000000
250.007202 -105.624115 -8.848400 0.000000
263.490540 -105.624115 -8.848400 0.000000
276.973816 -105.624115 -8.848400 0.000000
290.457092 -105.624115 -8.848400 0.000000
303.940430 -105.624115 -8.848400 0.000000
317.423706 -105.624115 -8.848400 0.000000
330.907043 -105.624115 -8.848400 0.000000
344.390320 -105.624115 -8.848400 0.000000
-343.257996 -119.107422 -8.848400 0.000000
-329.774689 -119.107422 -8.848400 0.000000
-316.291382 -119.107422 -8.848400 0.000000
-302.808105 -119.107422 -8.848400 0.000000
-289.324799 -119.107422 -8.848400 0.000000
-275.841492 -119.107422 -8.848400 0.000000
-262.358185 -119.107422 -8.848400 0.000000
-248.874893 -119.107422 -8.848400 0.000000
-235.391602 -119.107422 -8.848400 0.000000
-221.908295 -119.107422 -8.848400 0.000000
-208.424988 -119.107422 -8.848400 0.000000
-194.941696 -119.107422 -8.848400 0.000000
-181.458389 -119.107422 -8.848400 0.000000
-167.975098 -119.107422 -8.848400 0.000000
-154.491791 -119.107422 -8.848400 0.000000
-141.008499 -119.107422 -8.848400 0.000000
-127.525192 -119.107422 -8.848400 0.000000
-114.041885 -119.107422 -8.848400 0.000000
-100.558594 -119.107422 -8.848400 0.000000
-87.075287 -119.107422 -8.848400 0.000000
-73.591980 -119.107422 -8.848400 0.000000
-60.108704 -119.107422 -8.848400 0.000000
-46.625397 -119.107422 -8.848400 0.000000
-33.142090 -119.107422 -8.848400 0.000000
-19.658783 -119.107422 -8.848400 0.000000
-6.175476 -119.107422 -8.848400 0.000000
7.307800 -119.107422 -8.848400 0.000000
20.791107 -119.107422 -8.848400 0.000000
34.274414 -119.107422 -8.848400 0.000000
47.757721 -119.107422 -8.848400 0.000000
61.240997 -119.107422 -8.848400 0.000000
74.724304 -119.107422 -8.848400 0.000000
88.207611 -119.107422 -8.848400 0.000000
101.690918 -119.107422 -8.848400 0.000000
115.174225 -119.107422 -8.848400 0.000000
128.657501 -119.107422 -8.848400 0.000000
142.140808 -119.107422 -8.848400 0.000000
155.624115 -119.107422 -8.848400 0.000000
169.107422 -119.107422 -8.848400 0.000000
182.590698 -119.107422 -8.848400 0.000000
196.074036 -119.107422 -8.848400 0.000000
209.557312 -119.107422 -8.848400 0.000000
223.040588 -119.107422 -8.848400 0.000000
236.523926 -119.107422 -8.848400 0.000000
250.007202 -119.107422 -8.848400 0.000000
263.490540 -119.107422 -8.848400 0.000000
276.973816 -119.107422 -8.848400 0.000000
290.457092 -119.107422 -8.848400 0.000000
303.940430 -119.107422 -8.848400 0.000000
317.423706 -119.107422 -8.848400 0.000000
330.907043 -119.107422 -8.848400 0.000000
344.390320 -119.107422 -8.848400 0.000000
-343.257996 -132.590698 -8.848400 0.000000
-329.774689 -132.590698 -8.848400 0.000000
-316.291382 -132.590698 -8.848400 0.000000
-302.808105 -132.590698 -8.848400 0.000000
-289.324799 -132.590698 -8.848400 0.000000
-275.841492 -132.590698 -8.848400 0.000000
-262.358185 -132.590698 -8.848400 0.000000
-248.874893 -132.590698 -8.848400 0.000000
-235.391602 -132.590698 -8.848400 0.000000
-221.908295 -132.590698 -8.848400 0.000000
-208.424988 -132.590698 -8.848400 0.000000
-194.941696 -132.590698 -8.848400 0.000000
-181.458389 -132.590698 -8.848400 0.000000
-167.975098 -132.590698 -8.848400 0.000000
-154.491791 -132.590698 -8.848400 0.000000
-141.008499 -132.590698 -8.848400 0.000000
-127.525192 -132.590698 -8.848400 0.000000
-114.041885 -132.590698 -8.848400 0.000000
-100.558594 -132.590698 -8.848400 0.000000
-87.075287 -132.590698 -8.848400 0.000000
-73.591980 -132.590698 -8.848400 0.000000
-60.108704 -132.590698 -8.848400 0.000000
-46.625397 -132.590698 -8.848400 0.000000
-33.142090 -132.590698 -8.848400 0.000000
-19.658783 -132.590698 -8.848400 0.000000
-6.175476 -132.590698 -8.848400 0.000000
7.307800 -132.590698 -8.848400 0.000000
20.791107 -132.590698 -8.848400 0.000000
34.274414 -132.590698 -8.848400 0.000000
47.757721 -132.590698 -8.848400 0.000000
61.240997 -132.590698 -8.848400 0.000000
74.724304 -132.590698 -8.848400 0.000000
88.207611 -132.590698 -8.848400 0.000000
101.690918 -132.590698 -8.848400 0.000000
115.174225 -132.590698 -8.848400 0.000000
128.657501 -132.590698 -8.848400 0.000000
142.140808 -132.590698 -8.848400 0.000000
155.624115 -132.590698 -8.848400 0.000000
169.107422 -132.590698 -8.848400 0.000000
182.590698 -132.590698 -8.848400 0.000000
196.074036 -132.590698 -8.848400 0.000000
209.557312 -132.590698 -8.848400 0.000000
223.040588 -132.590698 -8.848400 0.000000
236.523926 -132.590698 -8.848400 0.000000
250.007202 -132.590698 -8.848400 0.000000
263.490540 -132.590698 -8.848400 0.000000
276.973816 -132.590698 -8.848400 0.000000
290.457092 -132.590698 -8.848400 0.000000
303.940430 -132.590698 -8.848400 0.000000
317.423706 -132.590698 -8.848400 0.000000
330.907043 -132.590698 -8.848400 0.000000
344.390320 -132.590698 -8.848400 0.000000
-343.257996 -146.074036 -8.848400 0.000000
-329.774689 -146.074036 -8.848400 0.000000
-316.291382 -146.074036 -8.848400 0.000000
-302.808105 -146.074036 -8.848400 0.000000
-289.324799 -146.074036 -8.848400 0.000000
-275.841492 -146.074036 -8.848400 0.000000
-262.358185 -146.074036 -8.848400 0.000000
-248.874893 -146.074036 -8.848400 0.000000
-235.391602 -146.074036 -8.848400 0.000000
-221.908295 -146.074036 -8.848400 0.000000
-208.424988 -146.074036 -8.848400 0.000000
-194.941696 -146.074036 -8.848400 0.000000
-181.458389 -146.074036 -8.848400 0.000000
-167.975098 -146.074036 -8.848400 0.000000
-154.491791 -146.074036 -8.848400 0.000000
-141.008499 -146.074036 -8.848400 0.000000
-127.525192 -146.074036 -8.848400 0.000000
-114.041885 -146.074036 -8.848400 0.000000
-100.558594 -146.074036 -8.848400 0.000000
-87.075287 -146.074036 -8.848400 0.000000
-73.591980 -146.074036 -8.848400 0.000000
-60.108704 -146.074036 -8.848400 0.000000
-46.625397 -146.074036 -8.848400 0.000000
-33.142090 -146.074036 -8.848400 0.000000
-19.658783 -146.074036 -8.848400 0.000000
-6.175476 -146.074036 -8.848400 0.000000
7.307800 -146.074036 -8.848400 0.000000
20.791107 -146.074036 -8.848400 0.000000
34.274414 -146.074036 -8.848400 0.000000
47.757721 -146.074036 -8.848400 0.000000
61.240997 -146.074036 -8.848400 0.000000
74.724304 -146.074036 -8.848400 0.000000
88.207611 -146.074036 -8.848400 0.000000
101.690918 -146.074036 -8.848400 0.000000
115.174225 -146.074036 -8.848400 0.000000
128.657501 -146.074036 -8.848400 0.000000
142.140808 -146.074036 -8.848400 0.000000
155.624115 -146.074036 -8.848400 0.000000
169.107422 -146.074036 -8.848400 0.000000
182.590698 -146.074036 -8.848400 0.000000
196.074036 -146.074036 -8.848400 0.000000
209.557312 -146.074036 -8.848400 0.000000
223.040588 -146.074036 -8.848400 0.000000
236.523926 -146.074036 -8.848400 0.000000
250.007202 -146.074036 -8.848400 0.000000
263.490540 -146.074036 -8.848400 0.000000
276.973816 -146.074036 -8.848400 0.000000
290.457092 -146.074036 -8.848400 0.000000
303.940430 -146.074036 -8.848400 0.000000
317.423706 -146.074036 -8.848400 0.000000
330.907043 -146.074036 -8.848400 0.000000
344.390320 -146.074036 -8.848400 0.000000
-343.257996 -159.557312 -8.848400 0.000000
-329.774689 -159.557312 -8.848400 0.000000
-316.291382 -159.557312 -8.848400 0.000000
-302.808105 -159.557312 -8.848400 0.000000
-289.324799 -159.557312 -8.848400 0.000000
-275.841492 -159.557312 -8.848400 0.000000
-262.358185 -159.557312 -8.848400 0.000000
-248.874893 -159.557312 -8.848400 0.000000
-235.391602 -159.557312 -8.848400 0.000000
-221.908295 -159.557312 -8.848400 0.000000
-208.424988 -159.557312 -8.848400 0.000000
-194.941696 -159.557312 -8.848400 0.000000
-181.458389 -159.557312 -8.848400 0.000000
-167.975098 -159.557312 -8.848400 0.000000
-154.491791 -159.557312 -8.848400 0.000000
-141.008499 -159.557312 -8.848400 0.000000
-127.525192 -159.557312 -8.848400 0.000000
-114.041885 -159.557312 -8.848400 0.000000
-100.558594 -159.557312 -8.848400 0.000000
-87.075287 -159.557312 -8.848400 0.000000
-73.591980 -159.557312 -8.848400 0.000000
-60.108704 -159.557312 -8.848400 0.000000
-46.625397 -159.557312 -8.848400 0.000000
-33.142090 -159.557312 -8.848400 0.000000
-19.658783 -159.557312 -8.848400 0.000000
-6.175476 -159.557312 -8.848400 0.000000
7.307800 -159.557312 -8.848400 0.000000
20.791107 -159.557312 -8.848400 0.000000
34.274414 -159.557312 -8.848400 0.000000
47.757721 -159.557312 -8.848400 0.000000
61.240997 -159.557312 -8.848400 0.000000
74.724304 -159.557312 -8.848400 0.000000
88.207611 -159.557312 -8.848400 0.000000
101.690918 -159.557312 -8.848400 0.000000
115.174225 -159.557312 -8.848400 0.000000
128.657501 -159.557312 -8.848400 0.000000
142.140808 -159.557312 -8.848400 0.000000
155.624115 -159.557312 -8.848400 0.000000
169.107422 -159.557312 -8.848400 0.000000
182.590698 -159.557312 -8.848400 0.000000
196.074036 -159.557312 -8.848400 0.000000
209.557312 -159.557312 -8.848400 0.000000
223.040588 -159.557312 -8.848400 0.000000
236.523926 -159.557312 -8.848400 0.000000
250.007202 -159.557312 -8.848400 0.000000
263.490540 -159.557312 -8.848400 0.000000
276.973816 -159.557312 -8.848400 0.000000
290.457092 -159.557312 -8.848400 0.000000
303.940430 -159.557312 -8.848400 0.000000
317.423706 -159.557312 -8.848400 0.000000
330.907043 -159.557312 -8.848400 0.000000
344.390320 -159.557312 -8.848400 0.000000
-343.257996 -173.040588 -8.848400 0.000000
-329.774689 -173.040588 -8.848400 0.000000
-316.291382 -173.040588 -8.848400 0.000000
-302.808105 -173.040588 -8.848400 0.000000
-289.324799 -173.040588 -8.848400 0.000000
-275.841492 -173.040588 -8.848400 0.000000
-262.358185 -173.040588 -8.848400 0.000000
-248.874893 -173.040588 -8.848400 0.000000
-235.391602 -173.040588 -8.848400 0.000000
-221.908295 -173.040588 -8.848400 0.000000
-208.424988 -173.040588 -8.848400 0.000000
-194.941696 -173.040588 -8.848400 0.000000
-181.458389 -173.040588 -8.848400 0.000000
-167.975098 -173.040588 -8.848400 0.000000
-154.491791 -173.040588 -8.848400 0.000000
-141.008499 -173.040588 -8.848400 0.000000
-127.525192 -173.040588 -8.848400 0.000000
-114.041885 -173.040588 -8.848400 0.000000
-100.558594 -173.040588 -8.848400 0.000000
-87.075287 -173.040588 -8.848400 0.000000
-73.591980 -173.040588 -8.848400 0.000000
-60.108704 -173.040588 -8.848400 0.000000
-46.625397 -173.040588 -8.848400 0.000000
-33.142090 -173.040588 -8.848400 0.000000
-19.658783 -173.040588 -8.848400 0.000000
-6.175476 -173.040588 -8.848400 0.000000
7.307800 -173.040588 -8.848400 0.000000
20.791107 -173.040588 -8.848400 0.000000
34.274414 -173.040588 -8.848400 0.000000
47.757721 -173.040588 -8.848400 0.000000
61.240997 -173.040588 -8.848400 0.000000
74.724304 -173.040588 -8.848400 0.000000
88.207611 -173.040588 -8.848400 0.000000
101.690918 -173.040588 -8.848400 0.000000
115.174225 -173.040588 -8.848400 0.000000
128.657501 -173.040588 -8.848400 0.000000
142.140808 -173.040588 -8.848400 0.000000
155.624115 -173.040588 -8.848400 0.000000
169.107422 -173.040588 -8.848400 0.000000
182.590698 -173.040588 -8.848400 0.000000
196.074036 -173.040588 -8.848400 0.000000
209.557312 -173.040588 -8.848400 0.000000
223.040588 -173.040588 -8.848400 0.000000
236.523926 -173.040588 -8.848400 0.000000
250.007202 -173.040588 -8.848400 0.000000
263.490540 -173.040588 -8.848400 0.000000
276.973816 -173.040588 -8.848400 0.000000
290.457092 -173.040588 -8.848400 0.000000
303.940430 -173.040588 -8.848400 0.000000
317.423706 -173.040588 -8.848400 0.000000
330.907043 -173.040588 -8.848400 0.000000
344.390320 -173.040588 -8.848400 0.000000
-343.257996 -186.523926 -8.848400 0.000000
-329.774689 -186.523926 -8.848400 0.000000
-316.291382 -186.523926 -8.848400 0.000000
-302.808105 -186.523926 -8.848400 0.000000
-289.324799 -186.523926 -8.848400 0.000000
-275.841492 -186.523926 -8.848400 0.000000
-262.358185 -186.523926 -8.848400 0.000000
-248.874893 -186.523926 -8.848400 0.000000
-235.391602 -186.523926 -8.848400 0.000000
-221.908295 -186.523926 -8.848400 0.000000
-208.424988 -186.523926 -8.848400 0.000000
-194.941696 -186.523926 -8.848400 0.000000
-181.458389 -186.523926 -8.848400 0.000000
-167.975098 -186.523926 -8.848400 0.000000
-154.491791 -186.523926 -8.848400 0.000000
-141.008499 -186.523926 -8.848400 0.000000
-127.525192 -186.523926 -8.848400 0.000000
-114.041885 -186.523926 -8.848400 0.000000
-100.558594 -186.523926 -8.848400 0.000000
-87.075287 -186.523926 -8.848400 0.000000
-73.591980 -186.523926 -8.848400 0.000000
-60.108704 -186.523926 -8.848400 0.000000
-46.625397 -186.523926 -8.848400 0.000000
-33.142090 -186.523926 -8.848400 0.000000
-19.658783 -186.523926 -8.848400 0.000000
-6.175476 -186.523926 -8.848400 0.000000
7.307800 -186.523926 -8.848400 0.000000
20.791107 -186.523926 -8.848400 0.000000
34.274414 -186.523926 -8.848400 0.000000
47.757721 -186.523926 -8.848400 0.000000
61.240997 -186.523926 -8.848400 0.000000
74.724304 -186.523926 -8.848400 0.000000
88.207611 -186.523926 -8.848400 0.000000
101.690918 -186.523926 -8.848400 0.000000
115.174225 -186.523926 -8.848400 0.000000
128.657501 -186.523926 -8.848400 0.000000
142.140808 -186.523926 -8.848400 0.000000
155.624115 -186.523926 -8.848400 0.000000
169.107422 -186.523926 -8.848400 0.000000
182.590698 -186.523926 -8.848400 0.000000
196.074036 -186.523926 -8.848400 0.000000
209.557312 -186.523926 -8.848400 0.000000
223.040588 -186.523926 -8.848400 0.000000
236.523926 -186.523926 -8.848400 0.000000
250.007202 -186.523926 -8.848400 0.000000
263.490540 -186.523926 -8.848400 0.000000
276.973816 -186.523926 -8.848400 0.000000
290.457092 -186.523926 -8.848400 0.000000
303.940430 -186.523926 -8.848400 0.000000
317.423706 -186.523926 -8.848400 0.000000
330.907043 -186.523926 -8.848400 0.000000
344.390320 -186.523926 -8.848400 0.000000
-343.257996 -200.007202 -8.848400 0.000000
-329.774689 -200.007202 -8.848400 0.000000
-316.291382 -200.007202 -8.848400 0.000000
-302.808105 -200.007202 -8.848400 0.000000
-289.324799 -200.007202 -8.848400 0.000000
-275.841492 -200.007202 -8.848400 0.000000
-262.358185 -200.007202 -8.848400 0.000000
-248.874893 -200.007202 -8.848400 0.000000
-235.391602 -200.007202 -8.848400 0.000000
-221.908295 -200.007202 -8.848400 0.000000
-208.424988 -200.007202 -8.848400 0.000000
-194.941696 -200.007202 -8.848400 0.000000
-181.458389 -200.007202 -8.848400 0.000000
-167.975098 -200.007202 -8.848400 0.000000
-154.491791 -200.007202 -8.848400 0.000000
-141.008499 -200.007202 -8.848400 0.000000
-127.525192 -200.007202 -8.848400 0.000000
-114.041885 -200.007202 -8.848400 0.000000
-100.558594 -200.007202 -8.848400 0.000000
-87.075287 -200.007202 -8.848400 0.000000
-73.591980 -200.007202 -8.848400 0.000000
-60.108704 -200.007202 -8.848400 0.000000
-46.625397 -200.007202 -8.848400 0.000000
-33.142090 -200.007202 -8.848400 0.000000
-19.658783 -200.007202 -8.848400 0.000000
-6.175476 -200.007202 -8.848400 0.000000
7.307800 -200.007202 -8.848400 0.000000
20.791107 -200.007202 -8.848400 0.000000
34.274414 -200.007202 -8.848400 0.000000
47.757721 -200.007202 -8.848400 0.000000
61.240997 -200.007202 -8.848400 0.000000
74.724304 -200.007202 -8.848400 0.000000
88.207611 -200.007202 -8.848400 0.000000
101.690918 -200.007202 -8.848400 0.000000
115.174225 -200.007202 -8.848400 0.000000
128.657501 -200.007202 -8.848400 0.000000
142.140808 -200.007202 -8.848400 0.000000
155.624115 -200.007202 -8.848400 0.000000
169.107422 -200.007202 -8.848400 0.000000
182.590698 -200.007202 -8.848400 0.000000
196.074036 -200.007202 -8.848400 0.000000
209.557312 -200.007202 -8.848400 0.000000
223.040588 -200.007202 -8.848400 0.000000
236.523926 -200.007202 -8.848400 0.000000
250.007202 -200.007202 -8.848400 0.000000
263.490540 -200.007202 -8.848400 0.000000
276.973816 -200.007202 -8.848400 0.000000
290.457092 -200.007202 -8.848400 0.000000
303.940430 -200.007202 -8.848400 0.000000
317.423706 -200.007202 -8.848400 0.000000
330.907043 -200.007202 -8.848400 0.000000
344.390320 -200.007202 -8.848400 0.000000
